TITLE="results for TO code"
VARIABLES = "x", "y", "z", "density", "sigmaxx", "sigmayy", "sigmazz", "sigmaxy", "sigmaxz", "sigmayz"
ZONE T="load step 1", NODES= 12221, ELEMENTS= 10000, DATAPACKING=POINT, ZONETYPE=FEBRICK
               0.00000000                0.00000000                0.00000000                1.00000000               -0.00000000               -0.00000000                0.15037705               -0.00000000                0.07197444                0.07192995
               1.00000000                0.00000000                0.00000000                1.00000000                0.00000000                0.00000000                0.07656130                0.00000000                0.01966312                0.05493570
               2.00000000                0.00000000                0.00000000                1.00000000               -0.00000000                0.00000000                0.03377544               -0.00000000                0.00698143                0.02766246
               3.00000000                0.00000000                0.00000000                1.00000000               -0.00000000                0.00000000                0.03314434               -0.00000000                0.00693206                0.02385002
               4.00000000                0.00000000                0.00000000                1.00000000                0.00000000                0.00000000                0.03753369                0.00000000                0.00775174                0.02698677
               5.00000000                0.00000000                0.00000000                1.00000000               -0.00000000               -0.00000000                0.04632402                0.00000000                0.00825420                0.03325770
               6.00000000                0.00000000                0.00000000                1.00000000                0.00000000               -0.00000000                0.06073114               -0.00000000                0.00769101                0.04345032
               7.00000000                0.00000000                0.00000000                1.00000000               -0.00000000                0.00000000                0.08401732                0.00000000                0.00343555                0.05925642
               8.00000000                0.00000000                0.00000000                1.00000000               -0.00000000                0.00000000                0.11988553               -0.00000000               -0.01190274                0.08176008
               9.00000000                0.00000000                0.00000000                1.00000000               -0.00000000                0.00000000                0.17192937               -0.00000000               -0.05278771                0.10039033
              10.00000000                0.00000000                0.00000000                1.00000000                0.00000000               -0.00000000                0.24956873               -0.00000000               -0.12969831                0.09974771
               0.00000000                1.00000000                0.00000000                1.00000000                0.00000000               -0.00000000                0.07650438               -0.00000000                0.05489279                0.01964113
               1.00000000                1.00000000                0.00000000                1.00000000               -0.00000000               -0.00000000                0.02644832                0.00000000                0.02119569                0.02121252
               2.00000000                1.00000000                0.00000000                1.00000000               -0.00000000                0.00000000                0.00841759               -0.00000000                0.01049902                0.00828986
               3.00000000                1.00000000                0.00000000                1.00000000                0.00000000               -0.00000000                0.00949417                0.00000000                0.00555952                0.00422756
               4.00000000                1.00000000                0.00000000                1.00000000               -0.00000000               -0.00000000                0.01139286                0.00000000                0.00367175                0.00415694
               5.00000000                1.00000000                0.00000000                1.00000000                0.00000000               -0.00000000                0.01467295               -0.00000000                0.00241792                0.00523754
               6.00000000                1.00000000                0.00000000                1.00000000               -0.00000000                0.00000000                0.01998829                0.00000000                0.00027911                0.00748743
               7.00000000                1.00000000                0.00000000                1.00000000               -0.00000000               -0.00000000                0.02917558               -0.00000000               -0.00439988                0.01187350
               8.00000000                1.00000000                0.00000000                1.00000000                0.00000000               -0.00000000                0.04578519                0.00000000               -0.01481461                0.01896161
               9.00000000                1.00000000                0.00000000                1.00000000                0.00000000               -0.00000000                0.08238151               -0.00000000               -0.03956571                0.02933271
              10.00000000                1.00000000                0.00000000                1.00000000                0.00000000               -0.00000000                0.15180650                0.00000000               -0.10300768                0.01664128
               0.00000000                2.00000000                0.00000000                1.00000000               -0.00000000                0.00000000                0.03371062                0.00000000                0.02761808                0.00697806
               1.00000000                2.00000000                0.00000000                1.00000000               -0.00000000               -0.00000000                0.00841792               -0.00000000                0.00827698                0.01050676
               2.00000000                2.00000000                0.00000000                1.00000000                0.00000000               -0.00000000               -0.00081710                0.00000000                0.00441299                0.00441779
               3.00000000                2.00000000                0.00000000                1.00000000                0.00000000                0.00000000               -0.00043299               -0.00000000                0.00216645                0.00190313
               4.00000000                2.00000000                0.00000000                1.00000000               -0.00000000               -0.00000000               -0.00071371               -0.00000000                0.00070547                0.00131434
               5.00000000                2.00000000                0.00000000                1.00000000               -0.00000000                0.00000000               -0.00094328                0.00000000               -0.00024753                0.00162382
               6.00000000                2.00000000                0.00000000                1.00000000                0.00000000                0.00000000               -0.00124904                0.00000000               -0.00135363                0.00259254
               7.00000000                2.00000000                0.00000000                1.00000000                0.00000000               -0.00000000               -0.00173532                0.00000000               -0.00305891                0.00455712
               8.00000000                2.00000000                0.00000000                1.00000000               -0.00000000                0.00000000               -0.00257073                0.00000000               -0.00565814                0.00799992
               9.00000000                2.00000000                0.00000000                1.00000000                0.00000000               -0.00000000                0.00257607                0.00000000               -0.00972978                0.01113446
              10.00000000                2.00000000                0.00000000                1.00000000               -0.00000000               -0.00000000                0.02240682               -0.00000000               -0.02577644               -0.00944554
               0.00000000                3.00000000                0.00000000                1.00000000                0.00000000               -0.00000000                0.03305758               -0.00000000                0.02380157                0.00692690
               1.00000000                3.00000000                0.00000000                1.00000000               -0.00000000                0.00000000                0.00949201                0.00000000                0.00422153                0.00556746
               2.00000000                3.00000000                0.00000000                1.00000000               -0.00000000                0.00000000               -0.00043304               -0.00000000                0.00189985                0.00216902
               3.00000000                3.00000000                0.00000000                1.00000000               -0.00000000               -0.00000000                0.00023936               -0.00000000                0.00104562                0.00104780
               4.00000000                3.00000000                0.00000000                1.00000000                0.00000000               -0.00000000                0.00015121               -0.00000000                0.00033800                0.00071304
               5.00000000                3.00000000                0.00000000                1.00000000                0.00000000               -0.00000000                0.00017413                0.00000000               -0.00018481                0.00082914
               6.00000000                3.00000000                0.00000000                1.00000000               -0.00000000               -0.00000000                0.00023598               -0.00000000               -0.00065567                0.00131495
               7.00000000                3.00000000                0.00000000                1.00000000                0.00000000               -0.00000000                0.00033395                0.00000000               -0.00113095                0.00226416
               8.00000000                3.00000000                0.00000000                1.00000000               -0.00000000                0.00000000                0.00059440               -0.00000000               -0.00132622                0.00369218
               9.00000000                3.00000000                0.00000000                1.00000000                0.00000000               -0.00000000                0.00027905                0.00000000               -0.00030459                0.00412556
              10.00000000                3.00000000                0.00000000                1.00000000               -0.00000000                0.00000000               -0.00105896                0.00000000                0.00089861               -0.00258841
               0.00000000                4.00000000                0.00000000                1.00000000               -0.00000000                0.00000000                0.03740149                0.00000000                0.02691885                0.00773455
               1.00000000                4.00000000                0.00000000                1.00000000                0.00000000               -0.00000000                0.01138755               -0.00000000                0.00415329                0.00368426
               2.00000000                4.00000000                0.00000000                1.00000000               -0.00000000               -0.00000000               -0.00071365                0.00000000                0.00131146                0.00071011
               3.00000000                4.00000000                0.00000000                1.00000000               -0.00000000                0.00000000                0.00015103                0.00000000                0.00071057                0.00034086
               4.00000000                4.00000000                0.00000000                1.00000000               -0.00000000                0.00000000                0.00004438               -0.00000000                0.00027215                0.00027449
               5.00000000                4.00000000                0.00000000                1.00000000                0.00000000                0.00000000                0.00004116                0.00000000               -0.00002342                0.00034311
               6.00000000                4.00000000                0.00000000                1.00000000                0.00000000                0.00000000                0.00004641               -0.00000000               -0.00022969                0.00053498
               7.00000000                4.00000000                0.00000000                1.00000000               -0.00000000               -0.00000000                0.00006487               -0.00000000               -0.00029698                0.00086194
               8.00000000                4.00000000                0.00000000                1.00000000               -0.00000000                0.00000000                0.00004404               -0.00000000               -0.00000457                0.00120129
               9.00000000                4.00000000                0.00000000                1.00000000                0.00000000                0.00000000                0.00007660                0.00000000                0.00081083                0.00083555
              10.00000000                4.00000000                0.00000000                1.00000000               -0.00000000               -0.00000000               -0.00031985                0.00000000                0.00100667                0.00009061
               0.00000000                5.00000000                0.00000000                1.00000000                0.00000000               -0.00000000                0.04610828                0.00000000                0.03314712                0.00821612
               1.00000000                5.00000000                0.00000000                1.00000000               -0.00000000                0.00000000                0.01466484               -0.00000000                0.00523051                0.00244099
               2.00000000                5.00000000                0.00000000                1.00000000               -0.00000000               -0.00000000               -0.00094346               -0.00000000                0.00161784               -0.00023671
               3.00000000                5.00000000                0.00000000                1.00000000                0.00000000                0.00000000                0.00017365                0.00000000                0.00082448               -0.00017921
               4.00000000                5.00000000                0.00000000                1.00000000                0.00000000               -0.00000000                0.00004100                0.00000000                0.00033993               -0.00002055
               5.00000000                5.00000000                0.00000000                1.00000000                0.00000000               -0.00000000                0.00003501               -0.00000000                0.00006306                0.00006507
               6.00000000                5.00000000                0.00000000                1.00000000                0.00000000               -0.00000000                0.00003567               -0.00000000               -0.00009640                0.00010045
               7.00000000                5.00000000                0.00000000                1.00000000                0.00000000                0.00000000                0.00004251               -0.00000000               -0.00011390                0.00008777
               8.00000000                5.00000000                0.00000000                1.00000000               -0.00000000                0.00000000                0.00005437                0.00000000                0.00011239                0.00001838
               9.00000000                5.00000000                0.00000000                1.00000000                0.00000000                0.00000000                0.00002894                0.00000000                0.00041554                0.00011311
              10.00000000                5.00000000                0.00000000                1.00000000               -0.00000000               -0.00000000               -0.00020987                0.00000000                0.00043902                0.00093209
               0.00000000                6.00000000                0.00000000                1.00000000               -0.00000000               -0.00000000                0.06036214                0.00000000                0.04325397                0.00761942
               1.00000000                6.00000000                0.00000000                1.00000000                0.00000000                0.00000000                0.01997916                0.00000000                0.00746408                0.00032639
               2.00000000                6.00000000                0.00000000                1.00000000                0.00000000                0.00000000               -0.00125039               -0.00000000                0.00257531               -0.00132945
               3.00000000                6.00000000                0.00000000                1.00000000                0.00000000               -0.00000000                0.00023501                0.00000000                0.00130374               -0.00064481
               4.00000000                6.00000000                0.00000000                1.00000000               -0.00000000               -0.00000000                0.00004600               -0.00000000                0.00052878               -0.00022577
               5.00000000                6.00000000                0.00000000                1.00000000                0.00000000               -0.00000000                0.00003558               -0.00000000                0.00009749               -0.00009564
               6.00000000                6.00000000                0.00000000                1.00000000               -0.00000000               -0.00000000                0.00003832                0.00000000               -0.00018555               -0.00018579
               7.00000000                6.00000000                0.00000000                1.00000000                0.00000000                0.00000000                0.00005747                0.00000000               -0.00037164               -0.00049902
               8.00000000                6.00000000                0.00000000                1.00000000                0.00000000               -0.00000000                0.00006540                0.00000000               -0.00036267               -0.00097336
               9.00000000                6.00000000                0.00000000                1.00000000                0.00000000               -0.00000000                0.00055274               -0.00000000               -0.00007780               -0.00061298
              10.00000000                6.00000000                0.00000000                1.00000000               -0.00000000                0.00000000                0.00175369                0.00000000               -0.00168610                0.00319713
               0.00000000                7.00000000                0.00000000                1.00000000                0.00000000                0.00000000                0.08336149               -0.00000000                0.05888568                0.00331855
               1.00000000                7.00000000                0.00000000                1.00000000               -0.00000000               -0.00000000                0.02916956                0.00000000                0.01179685               -0.00429983
               2.00000000                7.00000000                0.00000000                1.00000000               -0.00000000                0.00000000               -0.00173946                0.00000000                0.00450909               -0.00301052
               3.00000000                7.00000000                0.00000000                1.00000000               -0.00000000               -0.00000000                0.00033175               -0.00000000                0.00223861               -0.00111331
               4.00000000                7.00000000                0.00000000                1.00000000                0.00000000                0.00000000                0.00006432                0.00000000                0.00084984               -0.00029264
               5.00000000                7.00000000                0.00000000                1.00000000               -0.00000000                0.00000000                0.00004237                0.00000000                0.00008195               -0.00011523
               6.00000000                7.00000000                0.00000000                1.00000000                0.00000000                0.00000000                0.00005760               -0.00000000               -0.00050113               -0.00037745
               7.00000000                7.00000000                0.00000000                1.00000000               -0.00000000               -0.00000000                0.00013434                0.00000000               -0.00115346               -0.00116209
               8.00000000                7.00000000                0.00000000                1.00000000               -0.00000000                0.00000000                0.00011281               -0.00000000               -0.00188427               -0.00254612
               9.00000000                7.00000000                0.00000000                1.00000000               -0.00000000               -0.00000000                0.00416682                0.00000000               -0.00329634               -0.00272436
              10.00000000                7.00000000                0.00000000                1.00000000                0.00000000               -0.00000000                0.01451121               -0.00000000               -0.01321699                0.00822044
               0.00000000                8.00000000                0.00000000                1.00000000               -0.00000000                0.00000000                0.11871171                0.00000000                0.08103837               -0.01202740
               1.00000000                8.00000000                0.00000000                1.00000000                0.00000000               -0.00000000                0.04578079                0.00000000                0.01873937               -0.01462045
               2.00000000                8.00000000                0.00000000                1.00000000               -0.00000000               -0.00000000               -0.00258047               -0.00000000                0.00788600               -0.00557790
               3.00000000                8.00000000                0.00000000                1.00000000               -0.00000000                0.00000000                0.00059395                0.00000000                0.00364194               -0.00130874
               4.00000000                8.00000000                0.00000000                1.00000000                0.00000000               -0.00000000                0.00004258               -0.00000000                0.00118386               -0.00000316
               5.00000000                8.00000000                0.00000000                1.00000000               -0.00000000                0.00000000                0.00005426                0.00000000                0.00000754                0.00010931
               6.00000000                8.00000000                0.00000000                1.00000000                0.00000000                0.00000000                0.00006652                0.00000000               -0.00098503               -0.00037738
               7.00000000                8.00000000                0.00000000                1.00000000                0.00000000                0.00000000                0.00012033                0.00000000               -0.00254873               -0.00192326
               8.00000000                8.00000000                0.00000000                1.00000000                0.00000000                0.00000000                0.00014969                0.00000000               -0.00511215               -0.00517204
               9.00000000                8.00000000                0.00000000                1.00000000               -0.00000000               -0.00000000                0.01870038               -0.00000000               -0.01221194               -0.00753055
              10.00000000                8.00000000                0.00000000                1.00000000               -0.00000000               -0.00000000                0.05983858               -0.00000000               -0.05043008                0.00851653
               0.00000000                9.00000000                0.00000000                1.00000000                0.00000000               -0.00000000                0.16979952               -0.00000000                0.09911168               -0.05263545
               1.00000000                9.00000000                0.00000000                1.00000000               -0.00000000                0.00000000                0.08239599                0.00000000                0.02883091               -0.03927875
               2.00000000                9.00000000                0.00000000                1.00000000                0.00000000               -0.00000000                0.00269056                0.00000000                0.01090883               -0.00966766
               3.00000000                9.00000000                0.00000000                1.00000000                0.00000000                0.00000000                0.00026279               -0.00000000                0.00406507               -0.00031573
               4.00000000                9.00000000                0.00000000                1.00000000               -0.00000000               -0.00000000                0.00007657                0.00000000                0.00081441                0.00081020
               5.00000000                9.00000000                0.00000000                1.00000000               -0.00000000               -0.00000000                0.00002930               -0.00000000                0.00009694                0.00041284
               6.00000000                9.00000000                0.00000000                1.00000000               -0.00000000                0.00000000                0.00053926               -0.00000000               -0.00064346               -0.00009682
               7.00000000                9.00000000                0.00000000                1.00000000               -0.00000000                0.00000000                0.00408360                0.00000000               -0.00277892               -0.00337340
               8.00000000                9.00000000                0.00000000                1.00000000               -0.00000000               -0.00000000                0.01846612               -0.00000000               -0.00757716               -0.01237629
               9.00000000                9.00000000                0.00000000                1.00000000                0.00000000               -0.00000000                0.08532906               -0.00000000               -0.02743868               -0.02740690
              10.00000000                9.00000000                0.00000000                1.00000000                0.00000000                0.00000000                0.16292102                0.00000000               -0.09790642               -0.02680379
               0.00000000               10.00000000                0.00000000                1.00000000                0.00000000                0.00000000                0.24642414               -0.00000000                0.09841216               -0.12853055
               1.00000000               10.00000000                0.00000000                1.00000000                0.00000000                0.00000000                0.15150655               -0.00000000                0.01625235               -0.10268609
               2.00000000               10.00000000                0.00000000                1.00000000               -0.00000000               -0.00000000                0.02264973                0.00000000               -0.00963991               -0.02593527
               3.00000000               10.00000000                0.00000000                1.00000000               -0.00000000               -0.00000000               -0.00106442               -0.00000000               -0.00266516                0.00086335
               4.00000000               10.00000000                0.00000000                1.00000000               -0.00000000                0.00000000               -0.00031637               -0.00000000                0.00005919                0.00099808
               5.00000000               10.00000000                0.00000000                1.00000000                0.00000000               -0.00000000               -0.00020933               -0.00000000                0.00090985                0.00043813
               6.00000000               10.00000000                0.00000000                1.00000000               -0.00000000                0.00000000                0.00173503                0.00000000                0.00314714               -0.00167738
               7.00000000               10.00000000                0.00000000                1.00000000                0.00000000                0.00000000                0.01439754               -0.00000000                0.00807660               -0.01318715
               8.00000000               10.00000000                0.00000000                1.00000000                0.00000000                0.00000000                0.05948074                0.00000000                0.00814575               -0.05029518
               9.00000000               10.00000000                0.00000000                1.00000000               -0.00000000                0.00000000                0.16191956                0.00000000               -0.02743511               -0.09744317
              10.00000000               10.00000000                0.00000000                1.00000000                0.00000000               -0.00000000                0.24069217               -0.00000000               -0.10631863               -0.10562654
               0.00071974                0.00071930                1.00150377                0.76188371               -0.05231132               -0.05228882                0.18448916               -0.03407590                0.00958301                0.00948949
               1.00019663                0.00054936                1.00076561                0.47747816               -0.03249651               -0.03372318                0.15362632               -0.02060118               -0.00642967                0.03532178
               2.00006981                0.00027662                1.00033775                0.44902182               -0.00636553               -0.01937260                0.14828813               -0.01202525                0.00960008                0.05082652
               3.00006932                0.00023850                1.00033144                0.46140210                0.00038515               -0.01962246                0.14673198               -0.00171038                0.02869668                0.03843537
               4.00007752                0.00026987                1.00037534                0.48487346                0.00066107               -0.02282983                0.15199802                0.00062386                0.02912209                0.03065496
               5.00008254                0.00033258                1.00046324                0.52002831               -0.00003036               -0.02802016                0.16050809                0.00239550                0.02659031                0.02510553
               6.00007691                0.00043450                1.00060731                0.57000204               -0.00240932               -0.03596289                0.17174272                0.00558746                0.02188254                0.01952336
               7.00003436                0.00059256                1.00084017                0.64065629               -0.00979688               -0.04738292                0.18488357                0.01131944                0.01490103                0.01125780
               7.99988097                0.00081760                1.00119886                0.74265958               -0.02811163               -0.06279848                0.20092622                0.01765508                0.00475718               -0.00294135
               8.99947212                0.00100390                1.00171929                0.90256693               -0.05889778               -0.07105762                0.21377606                0.02221581               -0.00498468               -0.01776024
               9.99870302                0.00099748                1.00249569                0.99798856               -0.07691060               -0.08310643                0.23733294                0.02604802               -0.02352708               -0.02890543
               0.00054893                1.00019641                1.00076504                0.47748976               -0.03369710               -0.03247594                0.15345517               -0.02060679                0.03517498               -0.00647015
               1.00021196                1.00021213                1.00026448                0.01000001               -0.02219689               -0.02221447                0.11965611               -0.01136871                0.01630036                0.01645295
               2.00010499                1.00008290                1.00008418                0.01000001               -0.00781808               -0.01162233                0.11421512               -0.00977670                0.03597464                0.00602948
               3.00005560                1.00004228                1.00009494                0.01000001               -0.00341363               -0.01097344                0.11790523               -0.00444927                0.03775333               -0.00720726
               4.00003672                1.00004157                1.00011393                0.01000000               -0.00157080               -0.01283621                0.12804471               -0.00301814                0.02865636               -0.01513238
               5.00002418                1.00005238                1.00014673                0.01000000               -0.00169632               -0.01581694                0.13985746               -0.00258562                0.01849840               -0.01924444
               6.00000279                1.00007487                1.00019988                0.01315857               -0.00340890               -0.02042889                0.15352104               -0.00120434                0.00672287               -0.02171147
               6.99995600                1.00011874                1.00029176                0.04340889               -0.00754686               -0.02734965                0.17054175                0.00248985               -0.00604066               -0.02489919
               7.99985185                1.00018962                1.00045785                0.17424057               -0.01758291               -0.03688008                0.19302190                0.01185190               -0.01483003               -0.03303663
               8.99960434                1.00029333                1.00082382                0.40851101               -0.04409653               -0.04462794                0.21185601                0.02036880               -0.01558998               -0.05133771
               9.99896992                1.00016641                1.00151806                0.81246674               -0.06344197               -0.05459663                0.23731039                0.03926951               -0.03543020               -0.07948373
               0.00027618                2.00006978                1.00033711                0.44904023               -0.01934110               -0.00635711                0.14788122               -0.01201691                0.05059032                0.00963311
               1.00008277                2.00010507                1.00008418                0.01000001               -0.01160254               -0.00782253                0.11427638               -0.00976722                0.00582232                0.03615963
               2.00004413                2.00004418                0.99999183                0.01000001               -0.00305527               -0.00306042                0.12776732               -0.00860140                0.02883526                0.02934070
               3.00002166                2.00001903                0.99999567                0.01000001               -0.00185376               -0.00158988                0.11074812               -0.00380867                0.03688992                0.02816782
               4.00000705                2.00001314                0.99999286                0.01000001               -0.00120699               -0.00172195                0.14013974               -0.00180653                0.04658593                0.01805064
               4.99999752                2.00001624                0.99999057                0.01000000               -0.00102955               -0.00220420                0.21221873               -0.00066227                0.02670437                0.01097506
               5.99998646                2.00002593                0.99998751                0.01000000               -0.00140569               -0.00308624                0.30307009                0.00099926               -0.01616856                0.02599676
               6.99996941                2.00004557                0.99998265                0.01000000               -0.00215226               -0.00480467                0.31160839                0.00433815               -0.04236564                0.02518351
               7.99994342                2.00008000                0.99997429                0.01000000               -0.00333544               -0.00763471                0.28863805                0.01003286               -0.05400345                0.00460719
               8.99990270                2.00011134                1.00002576                0.01311512               -0.01005915               -0.01260358                0.25606338                0.01090782               -0.05359326               -0.02857454
               9.99974224                1.99990554                1.00022407                0.54900627               -0.01604666               -0.00961485                0.27228618                0.03137315               -0.07585520               -0.07196511
               0.00023802                3.00006927                1.00033058                0.46142972               -0.01958005                0.00037824                0.14615028               -0.00170906                0.03815700                0.02871495
               1.00004222                3.00005567                1.00009492                0.01000001               -0.01095086               -0.00341125                0.11798156               -0.00444079               -0.00742363                0.03796069
               2.00001900                3.00002169                0.99999567                0.01000001               -0.00158795               -0.00185384                0.11081403               -0.00381059                0.02751476                0.03775611
               3.00001046                3.00001048                1.00000239                0.01000001               -0.00078093               -0.00078114                0.12385113               -0.00145593                0.03991542                0.04083098
               4.00000338                3.00000713                1.00000151                0.01000001               -0.00061521               -0.00051993                0.14015826               -0.00032599                0.04206599                0.04323515
               4.99999815                3.00000829                1.00000174                0.01000001               -0.00049683               -0.00064036                0.15271746                0.00041301                0.03417666                0.03948985
               5.99999344                3.00001315                1.00000236                0.01000001               -0.00047307               -0.00102878                0.16109547                0.00127948                0.02084591                0.03833523
               6.99998869                3.00002264                1.00000334                0.01000001               -0.00033528               -0.00184759                0.17605137                0.00256959                0.00318995                0.04259311
               7.99998674                3.00003692                1.00000594                0.01548571                0.00041318               -0.00339932                0.17249565                0.00375749               -0.01238643                0.04252251
               8.99999695                3.00004126                1.00000279                0.01060478                0.00111242               -0.00514945                0.33716486                0.00213001               -0.06911145                0.03495541
              10.00000899                2.99997412                0.99998941                0.50012953                0.00120321                0.00476808                0.35806305                0.00667758               -0.07224429                0.01356954
               0.00026919                4.00007735                1.00037401                0.48491749               -0.02276555                0.00064461                0.15117829                0.00062249                0.03030923                0.02907043
               1.00004153                4.00003684                1.00011388                0.01000000               -0.01280370               -0.00156323                0.12813410               -0.00300773               -0.01539503                0.02891791
               2.00001311                4.00000710                0.99999286                0.01000001               -0.00172136               -0.00120286                0.14085157               -0.00181270                0.01736115                0.04816032
               3.00000711                4.00000341                1.00000151                0.01000001               -0.00051965               -0.00061351                0.14048011               -0.00032838                0.04228597                0.04273585
               4.00000272                4.00000274                1.00000044                0.01258947               -0.00036699               -0.00036679                0.12663661                0.00000209                0.04864512                0.04852905
               4.99999977                4.00000343                1.00000041                0.01104595               -0.00025092               -0.00038204                0.17002606                0.00025418                0.04654550                0.05669732
               5.99999770                4.00000535                1.00000046                0.01000001               -0.00013678               -0.00060725                0.22475922                0.00053905                0.04962280                0.06040365
               6.99999703                4.00000862                1.00000065                0.01000000                0.00011256               -0.00108819                0.29473138                0.00084168                0.02063747                0.05262726
               7.99999995                4.00001201                1.00000044                0.01164423                0.00055390               -0.00183690                0.07220332                0.00070611                0.02502087                0.02195656
               9.00000811                4.00000836                1.00000077                0.01000000                0.00050562               -0.00200622                0.53564261               -0.00019527               -0.03339043                0.00937034
              10.00001007                4.00000091                0.99999680                0.53617207                0.00019584                0.00176025                0.53520802               -0.00097473               -0.03238136                0.00801151
               0.00033147                5.00008216                1.00046108                0.52010024               -0.02791661               -0.00005756                0.15936912                0.00239243                0.02464301                0.02643221
               1.00005231                5.00002441                1.00014665                0.01000000               -0.01576464               -0.00167893                0.13996765               -0.00257102               -0.01962085                0.01884669
               2.00001618                4.99999763                0.99999057                0.01000000               -0.00220301               -0.00101978                0.21459497               -0.00067817                0.01028556                0.02885463
               3.00000824                4.99999821                1.00000174                0.01000001               -0.00063896               -0.00049284                0.15326741                0.00040467                0.03834131                0.03409716
               4.00000340                4.99999979                1.00000041                0.01104662               -0.00038071               -0.00025013                0.16985650                0.00025045                0.05692512                0.04407457
               5.00000063                5.00000065                1.00000035                0.01215251               -0.00021817               -0.00021937                0.17804220                0.00012095                0.04970411                0.04755420
               5.99999904                5.00000100                1.00000036                0.01000000               -0.00008848               -0.00036039                0.25760100                0.00003342                0.03615986                0.03898801
               6.99999886                5.00000088                1.00000043                0.01898933                0.00010440               -0.00068048                0.08057019               -0.00007837                0.04915610                0.04239163
               8.00000112                5.00000018                1.00000054                0.01000001                0.00026472               -0.00108733                0.47117814               -0.00016638               -0.03952326                0.02125196
               9.00000416                5.00000113                1.00000029                0.05246769                0.00016332               -0.00072427                0.44260702                0.00001254               -0.03040774                0.00535698
              10.00000439                5.00000932                0.99999790                0.59214680                0.00002349                0.00155326                0.43414586               -0.00052740               -0.03827041                0.00993494
               0.00043254                6.00007619                1.00060362                0.57012052               -0.03578989               -0.00244879                0.17018754                0.00557625                0.01889588                0.02157561
               1.00007464                6.00000326                1.00019979                0.01316322               -0.02033933               -0.00337041                0.15366220               -0.00119127               -0.02228764                0.00720104
               2.00002575                5.99998671                0.99998750                0.01000000               -0.00308017               -0.00138691                0.30744147                0.00096002                0.02635780               -0.01344054
               3.00001304                5.99999355                1.00000235                0.01000001               -0.00102327               -0.00046705                0.16123175                0.00125890                0.03677161                0.01992185
               4.00000529                5.99999774                1.00000046                0.01000001               -0.00060312               -0.00013605                0.22325665                0.00052954                0.05976060                0.04529958
               5.00000097                5.99999904                1.00000036                0.01000000               -0.00035717               -0.00009015                0.25630222                0.00002944                0.03950786                0.03235524
               5.99999814                5.99999814                1.00000038                0.01668721               -0.00023456               -0.00023895                0.06474311               -0.00040405                0.03863213                0.03555865
               6.99999628                5.99999501                1.00000057                0.01049493               -0.00008856               -0.00062493                0.48018231               -0.00091357               -0.03124490               -0.01774252
               7.99999637                5.99999027                1.00000065                0.01138599                0.00014692               -0.00128225                0.43388259               -0.00105531               -0.04802713                0.00025112
               8.99999922                5.99999387                1.00000553                0.16388087               -0.00066171               -0.00141874                0.33686949                0.00022931               -0.02658643                0.01843214
               9.99998314                6.00003197                1.00001754                0.66890862               -0.00160830                0.00364418                0.32683902               -0.00301790               -0.04980424                0.02914431
               0.00058886                7.00003319                1.00083361                0.64085214               -0.04708883               -0.00982341                0.18281477                0.01127383                0.01044463                0.01439541
               1.00011797                6.99995700                1.00029170                0.04348366               -0.02718829               -0.00747342                0.17070293                0.00247311               -0.02576829               -0.00539248
               2.00004509                6.99996989                0.99998261                0.01000000               -0.00477912               -0.00212423                0.31604746                0.00424860                0.02469348               -0.03990949
               3.00002239                6.99998887                1.00000332                0.01000001               -0.00182962               -0.00033197                0.17579818                0.00252804                0.04028315                0.00216632
               4.00000850                6.99999707                1.00000064                0.01000000               -0.00107833                0.00011130                0.29158546                0.00082658                0.05091791                0.01600492
               5.00000082                6.99999885                1.00000042                0.01899168               -0.00067549                0.00010247                0.08011429               -0.00008738                0.04269838                0.04346776
               5.99999499                6.99999623                1.00000058                0.01049635               -0.00061771               -0.00009580                0.47445045               -0.00092317               -0.01010323               -0.04048870
               6.99998847                6.99998838                1.00000134                0.01000001               -0.00069157               -0.00071212                0.46955945               -0.00217288               -0.03866663               -0.04539560
               7.99998116                6.99997454                1.00000113                0.08850875               -0.00107144               -0.00209934                0.37622372               -0.00315587               -0.04019942               -0.01380487
               8.99996704                6.99997276                1.00004167                0.32129781               -0.00566636               -0.00345878                0.27422765               -0.00068379               -0.02034919                0.02193879
               9.99986783                7.00008220                1.00014511                0.77032640               -0.00992065                0.00265970                0.26551327               -0.01342719               -0.04899248                0.04822286
               0.00081038                7.99987973                1.00118712                0.74297995               -0.06229900               -0.02797700                0.19824762                0.01751995               -0.00388510                0.00399840
               1.00018739                7.99985380                1.00045781                0.17437243               -0.03657619               -0.01748946                0.19314400                0.01174178               -0.03427188               -0.01400502
               2.00007886                7.99994422                0.99997420                0.01000000               -0.00754872               -0.00332857                0.29278523                0.00985572                0.00304527               -0.05179036
               3.00003642                7.99998691                1.00000594                0.01549103               -0.00335107                0.00039879                0.17177991                0.00370060                0.03817470               -0.01267746
               4.00001184                7.99999997                1.00000043                0.01164920               -0.00181720                0.00055142                0.07216676                0.00069131                0.01887461                0.01865428
               5.00000008                8.00000109                1.00000054                0.01000001               -0.00108444                0.00026404                0.45652559               -0.00017961                0.02517482               -0.04971586
               5.99999015                7.99999623                1.00000067                0.01140206               -0.00127814                0.00014032                0.42420593               -0.00108745                0.00428815               -0.05560073
               6.99997451                7.99998077                1.00000120                0.08855689               -0.00206356               -0.00110565                0.37201035               -0.00321006               -0.01052088               -0.04528419
               7.99994888                7.99994828                1.00000150                0.24178997               -0.00483160               -0.00491509                0.30273558               -0.00565009               -0.01117303               -0.01360053
               8.99987788                7.99992469                1.00018700                0.54764246               -0.02265896               -0.01234127                0.25305434               -0.00522689               -0.00184445                0.03663868
               9.99949570                8.00008517                1.00059839                0.90563212               -0.03821814               -0.01751212                0.25250457               -0.02629764               -0.02070969                0.07597975
               0.00099112                8.99947365                1.00169800                0.90307045               -0.07028077               -0.05825157                0.21049440                0.02204359               -0.01843169               -0.00570121
               1.00028831                8.99960721                1.00082396                0.40870016               -0.04410142               -0.04403282                0.21177008                0.02024038               -0.05273774               -0.01483828
               2.00010909                8.99990332                1.00002691                0.01312584               -0.01238292               -0.01017868                0.25966721                0.01071855               -0.03120673               -0.05176784
               3.00004065                8.99999684                1.00000263                0.01061419               -0.00504721                0.00108605                0.34210128                0.00208538                0.02957808               -0.06909724
               4.00000814                9.00000810                1.00000077                0.01000000               -0.00198406                0.00050062                0.51755491               -0.00019805                0.00738407               -0.04437291
               5.00000097                9.00000413                1.00000029                0.05257955               -0.00072894                0.00016441                0.42803721               -0.00000236                0.00509000               -0.03981134
               5.99999357                8.99999903                1.00000539                0.16417885               -0.00143793               -0.00065000                0.32738512                0.00017296                0.01786420               -0.03310848
               6.99997221                8.99996627                1.00004084                0.32179614               -0.00346685               -0.00563194                0.26871347               -0.00082707                0.02111883               -0.02428185
               7.99992423                8.99987624                1.00018466                0.54818966               -0.01232988               -0.02256157                0.25056048               -0.00538780                0.03599815               -0.00352988
               8.99972561                8.99972593                1.00085329                0.90765371               -0.04516463               -0.04495631                0.23145623               -0.01482534                0.04163403                0.04175077
               9.99902094                8.99973196                1.00162921                0.99953790               -0.07046774               -0.05707154                0.23276361               -0.02734116                0.00941338                0.06208171
               0.00098412                9.99871469                1.00246424                0.99850244               -0.08215982               -0.07589510                0.23358174                0.02514494               -0.02931539               -0.02377749
               1.00016252                9.99897314                1.00151507                0.81260427               -0.05402603               -0.06340734                0.23675391                0.03871908               -0.08077767               -0.03479952
               1.99990360                9.99974065                1.00022650                0.54891852               -0.00945875               -0.01626760                0.27494865                0.03122598               -0.07506727               -0.07445082
               2.99997335               10.00000863                0.99998936                0.50013720                0.00484955                0.00117909                0.36265676                0.00673645                0.00954872               -0.07145570
               4.00000059               10.00000998                0.99999684                0.53618643                0.00178750                0.00018788                0.51890496               -0.00096783                0.00439140               -0.04377171
               5.00000910               10.00000438                0.99999791                0.59225303                0.00154397                0.00002529                0.42140349               -0.00052482                0.00639104               -0.04749948
               6.00003147                9.99998323                1.00001735                0.66918436                0.00358338               -0.00158056                0.31875607               -0.00302204                0.02534228               -0.05566387
               7.00008077                9.99986813                1.00014398                0.77077452                0.00249931               -0.00981375                0.26038451               -0.01345338                0.04446509               -0.05218293
               8.00008146                9.99949705                1.00059481                0.90617501               -0.01775586               -0.03791889                0.24905247               -0.02640510                0.07228953               -0.02187918
               8.99972565                9.99902557                1.00161920                0.99953728               -0.05723219               -0.07003627                0.23092007               -0.02766211                0.05948889                0.00934057
               9.99893681                9.99894373                1.00240692                0.99940351               -0.07888352               -0.07882275                0.23091095               -0.01659558                0.01183462                0.01334903
               0.00166798                0.00166724                2.00368978                0.78048209               -0.06305525               -0.06299818                0.20371715                0.00780979                0.01526252                0.01501216
               1.00103742                0.00170870                2.00307253                0.52375583               -0.05209020               -0.06982023                0.21809573               -0.01023253                0.03733055                0.01926377
               2.00062617                0.00152369                2.00296576                0.49011416               -0.02505357               -0.10571725                0.23224297                0.00293711                0.04216711                0.02158288
               3.00053635                0.00124171                2.00293464                0.51290991               -0.00877630               -0.10500827                0.23372952               -0.00049232                0.03603839                0.01671596
               4.00045065                0.00113592                2.00303996                0.55056199               -0.01182597               -0.10560892                0.23700264                0.00174048                0.03204563                0.01283345
               5.00029983                0.00113513                2.00321016                0.60422945               -0.01949637               -0.10473477                0.24075130                0.00188864                0.02216689                0.01091380
               6.00006072                0.00120532                2.00343485                0.67769667               -0.02966775               -0.10197518                0.24330874                0.00221430                0.00735947                0.00963377
               6.99970648                0.00132199                2.00369767                0.77661209               -0.04223473               -0.09624484                0.24285893                0.00236688               -0.01005577                0.01014971
               7.99921602                0.00142318                2.00401852                0.90907048               -0.05515012               -0.08593497                0.23646973                0.00121977               -0.03042257                0.01115269
               8.99860347                0.00143575                2.00427552                1.00000000               -0.06196759               -0.07689739                0.22922879                0.00014912               -0.03280233                0.01225556
               9.99797667                0.00137714                2.00474666                0.99577568               -0.06268030               -0.06951917                0.21392250               -0.01323915               -0.01467788                0.01295393
               0.00170462                1.00103726                2.00306910                0.52377280               -0.06977458               -0.05200564                0.21780858               -0.01019257                0.01906361                0.03703536
               1.00100688                1.00101049                2.00239312                0.01292002               -0.04077932               -0.04079697                0.21884192               -0.05732225                0.03368953                0.03411402
               2.00088903                1.00046651                2.00228430                0.01000000               -0.01407806               -0.04241835                0.21656238               -0.03899107                0.05829697                0.04345395
               3.00072531                1.00019163                2.00235810                0.01000000               -0.01838475               -0.02929032                0.21891566               -0.00931376                0.05970143                0.01159511
               4.00052134                1.00007983                2.00256089                0.01377096               -0.02206500               -0.03312432                0.22709741                0.01911662                0.04960373                0.02447293
               5.00028401                1.00008778                2.00279715                0.02002627               -0.02659541               -0.03853212                0.23787372                0.01726774                0.03312593                0.08328851
               5.99998943                1.00018557                2.00307042                0.11239345               -0.03313980               -0.02439330                0.24943781               -0.00522050                0.01674038                0.16238937
               6.99962122                1.00035954                2.00341084                0.24257151               -0.04090456               -0.02649522                0.26127877               -0.00811574                0.00296272                0.15783429
               7.99917134                1.00056383                2.00386044                0.43173526               -0.04966152               -0.04395640                0.26979107               -0.00159850               -0.01648913                0.11635635
               8.99862799                1.00066678                2.00423712                0.71065002               -0.06342219               -0.05931094                0.27073279                0.00964997               -0.02978533                0.06352608
               9.99790290                1.00068194                2.00474621                0.94310200               -0.07250910               -0.06438918                0.25776187                0.00699706               -0.01918305                0.05828623
               0.00151766                2.00062713                2.00295762                0.49014122               -0.10559367               -0.02499355                0.23155907                0.00305407                0.02162409                0.04193113
               1.00046172                2.00089276                2.00228553                0.01000000               -0.04262231               -0.01404876                0.21664906               -0.03861256                0.04299141                0.05891582
               2.00066521                2.00067532                2.00255535                0.01000001                0.01375203                0.01437864                0.21901495               -0.02415319                0.04933422                0.05058818
               3.00073676                2.00065590                2.00221496                0.01000000                0.01358036                0.03095756                0.23317111               -0.00673695                0.06500988                0.06789218
               4.00093682                2.00047343                2.00280279                0.01000001               -0.00986619                0.03886478                0.22543266                0.00146088                0.13391967                0.05612671
               5.00053944                2.00036449                2.00424437                0.01000000               -0.06261361                0.03460842                0.32417728                0.03213504                0.16592061                0.03186584
               5.99968455                2.00071746                2.00606140                0.01000001               -0.06867682                0.02840888                0.32053661                0.04267429                0.06859232               -0.00090772
               6.99916590                2.00079209                2.00623217                0.01000000               -0.04038661                0.02371588                0.32181594                0.01327953               -0.06050154               -0.00054846
               7.99887682                2.00054405                2.00577276                0.01589526               -0.02437725                0.01302362                0.31588391                0.00194639               -0.11794228               -0.02206881
               8.99867836                2.00024953                2.00512127                0.09431995               -0.03952680                0.00286622                0.30629918               -0.02241909               -0.10372473                0.12616095
               9.99808628                2.00008935                2.00544572                0.60430701               -0.05920782               -0.00916435                0.31319223                0.01793079               -0.06340447                0.12770946
               0.00123445                3.00053739                2.00292301                0.51295189               -0.10480176               -0.00881143                0.23273587               -0.00034711                0.01682497                0.03581263
               1.00018643                3.00072952                2.00235963                0.01000000               -0.02958148               -0.01830629                0.21904036               -0.00858877                0.01108569                0.06033090
               2.00064282                3.00075409                2.00221628                0.01000000                0.03030161                0.01464951                0.23337116               -0.00621822                0.06622784                0.06726545
               3.00079247                3.00081078                2.00247702                0.01000001                0.00995752                0.00997349                0.24584278                0.01022045                0.09232255                0.09454317
               4.00084197                3.00085712                2.00280317                0.01000001               -0.00548901                0.02491269                0.26787005                0.00031764                0.08573331                0.05437941
               5.00068269                3.00077995                2.00305435                0.01000000               -0.02133261                0.03854240                0.31355014                0.01440385                0.06684978                0.01694053
               6.00041532                3.00075375                2.00322191                0.01000001               -0.03112353                0.02463089                0.36629722                0.06807886                0.04414821               -0.01625861
               7.00006021                3.00083386                2.00352103                0.01000000               -0.03312497                0.01316866                0.41297948                0.06587107                0.00660686                0.06161041
               7.99975282                3.00082430                2.00344991                0.01000000               -0.07129551               -0.00497602                0.39004928                0.07568630                0.11219174               -0.15231042
               8.99863430                3.00072410                2.00674330                0.03823349               -0.05854730               -0.00298130                0.32830262                0.01659130                0.09610190                0.26400262
               9.99858187                3.00049866                2.00716126                0.55576665               -0.00524301                0.00311934                0.34950579                0.04115648               -0.04674291                0.23687655
               0.00112646                4.00045090                2.00302357                0.55062799               -0.10532126               -0.01191763                0.23564046                0.00193670                0.01303602                0.03164174
               1.00007325                4.00052663                2.00256268                0.01377465               -0.03334376               -0.02192500                0.22724237                0.02045378                0.02445441                0.05034911
               2.00045959                4.00096831                2.00281703                0.01000000                0.03824441               -0.00858138                0.22631186                0.00182729                0.05444299                0.13819057
               3.00083814                4.00085537                2.00280960                0.01000001                0.02572064               -0.00648380                0.26850392               -0.00160558                0.05188709                0.08778750
               4.00097400                4.00097168                2.00253273                0.01000000                0.00463753                0.00121766                0.32139057                0.02889399                0.10398946                0.10449886
               5.00093089                4.00113534                2.00340052                0.01603204                0.00091089                0.00855937                0.31745678                0.02749215                0.15615550                0.10497422
               6.00099222                4.00121008                2.00449518                0.01657071               -0.02590582                0.00130455                0.30442829                0.01139623                0.15360569                0.16514660
               7.00041277                4.00105546                2.00589463                0.01012345               -0.02459593                0.00070231                0.41058573                0.00785877               -0.12833855               -0.00390452
               8.00050030                4.00044453                2.00144407                0.01000001               -0.05384714               -0.01997384                0.48720701               -0.07043510                0.23881758                0.36358460
               8.99933583                4.00018991                2.01071285                0.10827080               -0.05699992               -0.03108625                0.54594841                0.02336954                0.44105368                0.19828759
               9.99936030                4.00015174                2.01070416                0.60075420                0.00244715               -0.01603471                0.54077366                0.02905781               -0.03539274                0.16850283
               0.00112173                5.00029904                2.00318738                0.60433256               -0.10436285               -0.01959608                0.23895117                0.00215368                0.01121339                0.02154297
               1.00007810                5.00029102                2.00279935                0.02005921               -0.03855528               -0.02638282                0.23802838                0.01902720                0.08467583                0.03404047
               2.00035062                5.00058246                2.00429190                0.01000000                0.03394407               -0.06145807                0.32773349                0.03275475                0.03007964                0.17243120
               3.00075698                5.00068110                2.00306535                0.01000000                0.03946327               -0.02292591                0.31500419                0.00916722                0.01183085                0.06717546
               4.00113989                5.00088148                2.00339713                0.01603338                0.01185769               -0.00329624                0.31708644                0.02466209                0.10409861                0.15275842
               5.00099414                5.00095114                2.00356084                0.01457851               -0.02083833               -0.02441531                0.29412369               -0.01211449                0.13632660                0.13313905
               6.00072312                5.00077984                2.00515202                0.01000000               -0.00056002               -0.02495612                0.29121339               -0.01615142               -0.04869966               -0.09534343
               7.00098294                5.00084791                2.00161140                0.01000000               -0.07567259               -0.07056143                0.41941477               -0.06964786                0.22829210                0.23073790
               7.99920967                5.00042483                2.00942356                0.06656277               -0.07942237               -0.02200467                0.52103972               -0.11056619                0.36721381                0.42653003
               8.99939449                5.00010238                2.00885214                0.21514933                0.00148488                0.00686782                0.45586045               -0.00656522               -0.05983704               -0.10982381
               9.99923937                5.00017796                2.00868292                0.67032605               -0.01551197                0.01419682                0.44776814               -0.01146177               -0.04532017               -0.11452776
               0.00118558                6.00005898                2.00340375                0.67785619               -0.10152048               -0.02973126                0.24101741                0.00254945                0.01003809                0.00652590
               1.00017037                5.99999897                2.00307324                0.11244997               -0.02304898               -0.03284417                0.24958966               -0.00311438                0.16538682                0.01783786
               2.00072460                5.99973915                2.00614883                0.01000001                0.02760480               -0.06836746                0.32500264                0.04147535               -0.00376465                0.07377776
               3.00072247                6.00039686                2.00322463                0.01000001                0.02363043               -0.03206832                0.36754882                0.05986263               -0.02502087                0.04226503
               4.00119721                6.00090576                2.00446513                0.01657383                0.00338829               -0.02806713                0.30293029                0.00657694                0.16178293                0.14636992
               5.00079023                6.00064703                2.00512604                0.01000000               -0.02123912               -0.00409857                0.28981539               -0.01674526               -0.09311343               -0.05368927
               6.00077242                6.00071095                2.00129486                0.01000001               -0.07077014               -0.07949485                0.40889232               -0.09644533                0.24792145                0.23653370
               6.99937483                5.99964423                2.00960365                0.05265014               -0.08689595               -0.08782236                0.55629264               -0.12316678                0.39852846                0.42573701
               7.99903450                6.00000444                2.00867765                0.15737430                0.00382786               -0.03508831                0.46139641                0.03145247               -0.13050137               -0.04874671
               8.99945139                6.00032726                2.00673739                0.36587573               -0.00273043                0.00774607                0.37445205                0.02428911               -0.13132985               -0.10665524
               9.99897990                6.00043568                2.00653678                0.76627135               -0.04714922                0.01028226                0.36289787               -0.01046413               -0.05383612               -0.10182035
               0.00129273                6.99970441                2.00365630                0.77685568               -0.09570874               -0.04216962                0.24006234                0.00273913                0.01063832               -0.01103145
               1.00033564                6.99963413                2.00341406                0.24266687               -0.02552417               -0.04056691                0.26139786               -0.00660949                0.16039103                0.00417642
               2.00078225                6.99921511                2.00632095                0.01000000                0.02259907               -0.04096283                0.32641456                0.00968896               -0.00505334               -0.05774479
               3.00078763                7.00003974                2.00351596                0.01000000                0.01195022               -0.03248578                0.41262395                0.05599084                0.04711811                0.00324249
               4.00102125                7.00032013                2.00583171                0.01012896                0.00332048               -0.02663977                0.40555158                0.00075572               -0.00941220               -0.13353450
               5.00085403                7.00086917                2.00160229                0.01000000               -0.06121182               -0.08206089                0.41418151               -0.07085827                0.22669455                0.20636677
               5.99979702                6.99918994                2.00948901                0.05265322               -0.08139598               -0.09138925                0.54991502               -0.12325153                0.43078204                0.38027481
               6.99922612                6.99909146                2.00939119                0.14502402               -0.03206644               -0.02947038                0.49432778                0.04735175               -0.06816595               -0.08225701
               7.99915569                6.99972306                2.00752447                0.29266956                0.01114586               -0.02299908                0.40541225                0.08610371               -0.18399392               -0.10293111
               8.99944903                7.00025730                2.00548455                0.57585622               -0.01712122               -0.02030565                0.32948048                0.02876912               -0.13704978               -0.05338187
               9.99881326                7.00038361                2.00531027                0.89366487               -0.06357697               -0.02000893                0.31562135                0.00178820               -0.05598693               -0.04338673
               0.00138092                7.99921559                2.00396495                0.90944142               -0.08534322               -0.05477805                0.23322608                0.00154005                0.01172790               -0.03133994
               1.00052748                7.99918764                2.00386288                0.43189538               -0.04340712               -0.04940787                0.26980258               -0.00075020                0.11808635               -0.01537018
               2.00051277                7.99891989                2.00585570                0.01590736                0.01048897               -0.02513848                0.32049075               -0.00127727               -0.02822706               -0.11597116
               3.00073726                7.99974714                2.00343560                0.01000000               -0.00649424               -0.07025490                0.38996242                0.06415734               -0.16355557                0.11600568
               4.00038289                8.00037296                2.00144334                0.01000001               -0.01170032               -0.06020006                0.48038012               -0.08062814                0.34382094                0.21527064
               5.00050326                7.99900581                2.00913051                0.06657123               -0.01488934               -0.08313798                0.50504664               -0.11233281                0.41686353                0.34098273
               6.00008510                7.99888317                2.00848412                0.15739231               -0.03572532                0.00656007                0.45131961                0.02843678               -0.03826978               -0.14234811
               6.99978875                7.99905482                2.00744021                0.29272580               -0.02471817                0.01400658                0.40093390                0.08391403               -0.09316506               -0.19351671
               7.99959074                7.99954446                2.00605471                0.50254751               -0.02112643               -0.01934838                0.35554316                0.08090745               -0.11469188               -0.12161374
               8.99936622                7.99992115                2.00506109                0.87352485               -0.04138484               -0.04272379                0.30399109                0.02150700               -0.07891126               -0.03982481
               9.99876304                8.00003550                2.00505009                1.00000000               -0.06031799               -0.04752551                0.27856619                0.00259286               -0.03047925               -0.03277301
               0.00137944                8.99860885                2.00420989                1.00000000               -0.07631021               -0.06118150                0.22569682                0.00026893                0.01271304               -0.03342717
               1.00061633                8.99864598                2.00423540                0.71088369               -0.05911197               -0.06329185                0.27053065                0.00990982                0.06429299               -0.02902403
               2.00019720                8.99871234                2.00519334                0.09420573                0.00006834               -0.04040462                0.31051913               -0.02498738                0.12481974               -0.10260294
               3.00061770                8.99863464                2.00684203                0.03826265               -0.00235905               -0.05748552                0.33381383                0.00435809                0.23613509                0.10308039
               4.00015002                8.99911613                2.01035110                0.10830315               -0.02602643               -0.06202692                0.52684998                0.01340789                0.17381102                0.41087042
               5.00009717                8.99920641                2.00856074                0.21527232                0.00833624                0.00244847                0.44081199               -0.00954680               -0.10571559               -0.06931502
               6.00031674                8.99932115                2.00654770                0.36620089                0.00729675               -0.00101807                0.36426402                0.02204283               -0.10139615               -0.13739061
               7.00024311                8.99937159                2.00537427                0.57640332               -0.02046163               -0.01523806                0.32329720                0.02690203               -0.04963627               -0.14180646
               7.99990751                8.99933609                2.00501121                0.87412928               -0.04274882               -0.04011661                0.30115136                0.02055321               -0.03723996               -0.08261490
               8.99938813                8.99940282                2.00462912                1.00000000               -0.06355401               -0.06330749                0.28241047                0.00542238               -0.03834205               -0.03991215
               9.99863643                8.99943310                2.00465527                1.00000000               -0.07517034               -0.06619696                0.25467841               -0.00206263               -0.01670416               -0.03545801
               0.00131204                9.99799196                2.00467163                0.99578163               -0.06898533               -0.06168936                0.21030185               -0.01375522                0.01251760               -0.01528001
               1.00062219                9.99792180                2.00473508                0.94324227               -0.06438399               -0.07241785                0.25724239                0.00657773                0.05763228               -0.01863662
               2.00002436                9.99811180                2.00549897                0.60422402               -0.01007777               -0.06005411                0.31642680                0.01649826                0.12563812               -0.06275558
               3.00042064                9.99859743                2.00725314                0.55578748                0.00274564               -0.00372090                0.35372061                0.03132460                0.21323573               -0.04664460
               4.00007928                9.99913242                2.01037810                0.60077951               -0.01566642                0.00162933                0.52437719                0.01579372                0.14430881               -0.04509838
               5.00010731                9.99905478                2.00842807                0.67043954                0.01407500               -0.01516260                0.43466033               -0.01246749               -0.11426678               -0.05284509
               6.00036078                9.99886281                2.00637512                0.76656750                0.01022689               -0.04583381                0.35378138               -0.01083243               -0.10153826               -0.05849254
               7.00031184                9.99875006                2.00520769                0.89415198               -0.01951032               -0.06215285                0.30930532                0.00083950               -0.04521465               -0.05888313
               7.99997057                9.99874212                2.00498105                1.00000000               -0.04670906               -0.05939678                0.27437014                0.00155314               -0.03523130               -0.03261184
               8.99937766                9.99865500                2.00461840                1.00000000               -0.06546652               -0.07478223                0.25249541               -0.00257514               -0.03735304               -0.01771663
               9.99866124                9.99871156                2.00461822                0.99999999               -0.07164233               -0.07215406                0.23423734                0.00813684               -0.01922454               -0.01771436
               0.00225951                0.00226090                3.00557811                0.77030946               -0.05922456               -0.05916251                0.18822605                0.00551923                0.00309050                0.00274141
               1.00166726                0.00229344                3.00512753                0.51468083               -0.06042326               -0.06120363                0.20656697               -0.00915643                0.01921242               -0.00027155
               2.00105104                0.00207120                3.00498261                0.48181944               -0.04756860               -0.07088088                0.20522669               -0.00288716                0.02899717               -0.00586256
               3.00071589                0.00172589                3.00500603                0.50459222               -0.03040677               -0.07320345                0.20875044               -0.00361255                0.01990183               -0.00429413
               4.00044291                0.00148467                3.00511539                0.54171635               -0.02924524               -0.07164755                0.21010825               -0.00276660                0.00917926               -0.00595288
               5.00013099                0.00137688                3.00527827                0.59263885               -0.03531590               -0.06929455                0.21069190               -0.00181262               -0.00114178               -0.00683045
               5.99973659                0.00135605                3.00547349                0.66035806               -0.04407078               -0.06599314                0.21002318               -0.00165006               -0.01063157               -0.00689639
               6.99924957                0.00136923                3.00569735                0.74819952               -0.05209593               -0.06283066                0.20849151               -0.00239409               -0.01827709               -0.00587420
               7.99869467                0.00135683                3.00592825                0.85875250               -0.05808141               -0.05943211                0.20575605               -0.00205923               -0.01600824               -0.00322988
               8.99808794                0.00132582                3.00630387                0.97867422               -0.06137434               -0.06077143                0.20995540               -0.00147604               -0.00514950               -0.00635268
               9.99746718                0.00125746                3.00677414                1.00000000               -0.06207575               -0.06243850                0.20573590                0.00325434               -0.00087696               -0.01135834
               0.00228216                1.00166928                3.00512122                0.51469532               -0.06116141               -0.06032007                0.20627711               -0.00911989               -0.00057661                0.01878106
               1.00167055                1.00168140                3.00464132                0.01291716               -0.04881076               -0.04882828                0.22708822               -0.03146350                0.01488671                0.01559899
               2.00130595                1.00136239                3.00441542                0.01000000               -0.03487582               -0.04736196                0.22271517               -0.03186066                0.02443178                0.03578348
               3.00097303                1.00099385                3.00447325                0.01000000               -0.03580999               -0.02339663                0.21939314               -0.01178386                0.02973670                0.04629044
               4.00058975                1.00076819                3.00465588                0.01000000               -0.03979303               -0.02956312                0.21682762               -0.00483970                0.02430155                0.02431328
               5.00017717                1.00068393                3.00490420                0.02633004               -0.04329173               -0.04902617                0.21691010               -0.00728676                0.01489154                0.10554458
               5.99972391                1.00069611                3.00518864                0.11597552               -0.04759664               -0.07498816                0.21743792               -0.01545407                0.00630864                0.08237933
               6.99922524                1.00074092                3.00551733                0.23536168               -0.05140634               -0.07224106                0.21561600               -0.00675787               -0.00100750                0.06084823
               7.99869579                1.00076251                3.00585367                0.39138030               -0.05511860               -0.06538397                0.20880095               -0.00110101               -0.00533049                0.03056170
               8.99812287                1.00071810                3.00623847                0.57662669               -0.05638497               -0.05987150                0.20703100               -0.00310654               -0.00387681               -0.00199814
               9.99756809                1.00063307                3.00667330                0.83081525               -0.05547796               -0.06063884                0.20069229                0.00939950                0.00302422               -0.01230522
               0.00205286                2.00105450                3.00496829                0.48184265               -0.07079804               -0.04748484                0.20458908               -0.00280753               -0.00584753                0.02857882
               1.00134488                2.00131687                3.00441716                0.01000000               -0.04757385               -0.03481331                0.22277420               -0.03152159                0.03488693                0.02551600
               2.00110138                2.00112396                3.00437213                0.01000001               -0.01352311               -0.01285399                0.20757115               -0.00693506                0.05173705                0.05363125
               3.00107441                2.00125796                3.00465909                0.01000000               -0.02226717                0.01564233                0.23899568                0.00332169                0.03182348                0.07025199
               4.00065604                2.00089341                3.00450152                0.01000000               -0.05085420                0.02982938                0.23160877               -0.01553150                0.07699589                0.09497991
               5.00005733                2.00039635                3.00647411                0.01166226               -0.06427596                0.02535112                0.21715353               -0.01489461                0.07043643                0.08267356
               5.99937052                1.99985628                3.00639824                0.01000000               -0.05046545                0.02790402                0.09906992                0.01069358               -0.01237989                0.08363274
               6.99904802                1.99992441                3.00641897                0.01337959               -0.03375219                0.04257328                0.09057079                0.04302255               -0.01392140                0.10857738
               7.99869547                2.00004915                3.00629197                0.01000001               -0.04463879                0.02784508                0.11804186                0.02582465               -0.03422043                0.07991425
               8.99815525                2.00012839                3.00615174                0.03825886               -0.04351195               -0.04941895                0.15833383                0.00401552               -0.03092241                0.01108078
               9.99782523                2.00004468                3.00648791                0.53802373               -0.03300110               -0.05899311                0.16020565                0.02513511               -0.01290756                0.01433877
               0.00170126                3.00071958                3.00498529                0.50462863               -0.07306097               -0.03043488                0.20781896               -0.00350325               -0.00424565                0.01949868
               1.00097065                3.00098514                3.00447573                0.01000000               -0.02375498               -0.03563859                0.21948766               -0.01109934                0.04522219                0.03082914
               2.00122616                3.00110531                3.00466309                0.01000000                0.01496842               -0.02143348                0.23915894                0.00376192                0.06782188                0.03435771
               3.00127002                3.00130670                3.00491925                0.01000000               -0.00427223               -0.00435619                0.24751082                0.02571000                0.06922801                0.07223238
               4.00114072                3.00136478                3.00535891                0.01000000               -0.01768096                0.03026752                0.27836368                0.03599047                0.09213095                0.13583771
               5.00091640                3.00119096                3.00627274                0.01000001               -0.03654950                0.06000329                0.27040285                0.04962536                0.10297447                0.01741060
               6.00040973                3.00125419                3.00732830                0.01172251               -0.05117897                0.07609444                0.32476807                0.08033143                0.09703595               -0.00241005
               6.99989282                3.00159239                3.00826293                0.01621312               -0.07007135                0.09578714                0.31455355                0.07492849                0.00430668                0.09085262
               7.99900830                3.00131941                3.00780693                0.01323433               -0.08425899                0.06304536                0.29314078               -0.03000292               -0.10731440                0.18784914
               8.99820764                2.99972972                3.00656884                0.01287026               -0.03850509                0.08684389                0.16300114               -0.02261775               -0.06314881                0.20659634
               9.99823820                2.99945321                3.00697953                0.51444476                0.00305564                0.09023129                0.16003088                0.04706676               -0.02805819                0.18438574
               0.00145168                4.00044580                3.00508682                0.54177312               -0.07145206               -0.02933724                0.20886743               -0.00264331               -0.00587985                0.00860633
               1.00073716                4.00060410                3.00465872                0.01000000               -0.02983109               -0.03952403                0.21692914               -0.00399294                0.02350881                0.02548122
               2.00085505                4.00069529                3.00451910                0.01000000                0.02959956               -0.04954276                0.23190657               -0.01538291                0.09215867                0.08213512
               3.00132915                4.00117083                3.00537159                0.01000000                0.03182687               -0.01900086                0.27874938                0.03365360                0.13213149                0.09547222
               4.00149159                4.00149876                3.00642826                0.01246003               -0.00843615               -0.01211096                0.28519802                0.04373718                0.07979360                0.08145771
               5.00116042                4.00159642                3.00634955                0.01000000               -0.04579405               -0.01265234                0.34975161               -0.00323584                0.00949843                0.01656647
               6.00057571                4.00137817                3.00608903                0.01000000               -0.03395232                0.00201318                0.31781625                0.04042427                0.08642562               -0.05315315
               7.00048138                4.00184015                3.00821236                0.01775864               -0.03088146               -0.03428864                0.22970201                0.01661101                0.18777150                0.03217431
               7.99995808                4.00131006                3.00974458                0.01000001               -0.04561447               -0.00111045                0.47678516                0.05607364                0.09290353                0.17376577
               8.99956909                4.00186526                3.01091973                0.06070384               -0.03192429                0.10251970                0.09698390                0.09398337                0.08645151                0.27467749
               9.99931960                4.00184931                3.01081227                0.53892670               -0.02494924                0.12164677                0.09891065                0.05831586               -0.01995054                0.25449575
               0.00133180                5.00013284                3.00524011                0.59272478               -0.06904931               -0.03540020                0.20913572               -0.00168588               -0.00675016               -0.00190162
               1.00064130                5.00019466                3.00490722                0.02636177               -0.04900109               -0.04293939                0.21697679               -0.00591168                0.10691410                0.01617989
               2.00035178                5.00011446                3.00654524                0.01166585                0.02491631               -0.06310413                0.21948027               -0.01619789                0.08045295                0.07652630
               3.00113963                5.00092668                3.00630182                0.01000001                0.06190498               -0.03912980                0.27129356                0.04376364                0.01085965                0.10539220
               4.00158988                5.00112256                3.00634214                0.01000000               -0.00836792               -0.05040978                0.34909404               -0.00704153                0.01333279                0.00844009
               5.00097227                5.00093791                3.00588282                0.01000000               -0.03076964               -0.03563021                0.37559491                0.01602249               -0.00376370               -0.00383704
               6.00097448                5.00129446                3.00582462                0.01316966               -0.03395561               -0.04931721                0.30309535               -0.00640151                0.14450068                0.13139834
               7.00029316                5.00090662                3.00838872                0.01073683               -0.04349096               -0.05550939                0.46391996                0.00527134                0.20525906                0.15353043
               8.00010466                5.00129720                3.01042134                0.05695449               -0.03725501               -0.01978173                0.15100275                0.05840104                0.10588604                0.05788881
               8.99954806                5.00178012                3.00911750                0.12957685               -0.03341153               -0.03184558                0.12388129                0.02666774               -0.04535378               -0.05055446
               9.99943643                5.00188615                3.00895326                0.57573805               -0.01116270               -0.02405452                0.12849115                0.01000480               -0.02512612               -0.04882218
               0.00129431                5.99973780                3.00542397                0.66048607               -0.06570163               -0.04407404                0.20816933               -0.00153347               -0.00683011               -0.01154630
               1.00063730                5.99974532                3.00519158                0.11603168               -0.07476228               -0.04718815                0.21742437               -0.01423789                0.08407060                0.00767003
               1.99979907                5.99943321                3.00648755                0.01000000                0.02795088               -0.05031675                0.09991373                0.00666324                0.07851611               -0.00945258
               3.00119632                6.00038824                3.00735333                0.01172708                0.07702338               -0.05419656                0.32667728                0.06858539               -0.01447205                0.09671848
               4.00133954                6.00049056                3.00605907                0.01000000                0.00563304               -0.03871903                0.31740524                0.03198181               -0.05856699                0.08282574
               5.00130898                6.00088382                3.00579666                0.01317147               -0.04302827               -0.04080965                0.30227840               -0.00967982                0.13182840                0.13890651
               6.00047897                6.00039183                3.00817823                0.01000000               -0.03624570               -0.04409965                0.46726634               -0.01533042                0.26117881                0.25226374
               7.00058406                6.00072996                3.01112643                0.04924959               -0.01131847               -0.01999696                0.16765830                0.04095570                0.13074637                0.15577283
               8.00025260                6.00091442                3.00922858                0.12935930               -0.05352835               -0.03791710                0.13382611                0.03008195               -0.10733977               -0.03822138
               8.99951350                6.00122835                3.00749457                0.22922451               -0.04724835               -0.05993476                0.17887929                0.01729927               -0.07998046               -0.05176259
               9.99930764                6.00136822                3.00727549                0.63216498               -0.02058611               -0.05924933                0.18417325               -0.00300198               -0.03195999               -0.04707770
               0.00128610                6.99925135                3.00563486                0.74838927               -0.06249611               -0.05192324                0.20636997               -0.00230743               -0.00581675               -0.01927248
               1.00066114                6.99925089                3.00551965                0.23545656               -0.07219886               -0.05101332                0.21548612               -0.00610805                0.06206495                0.00030883
               1.99984212                6.99910812                3.00651090                0.01338794                0.03964265               -0.03404041                0.09147599                0.03671951                0.10084410               -0.01177705
               3.00145399                6.99984275                3.00825580                0.01622017                0.09459065               -0.07036364                0.31524639                0.06107093                0.07622082                0.00403579
               4.00173393                7.00034818                3.00811167                0.01776460               -0.02882888               -0.03522847                0.22581325                0.00663845                0.02305068                0.17928805
               5.00087741                7.00012172                3.00828405                0.01074287               -0.04561030               -0.05107637                0.45724296                0.00259347                0.14945684                0.18669662
               6.00082173                7.00041247                3.01099888                0.04925214               -0.01438649               -0.01506283                0.16662655                0.04105249                0.15917478                0.11859160
               7.00058968                7.00050668                3.00988790                0.12295102               -0.03069057               -0.03013060                0.11172780                0.00414735               -0.05849861               -0.06772479
               8.00020791                7.00053886                3.00810937                0.22879421               -0.05747154               -0.04425754                0.15062163               -0.00718487               -0.10274104               -0.04633158
               8.99944025                7.00058142                3.00663128                0.37370810               -0.05556241               -0.06223629                0.21189450               -0.00234593               -0.07599791               -0.02466483
               9.99909667                7.00070116                3.00645754                0.71702108               -0.03435833               -0.06417589                0.21728584               -0.00800280               -0.03131941               -0.01750915
               0.00124909                7.99869933                3.00585164                0.85904257               -0.05907183               -0.05764674                0.20339684               -0.00201586               -0.00317566               -0.01704229
               1.00065837                7.99872505                3.00585386                0.39154571               -0.06537431               -0.05481805                0.20853582               -0.00086772                0.03129021               -0.00418049
               1.99994160                7.99875240                3.00638401                0.01000001                0.02596544               -0.04500638                0.11930469                0.02063274                0.07175568               -0.03237154
               3.00117768                7.99898096                3.00780519                0.01324499                0.06258716               -0.08009198                0.29143013               -0.04074003                0.17430406               -0.10250117
               4.00119334                7.99978599                3.00960803                0.01000001                0.00594426               -0.05287175                0.46886126                0.04565193                0.15691351                0.07676388
               5.00129656                7.99986229                3.01010148                0.05696707               -0.01391424               -0.04007227                0.14799148                0.05586106                0.04949020                0.09044450
               6.00091506                8.00009057                3.00902706                0.12938194               -0.03779720               -0.05261242                0.13241682                0.02977272               -0.03166317               -0.11386931
               7.00054062                8.00012735                3.00801988                0.22883176               -0.04404490               -0.05720124                0.14974710               -0.00675019               -0.04029005               -0.10859281
               8.00003416                8.00002927                3.00711236                0.37717612               -0.06181715               -0.06206278                0.19196591               -0.02135334               -0.05734015               -0.06178278
               8.99930428                7.99998363                3.00626683                0.59505832               -0.05630278               -0.06055242                0.22305833               -0.00350559               -0.04594658                0.00556581
               9.99890811                8.00008470                3.00616971                0.85016328               -0.03961705               -0.06232424                0.22401869               -0.01299833               -0.02993962                0.02210379
               0.00119435                8.99809842                3.00621193                0.97911539               -0.06036377               -0.06068670                0.20726478               -0.00146366               -0.00626276               -0.00606069
               1.00059071                8.99815453                3.00623457                0.57690327               -0.05977457               -0.05619979                0.20668827               -0.00304807               -0.00188145               -0.00306228
               1.99999886                8.99820800                3.00623729                0.03825076               -0.04925571               -0.04390624                0.15994429                0.00215431                0.00801444               -0.02977404
               2.99960560                8.99824091                3.00667890                0.01291039                0.08833935               -0.03637209                0.16827462               -0.03679952                0.17590667               -0.05439091
               4.00176565                8.99929075                3.01053777                0.06074277                0.10422275               -0.03659905                0.09189989                0.07989232                0.24645222                0.06909088
               5.00169005                8.99932027                3.00881653                0.12962913               -0.03067644               -0.03247302                0.12035399                0.02498243               -0.04922271               -0.04786248
               6.00115212                8.99936022                3.00729067                0.22936775               -0.05870376               -0.04660165                0.17556743                0.01742048               -0.04927721               -0.08201957
               7.00051598                8.99936265                3.00650678                0.37399745               -0.06137716               -0.05518643                0.20922118               -0.00163446               -0.02290601               -0.07820029
               7.99992457                8.99929760                3.00620769                0.59545195               -0.06006342               -0.05620688                0.22149351               -0.00301601                0.00673861               -0.04796021
               8.99931471                8.99937037                3.00650150                0.92879561               -0.06450084               -0.06454724                0.24699922                0.00971079                0.01693995                0.01614212
               9.99863456                8.99945467                3.00672278                1.00000000               -0.06801524               -0.07105723                0.25124021               -0.00934082                0.00765624                0.04048671
               0.00110759                9.99748560                3.00667028                0.99475446               -0.06197558               -0.06128194                0.20280693                0.00286887               -0.01212521               -0.00169402
               1.00048783                9.99760105                3.00665991                0.83098616               -0.06046400               -0.05534803                0.20026886                0.00914569               -0.01356465                0.00361762
               1.99989831                9.99787428                3.00655503                0.53801926               -0.05644470               -0.03337182                0.16171496                0.02256822                0.00958510               -0.01219608
               2.99935894                9.99825352                3.00706377                0.51447817                0.09067635                0.00126087                0.16426408                0.03432049                0.15564876               -0.02770181
               4.00171183                9.99905401                3.01048438                0.53896165                0.11839020               -0.02367352                0.09460629                0.04258408                0.22680950               -0.02054651
               5.00172674                9.99921283                3.00869111                0.57578352               -0.02453740               -0.01074415                0.12459431                0.00889505               -0.05129399               -0.02549109
               6.00122109                9.99915854                3.00709298                0.63229595               -0.05780978               -0.02016793                0.17945276               -0.00256339               -0.04889569               -0.03231538
               7.00057055                9.99902362                3.00633008                0.71729703               -0.06274825               -0.03390292                0.21285007               -0.00721358               -0.02048466               -0.03175057
               7.99996612                9.99890513                3.00608221                0.85059093               -0.06145633               -0.03924692                0.22076500               -0.01239245                0.01851588               -0.03033051
               8.99934142                9.99869268                3.00666910                1.00000000               -0.07067165               -0.06776915                0.24920581               -0.00940804                0.03763766                0.00711470
               9.99855269                9.99866355                3.00709167                1.00000000               -0.07887309               -0.07911205                0.25563008               -0.01109980                0.02643481                0.02835771
               0.00263096                0.00263587                4.00745430                0.76942774               -0.06137865               -0.06131595                0.19020821                0.00617275                0.00066517                0.00016050
               1.00201717                0.00267568                4.00720387                0.51241598               -0.06516744               -0.06428364                0.20883859               -0.00542948                0.00497830               -0.00060078
               2.00132761                0.00254082                4.00707030                0.48173600               -0.06077794               -0.07481466                0.21177291               -0.00090165                0.01430343               -0.00038482
               3.00080161                0.00222139                4.00710965                0.50574019               -0.04828051               -0.07570079                0.21235547               -0.00244840                0.01267234                0.00096256
               4.00036200                0.00193588                4.00724213                0.54457480               -0.04413561               -0.07559181                0.21387143               -0.00229463                0.00549877                0.00108498
               4.99991890                0.00174665                4.00742400                0.59725654               -0.04664987               -0.07438182                0.21535164               -0.00192143               -0.00186935                0.00073007
               5.99942900                0.00163709                4.00763532                0.66626765               -0.05163643               -0.07286870                0.21657986               -0.00175734               -0.00725522                0.00074192
               6.99888617                0.00156455                4.00786750                0.75421899               -0.05698300               -0.07096549                0.21744709               -0.00148151               -0.00923333                0.00141479
               7.99828934                0.00150774                4.00813365                0.86249938               -0.06157871               -0.06963922                0.21945452               -0.00082758               -0.00669607                0.00250364
               8.99765460                0.00143950                4.00847463                0.98116017               -0.06353721               -0.06605552                0.21641401               -0.00018225               -0.00215538                0.00052766
               9.99701860                0.00135164                4.00886138                0.99991269               -0.06360003               -0.06295747                0.20908568               -0.00127359               -0.00064545               -0.00057588
               0.00265288                1.00202271                4.00719465                0.51242915               -0.06424751               -0.06506195                0.20855564               -0.00538649               -0.00103655                0.00435030
               1.00201040                1.00203284                4.00693489                0.01280767               -0.05535697               -0.05535031                0.22865619               -0.02457931                0.00073317                0.00175672
               2.00154574                1.00179267                4.00673861                0.01000000               -0.04654033               -0.05202705                0.23329295               -0.02190230                0.00512762                0.01512987
               3.00107959                1.00146438                4.00674597                0.01000000               -0.04846577               -0.03032182                0.22947564               -0.00852352                0.01176958                0.03289147
               4.00057642                1.00117997                4.00689745                0.01000000               -0.05152561               -0.01329464                0.22625389               -0.00809144                0.01355416                0.04582116
               5.00004908                1.00100283                4.00713535                0.03619474               -0.05369723               -0.05486133                0.22410122               -0.00695095                0.01102361                0.08771565
               5.99950248                1.00090840                4.00741918                0.12668312               -0.05565244               -0.06933212                0.22242922               -0.00424187                0.00668491                0.04172569
               6.99893603                1.00085489                4.00772316                0.24545166               -0.05794430               -0.06732560                0.21959546                0.00052578                0.00223247                0.02275815
               7.99834359                1.00081134                4.00803646                0.39893911               -0.06026057               -0.06593274                0.21721681                0.00471685               -0.00081639                0.00931130
               8.99773082                1.00077894                4.00837774                0.58132148               -0.06249365               -0.06493595                0.21421361                0.00600470               -0.00051243               -0.00085395
               9.99709372                1.00072206                4.00876005                0.84046869               -0.06371046               -0.06408676                0.20876726                0.00117217               -0.00217023               -0.00123981
               0.00250296                2.00133463                4.00704941                0.48175896               -0.07473422               -0.06069403                0.21112222               -0.00080617               -0.00036198                0.01366703
               1.00175562                2.00156867                4.00674101                0.01000000               -0.05224704               -0.04641507                0.23334866               -0.02158378                0.01386118                0.00669957
               2.00145802                2.00150028                4.00670677                0.01000001               -0.02558879               -0.02492005                0.23513084                0.00281403                0.03916963                0.04184314
               3.00124385                2.00161495                4.00699488                0.01000000               -0.03981524                0.00392761                0.24126650                0.02856632                0.04606355                0.06345904
               4.00066172                2.00166999                4.00743497                0.01130218               -0.05962014                0.02335856                0.26083672               -0.01054271                0.07828933                0.12073727
               5.00005144                2.00064942                4.00858745                0.01000000               -0.05848099                0.01249506                0.17492029               -0.03479208                0.02247723                0.07963389
               5.99949210                2.00025045                4.00804280                0.01739996               -0.05288482                0.00531788                0.16886422                0.02159964               -0.03000362                0.14420530
               6.99899375                2.00021804                4.00804358                0.01014840               -0.05162345                0.00013107                0.17414394                0.03351609               -0.01139449                0.12652565
               7.99845963                2.00018908                4.00813360                0.01000000               -0.05648889                0.01586663                0.19066031                0.04398846               -0.01684053                0.07674146
               8.99786397                2.00014078                4.00828794                0.05795190               -0.06519184               -0.03454507                0.21344914                0.01743668               -0.00867846                0.08752323
               9.99715579                2.00006990                4.00864984                0.55152200               -0.07081763               -0.04300272                0.21309224               -0.00180597               -0.01277260                0.08743818
               0.00216867                3.00080883                4.00707938                0.50577651               -0.07555923               -0.04832066                0.21141586               -0.00232369                0.00101281                0.01206429
               1.00141308                3.00110454                4.00674938                0.01000000               -0.03064665               -0.04819522                0.22954631               -0.00795147                0.03130840                0.01331687
               2.00155574                3.00129427                4.00699946                0.01000000                0.00340638               -0.03857028                0.24127712                0.02851325                0.06000438                0.04936400
               3.00148121                3.00154293                4.00742724                0.01000000               -0.01123205               -0.01163511                0.27385942                0.03403178                0.08949046                0.09342763
               4.00133110                3.00164714                4.00837044                0.01000001               -0.03542108               -0.00261899                0.26070187                0.03199977                0.06666001                0.06684532
               5.00077278                3.00125273                4.00846241                0.01000000               -0.04826213                0.06035831                0.27923911                0.03881321                0.07578892                0.11970532
               6.00036585                3.00101476                4.00971727                0.01000000               -0.05525305                0.07001224                0.20466506                0.04853004                0.07217750                0.12711350
               6.99966772                3.00085751                4.00981210                0.01174958               -0.05326175                0.06775591                0.19746382                0.08164101               -0.02533051                0.09898791
               7.99930062                3.00112868                4.00931273                0.01000000               -0.07344955                0.05581789                0.27336885                0.02109476                0.00474942                0.16914183
               8.99819873                3.00008804                4.01000332                0.01637786               -0.10506372                0.14970124                0.24748541                0.04332659                0.02413854                0.22886848
               9.99719934                2.99986201                4.01036188                0.51896629               -0.09993876                0.15990060                0.24071795                0.07841788               -0.02134352                0.21457112
               0.00186507                4.00036822                4.00720091                0.54463161               -0.07539184               -0.04424839                0.21263386               -0.00215321                0.00115365                0.00470883
               1.00111115                4.00060477                4.00690126                0.01000000               -0.01375866               -0.05113924                0.22631225               -0.00705849                0.04445106                0.01513262
               2.00158990                4.00072887                4.00745516                0.01130433                0.02302318               -0.05748658                0.26088560               -0.01065886                0.11696897                0.08510797
               3.00157161                4.00138225                4.00838459                0.01000001                0.00010093               -0.03678606                0.26066130                0.02924033                0.06206739                0.07049197
               4.00159191                4.00161761                4.00823669                0.01000000               -0.00557653               -0.01138353                0.28833196                0.04843919                0.11030593                0.11319498
               5.00146008                4.00185659                4.01039555                0.01927633               -0.03669997                0.00872761                0.29727104                0.03483365                0.14611519                0.13747220
               6.00085792                4.00165069                4.01085151                0.01000000               -0.04737155                0.01519235                0.34629952                0.02289765                0.02380365                0.09167861
               7.00051265                4.00157315                4.01048867                0.01523910               -0.06034576                0.00734682                0.27800189                0.02392127                0.02054386                0.05358744
               7.99965100                4.00130544                4.01097977                0.01262202               -0.02577431                0.04849625                0.21151887                0.14298211                0.11655578                0.19394542
               8.99999717                4.00313480                4.01265253                0.06330840               -0.02373950                0.12142075                0.20354049                0.18596160                0.10211052                0.14227625
               9.99917621                4.00326792                4.01268237                0.54402436               -0.08209564                0.14381450                0.21302756                0.10660991               -0.00810349                0.12335465
               0.00165251                4.99992386                4.00737010                0.59734297               -0.07412527               -0.04674584                0.21382269               -0.00177685                0.00080298               -0.00283792
               1.00091125                5.00008175                4.00713889                0.03623345               -0.05437140               -0.05324142                0.22410290               -0.00511337                0.08943874                0.01262411
               2.00056508                5.00014454                4.00868150                0.01000000                0.01330090               -0.05722172                0.17666165               -0.03656309                0.07556871                0.02987873
               3.00117727                5.00080721                4.00849122                0.01000000                0.06302315               -0.05024993                0.27826354                0.02824125                0.10990913                0.07838130
               4.00182554                5.00141947                4.01037901                0.01927793                0.01295523               -0.04124371                0.29690085                0.03053439                0.13277413                0.14543987
               5.00143638                5.00142728                4.01107274                0.01000000               -0.03591509               -0.04163278                0.32551961               -0.01266520                0.06282994                0.06240775
               6.00110724                5.00131861                4.01121393                0.01233610               -0.04724864               -0.05343581                0.36394911               -0.03072552               -0.00164133               -0.00338685
               7.00049140                5.00100445                4.01088980                0.01000000               -0.02543129               -0.01563226                0.29366674                0.06033731                0.09330225                0.15455778
               8.00059861                5.00209860                4.01244362                0.06968229               -0.02679584                0.01232686                0.19517861                0.11902862                0.04979694                0.07353667
               8.99995549                5.00251645                4.01132977                0.13406417               -0.07666496               -0.06782845                0.24166235                0.02237002               -0.04407035               -0.07242032
               9.99906531                5.00273830                4.01125274                0.58329337               -0.08901718               -0.06390349                0.24930465                0.00231625               -0.02648221               -0.07425679
               0.00151374                5.99943330                4.00756714                0.66639735               -0.07255395               -0.05162830                0.21477580               -0.00162074                0.00081515               -0.00836520
               1.00078821                5.99953994                4.00742173                0.12675021               -0.06902833               -0.05518587                0.22233248               -0.00296038                0.04335062                0.00826338
               2.00013318                5.99958444                4.00814710                0.01740598                0.00366527               -0.05307147                0.17028128                0.01676101                0.13913743               -0.02639428
               3.00086151                6.00037725                4.00975818                0.01000000                0.07246757               -0.05693091                0.20482732                0.03711467                0.11388246                0.07275907
               4.00158253                6.00079274                4.01081324                0.01000000                0.02230638               -0.05312678                0.34511096                0.01375748                0.08364564                0.01890307
               5.00130764                6.00102393                4.01117161                0.01233874               -0.04581467               -0.05644968                0.36341003               -0.03455832               -0.00480751               -0.00699959
               6.00066624                6.00058198                4.01064019                0.01000000               -0.01841160               -0.03028299                0.32859432                0.02530025                0.12806674                0.11824782
               7.00093941                6.00126051                4.01295681                0.06846458               -0.00733338               -0.00804707                0.17117653                0.07121211                0.06432436                0.07810287
               8.00051957                6.00155198                4.01135417                0.14595522               -0.05672696               -0.05929753                0.21664527                0.01382988               -0.12045310               -0.05591091
               8.99980487                6.00177823                4.01031498                0.23965951               -0.08703621               -0.07623546                0.28185301                0.00316464               -0.05024601               -0.04929121
               9.99877884                6.00198985                4.01022025                0.64513569               -0.10260227               -0.07995450                0.28969554               -0.00538680               -0.03321309               -0.04692725
               0.00140681                6.99889129                4.00778369                0.75441411               -0.07059060               -0.05678132                0.21538194               -0.00136493                0.00150967               -0.01045171
               1.00070091                6.99897804                4.00772378                0.24556388               -0.06719139               -0.05754159                0.21937064                0.00122633                0.02395218                0.00370345
               2.00006299                6.99908311                4.00815047                0.01015724                0.00051777               -0.05191831                0.17559178                0.02769681                0.11865725               -0.00820277
               3.00071126                6.99966859                4.00982089                0.01175707                0.06955111               -0.05516200                0.19688338                0.07058193                0.08083409               -0.02765178
               4.00145401                7.00035693                4.01034797                0.01524543                0.01223533               -0.06552936                0.27674678                0.01360201                0.04042133                0.01351966
               5.00095597                7.00029829                4.01074714                0.01000000               -0.00386711               -0.03708534                0.28991647                0.05612056                0.15338283                0.07522129
               6.00137667                7.00071295                4.01282154                0.06846871               -0.00051618               -0.01339954                0.17036088                0.07062090                0.08423517                0.05122402
               7.00094565                7.00084351                4.01162574                0.14509118               -0.05095895               -0.04982115                0.18732830                0.00789713               -0.09289233               -0.10402492
               8.00035749                7.00091265                4.01053691                0.25212744               -0.06823691               -0.06707450                0.24301696               -0.00871705               -0.09150549               -0.05211587
               8.99958091                7.00099175                4.00972244                0.39769293               -0.09115679               -0.08079939                0.29845452               -0.00941829               -0.04484656               -0.01889471
               9.99853435                7.00113921                4.00965598                0.74069178               -0.10465565               -0.08887564                0.30310241               -0.00627168               -0.03048597               -0.01419556
               0.00131296                7.99829767                4.00803289                0.86279379               -0.06920447               -0.06111479                0.21710589               -0.00075241                0.00263792               -0.00804256
               1.00062092                7.99838911                4.00803360                0.39911989               -0.06582013               -0.05996793                0.21685747                0.00504195                0.01012651                0.00046311
               1.99999656                7.99854607                4.00824180                0.01000000                0.01892050               -0.05686355                0.19222319                0.03675361                0.06490678               -0.01393878
               3.00099933                7.99927401                4.00926420                0.01000000                0.06141564               -0.06901752                0.27072699                0.00300874                0.14824443                0.01548326
               4.00122487                7.99948215                4.01082056                0.01263404                0.05373526               -0.03676670                0.20611811                0.12478196                0.17430198                0.09604718
               5.00207403                8.00028222                4.01209034                0.06970052                0.01542807               -0.03193838                0.19190320                0.11178385                0.06617695                0.03397438
               6.00153343                8.00031399                4.01113246                0.14599186               -0.05881925               -0.05490575                0.21447244                0.01230726               -0.04712901               -0.12845862
               7.00089765                8.00026409                4.01043515                0.25218543               -0.06682207               -0.06730626                0.24170265               -0.00905871               -0.04460491               -0.09885057
               8.00019699                8.00021049                4.00989403                0.41024415               -0.07538530               -0.07528063                0.26925169               -0.02058839               -0.04257391               -0.04806082
               8.99938994                8.00016225                4.00952225                0.64381303               -0.09192550               -0.08341790                0.30179320               -0.01836097               -0.02074184                0.00083065
               9.99835848                8.00021233                4.00953047                0.89185550               -0.10314592               -0.09091683                0.30343648               -0.00435894               -0.02023041                0.00732678
               0.00120890                8.99766900                4.00835518                0.98157782               -0.06555499               -0.06281441                0.21373874               -0.00016666                0.00067229               -0.00335790
               1.00055335                8.99777868                4.00836917                0.58157879               -0.06478722               -0.06228178                0.21370976                0.00610328               -0.00058416                0.00039454
               1.99991315                8.99794584                4.00839223                0.05793780               -0.03589955               -0.06568408                0.21519609                0.01626081                0.08727984               -0.00686559
               2.99983536                8.99828824                4.01020752                0.01642211                0.15141388               -0.10001713                0.25371993                0.01403482                0.18780726                0.03963415
               4.00294143                8.99962160                4.01218910                0.06335124                0.12622265               -0.03269427                0.19614543                0.15672653                0.10482533                0.08236760
               5.00235981                8.99965952                4.01096782                0.13414501               -0.06502414               -0.07432123                0.23553093                0.01960168               -0.06931959               -0.04782338
               6.00164095                8.99961483                4.01005905                0.23986239               -0.07459193               -0.08510480                0.27670196                0.00241623               -0.04630357               -0.05372455
               7.00086797                8.99949738                4.00955869                0.39807550               -0.07966944               -0.08978195                0.29466501               -0.00962618               -0.01694106               -0.04819846
               8.00004756                8.99940704                4.00944108                0.64430816               -0.08280660               -0.09120077                0.29973430               -0.01845612                0.00231440               -0.02353835
               8.99921184                8.99932339                4.00956911                0.99999999               -0.08502823               -0.08500789                0.28496123               -0.01775732                0.00416766                0.00298087
               9.99834700                8.99932087                4.00968008                0.98926590               -0.08648445               -0.08357009                0.27253649               -0.00093518                0.00012782                0.00710657
               0.00109027                9.99704138                4.00872777                1.00000000               -0.06241269               -0.06276140                0.20619592               -0.00165432               -0.00144314               -0.00162948
               1.00046614                9.99714347                4.00874046                0.84062132               -0.06390291               -0.06352073                0.20810744                0.00082961               -0.00263201               -0.00149460
               1.99981221                9.99723239                4.00873327                0.55151368               -0.04309396               -0.07134490                0.21459023               -0.00358447                0.08501669               -0.01181756
               2.99960426                9.99727367                4.01053842                0.51900269                0.15879550               -0.10145741                0.24678799                0.05668438                0.17555277               -0.01914775
               4.00298812                9.99882826                4.01227023                0.54406495                0.14342828               -0.07933323                0.20373559                0.08077560                0.08562568               -0.00984287
               5.00247283                9.99879580                4.01091996                0.58336547               -0.06221135               -0.08637216                0.24125651                0.00048307               -0.07699235               -0.02745484
               6.00174389                9.99861189                4.00996418                0.64531754               -0.07799551               -0.10029436                0.28223113               -0.00607311               -0.04989849               -0.03429382
               7.00091292                9.99846845                4.00946469                0.74104677               -0.08710143               -0.10289372                0.29697816               -0.00677633               -0.01794609               -0.03168166
               8.00000187                9.99838647                4.00939635                0.89238331               -0.08959803               -0.10205674                0.29914091               -0.00488746                0.00333415               -0.02139781
               8.99912096                9.99846209                4.00960252                0.98926677               -0.08285296               -0.08613003                0.27039269               -0.00136512                0.00430455               -0.00086050
               9.99834481                9.99854093                4.00973082                1.00000000               -0.07761516               -0.07799418                0.24812826                0.00766550                0.00385290                0.00557634
               0.00277369                0.00278343                5.00938228                0.77164724               -0.06228523               -0.06222484                0.19592762                0.00432141               -0.00128083               -0.00193761
               1.00215084                0.00281938                5.00930430                0.51305214               -0.06711798               -0.06399904                0.21052070               -0.00378562               -0.00258768               -0.00220333
               2.00143133                0.00272689                5.00921807                0.48235154               -0.06766639               -0.06983692                0.21541397               -0.00073505                0.00158016               -0.00283461
               3.00079751                0.00247250                5.00925314                0.50790961               -0.05963986               -0.07060460                0.21491973               -0.00135067                0.00485263               -0.00158495
               4.00023853                0.00219573                5.00939282                0.54794600               -0.05485513               -0.07039540                0.21495307               -0.00189479                0.00323500               -0.00119037
               4.99970041                0.00196878                5.00958530                0.60127106               -0.05452741               -0.06939767                0.21549446               -0.00207775               -0.00055727               -0.00134843
               5.99914798                0.00180316                5.00980508                0.66999119               -0.05669148               -0.06800154                0.21613277               -0.00194551               -0.00336904               -0.00145803
               6.99856658                0.00168622                5.01004629                0.75646377               -0.05971808               -0.06662144                0.21684749               -0.00149088               -0.00397428               -0.00114140
               7.99795362                0.00160128                5.01031734                0.86233488               -0.06247368               -0.06524974                0.21711377               -0.00067846               -0.00163938               -0.00112966
               8.99731710                0.00153015                5.01063215                0.98329151               -0.06364208               -0.06424397                0.21499570               -0.00044271                0.00091088               -0.00054256
               9.99668078                0.00144859                5.01095585                0.99443543               -0.06363224               -0.06287695                0.20994080               -0.00022875                0.00133597                0.00024644
               0.00278095                1.00216118                5.00929233                0.51306412               -0.06396980               -0.06701637                0.21025645               -0.00374299               -0.00276088               -0.00341780
               1.00214125                1.00217939                5.00921445                0.01247026               -0.05917652               -0.05915074                0.22554474               -0.01593816               -0.00533564               -0.00403092
               2.00159742                1.00202852                5.00908128                0.01000000               -0.05458343               -0.05134574                0.23185529               -0.01066788               -0.00855536                0.00743576
               3.00104958                1.00176646                5.00906277                0.01000000               -0.05629860               -0.03133183                0.23008170               -0.00333854               -0.00255191                0.03295540
               4.00047145                1.00149177                5.00918095                0.01000000               -0.05868360               -0.01802830                0.22702615               -0.00504674                0.00281094                0.04018448
               4.99987591                1.00127480                5.00938623                0.04011192               -0.06008199               -0.06533997                0.22373772               -0.00849938                0.00420159                0.04151068
               5.99926981                1.00112315                5.00963722                0.12972628               -0.06116503               -0.06804323                0.22054712               -0.00442364                0.00289723                0.01705071
               6.99865261                1.00102001                5.00990924                0.24663424               -0.06224669               -0.06601201                0.21775566               -0.00058053                0.00090335                0.00796869
               7.99802487                1.00094878                5.01019801                0.39775620               -0.06317945               -0.06467854                0.21571954                0.00141915                0.00084560                0.00250751
               8.99738902                1.00088771                5.01052274                0.58359157               -0.06324091               -0.06384385                0.21358093                0.00096859                0.00122915                0.00079965
               9.99676006                1.00081982                5.01084865                0.84701238               -0.06289660               -0.06284833                0.20871900                0.00147164                0.00146066                0.00061287
               0.00266241                2.00144310                5.00919073                0.48237400               -0.06976697               -0.06759116                0.21478855               -0.00064482               -0.00280991                0.00072887
               1.00196474                2.00163637                5.00908413                0.01000000               -0.05157492               -0.05440853                0.23188525               -0.01038169                0.00579985               -0.00657386
               2.00163091                2.00169997                5.00907474                0.01066089               -0.03486261               -0.03421587                0.23309085                0.01802381                0.02888398                0.03224923
               3.00126748                2.00184587                5.00948442                0.01086123               -0.05008270                0.00095418                0.23967687                0.03872285                0.03279531                0.08019055
               4.00062925                2.00183516                5.00971825                0.01000001               -0.06842198                0.02040965                0.23152067               -0.01082915                0.02333604                0.08191636
               4.99989904                2.00066198                5.00997252                0.01000000               -0.06574738                0.02510766                0.14933214               -0.00917119               -0.01210241                0.13222208
               5.99931431                2.00044230                5.00977553                0.01000000               -0.05848558               -0.00676953                0.18328638                0.04688910               -0.02318063                0.10704242
               6.99872933                2.00036598                5.00990184                0.01438978               -0.06000020                0.00535294                0.19448746                0.05017774               -0.00995895                0.12971747
               7.99811430                2.00030771                5.01010518                0.01000000               -0.06319476                0.04536469                0.20355771                0.03872438               -0.00635010                0.16598272
               8.99746544                2.00025327                5.01042073                0.06556993               -0.06341523               -0.04726008                0.21172537                0.00680786               -0.00244058                0.06134814
               9.99684600                2.00019162                5.01074976                0.55783771               -0.06194403               -0.05538604                0.20830473                0.01054273                0.00202081                0.05938289
               0.00238152                3.00080936                5.00921361                0.50794547               -0.07047734               -0.05969173                0.21402069               -0.00123149               -0.00153484                0.00406757
               1.00167675                3.00109122                5.00906665                0.01000000               -0.03165618               -0.05595585                0.23010277               -0.00289826                0.03083915               -0.00065131
               2.00174840                3.00134420                5.00948864                0.01086212                0.00060525               -0.04922824                0.23962731                0.03872596                0.07588433                0.03666579
               3.00168885                3.00178554                5.01039644                0.01277731               -0.01548223               -0.01645871                0.23565890                0.05386223                0.06008867                0.06453370
               4.00143875                3.00189996                5.01057295                0.01000000               -0.03017513               -0.00405376                0.20783466                0.05244531                0.07009172                0.13147829
               5.00108535                3.00177695                5.01185753                0.01361537               -0.04675826                0.05367755                0.27700581                0.03283283                0.07088536                0.15985705
               6.00050359                3.00098776                5.01142161                0.01288952               -0.06472968                0.06363951                0.23305516                0.04972371                0.02941313                0.21770368
               6.99979076                3.00112706                5.01221221                0.01718744               -0.07957590                0.07341086                0.24074845                0.14514895                0.11036352                0.25012785
               7.99891207                3.00185607                5.01327431                0.01000000               -0.10747456                0.08751842                0.26371034                0.04132376               -0.05684306                0.20967848
               8.99764126                2.99994251                5.01151855                0.02153348               -0.09089280                0.15655361                0.15456940                0.01496397               -0.11046079                0.22888965
               9.99709421                2.99971210                5.01179389                0.52476763               -0.05470517                0.16169593                0.14836347                0.08955098                0.00579154                0.21329649
               0.00207405                4.00024927                5.00933950                0.54800179               -0.07021197               -0.05497520                0.21378384               -0.00176398               -0.00112441                0.00227999
               1.00137193                4.00051725                5.00918497                0.01000000               -0.01814698               -0.05822747                0.22700992               -0.00459677                0.03809784                0.00467077
               2.00171111                4.00071541                5.00973681                0.01000001                0.02085181               -0.06620544                0.23133844               -0.01190684                0.07722299                0.03088010
               3.00178896                4.00151669                5.01058481                0.01000000               -0.00121809               -0.03324102                0.20776536                0.04950661                0.12661459                0.07343508
               4.00168675                4.00175408                5.01219489                0.01272463               -0.01605269               -0.02225754                0.29538997                0.02219598                0.09927123                0.10230639
               5.00146791                4.00173553                5.01229497                0.01088650               -0.03640387               -0.01834744                0.23490618                0.01348039                0.04791153                0.04113552
               6.00095867                4.00171509                5.01301502                0.01391787               -0.03519583                0.02251431                0.23519840                0.03598381                0.09006381                0.10499061
               7.00076399                4.00183420                5.01377240                0.01000000               -0.04166675                0.02012823                0.25509682                0.07408727                0.05052695                0.11740931
               8.00012533                4.00205807                5.01397496                0.01702572               -0.04276498                0.02687276                0.26867822                0.16493584                0.09752174                0.09879401
               8.99990869                4.00338434                5.01499054                0.06992628               -0.05137475                0.13633793                0.23444715                0.17918647                0.04592900                0.14304539
               9.99909784                4.00342554                5.01507283                0.55149750               -0.08108551                0.15755211                0.23478687                0.10245081               -0.00174349                0.11957316
               0.00181027                4.99970985                5.00951656                0.60135561               -0.06916020               -0.05461851                0.21406384               -0.00194905               -0.00127794               -0.00166521
               1.00111867                4.99992667                5.00938927                0.04015655               -0.06497271               -0.05957803                0.22364817               -0.00686731                0.04312207                0.00599946
               2.00051082                5.00002009                5.01007847                0.01000000                0.02608178               -0.06395232                0.15043850               -0.01358463                0.12517699               -0.00417497
               3.00164031                5.00112072                5.01186709                0.01361827                0.05765079               -0.05014728                0.27596049                0.02267947                0.14738279                0.07134112
               4.00166384                5.00145481                5.01228016                0.01088816               -0.01231761               -0.04272125                0.23542254                0.01007780                0.03475125                0.04898368
               5.00139396                5.00141000                5.01239322                0.01315639               -0.02696200               -0.03330533                0.24428914               -0.00494039                0.06024118                0.06093327
               6.00112460                5.00143804                5.01310361                0.01000001               -0.02322204               -0.02829584                0.25393167                0.02080307                0.10851560                0.11284488
               7.00092951                5.00152963                5.01426206                0.01700597               -0.02319781               -0.01390583                0.30240934                0.06740290                0.09319743                0.09260407
               8.00066064                5.00239353                5.01432491                0.07436601               -0.05359920               -0.01775807                0.21533866                0.07498395               -0.01479031                0.00855712
               8.99985753                5.00266927                5.01395075                0.14038491               -0.07998995               -0.07672459                0.26375667                0.01017099               -0.02664703               -0.07663856
               9.99906084                5.00286314                5.01393936                0.59071783               -0.07966901               -0.06995544                0.26586195                0.00613695               -0.00350844               -0.08817246
               0.00160143                5.99915690                5.00971949                0.67011764               -0.06770854               -0.05666428                0.21444952               -0.00182852               -0.00137773               -0.00460247
               1.00092434                5.99932569                5.00963823                0.12980023               -0.06780304               -0.06067871                0.22035416               -0.00329016                0.01861603                0.00460692
               2.00024537                5.99943636                5.00989317                0.01000000               -0.00582562               -0.05853590                0.18459375                0.03976950                0.09972024               -0.01924423
               3.00080783                6.00051375                5.01144987                0.01289450                0.06768246               -0.06685112                0.23003382                0.03480779                0.20429574                0.02686350
               4.00159902                6.00089966                5.01296128                0.01392161                0.02890219               -0.04217811                0.23431917                0.02539727                0.09461024                0.08570089
               5.00138588                6.00106942                5.01306486                0.01000001               -0.01719557               -0.03512961                0.25367073                0.01635285                0.11025184                0.10129690
               6.00125511                6.00114917                5.01475012                0.01685915               -0.01146551               -0.02466809                0.32176689                0.04949461                0.12120634                0.11256891
               7.00115657                6.00155608                5.01454996                0.07607293               -0.03848651               -0.02908930                0.18473079                0.03203476               -0.04346061               -0.00407726
               8.00048538                6.00170291                5.01356149                0.15075939               -0.07570304               -0.07184222                0.24036979               -0.00428806               -0.07300818               -0.04949827
               8.99964250                6.00184985                5.01313163                0.24407176               -0.08262714               -0.08365078                0.28059258               -0.00548853               -0.03229244               -0.05581738
               9.99883283                6.00202643                5.01306941                0.65095106               -0.08096708               -0.08780549                0.28068672               -0.00439080               -0.00366683               -0.06297419
               0.00143612                6.99857657                5.00994250                0.75665246               -0.06627124               -0.05949515                0.21490754               -0.00139692               -0.00102422               -0.00533498
               1.00077340                6.99871310                5.00990707                0.24675263               -0.06589815               -0.06183826                0.21744189                0.00002255                0.00914027                0.00247780
               2.00011815                6.99884937                5.01002273                0.01439856                0.00498801               -0.06022475                0.19584723                0.04171808                0.11881766               -0.00639986
               3.00087316                6.99978370                5.01219346                0.01719497                0.07489756               -0.08048719                0.23704959                0.12589250                0.22651299                0.10447821
               4.00161611                7.00061125                5.01364661                0.01000000                0.02991683               -0.05169230                0.25697587                0.05889698                0.10095389                0.04278900
               5.00147150                7.00070741                5.01408238                0.01701222                0.00058622               -0.03741623                0.29875477                0.06278795                0.08874311                0.07438720
               6.00162783                7.00094468                5.01440609                0.07607934               -0.02275171               -0.04326417                0.18378937                0.03064975               -0.00005860               -0.05352915
               7.00101647                7.00094784                5.01363446                0.15235149               -0.06733614               -0.06693434                0.22066341               -0.01288077               -0.06355113               -0.07233300
               8.00028111                7.00095668                5.01296971                0.25631325               -0.07961117               -0.07695162                0.25664566               -0.01706955               -0.05384038               -0.04262999
               8.99942424                7.00099625                5.01260037                0.39755221               -0.08306189               -0.08481388                0.28461112               -0.01195785               -0.02728557               -0.03234588
               9.99861987                7.00110703                5.01251959                0.74263612               -0.08043746               -0.09096447                0.28148034               -0.00621022               -0.00177435               -0.03488247
               0.00130043                7.99796699                5.01019376                0.86261407               -0.06484414               -0.06200953                0.21489504               -0.00062129               -0.00096041               -0.00317547
               1.00065199                7.99808893                5.01019101                0.39793695               -0.06456497               -0.06287667                0.21527860                0.00167251                0.00334242                0.00223368
               2.00000913                7.99823187                5.01022847                0.01000000                0.04559072               -0.06350816                0.20499595                0.03015139                0.15212190               -0.00304091
               3.00156380                7.99890400                5.01321973                0.01000000                0.09220555               -0.10121583                0.26285053                0.01628300                0.18144349               -0.04312783
               4.00185324                7.99986581                5.01373039                0.01703923                0.03722014               -0.05614092                0.26156470                0.14514180                0.07211150                0.07231044
               5.00230821                8.00032110                5.01393954                0.07438931               -0.01127857               -0.05866121                0.21181994                0.06901392                0.00167526               -0.02800302
               6.00162767                8.00028389                5.01331651                0.15080513               -0.07106305               -0.07453377                0.23782208               -0.00481786               -0.04256020               -0.07967361
               7.00088695                8.00021739                5.01285393                0.25637814               -0.07660465               -0.07893507                0.25517379               -0.01706728               -0.03676459               -0.05992585
               8.00009558                8.00016388                5.01249739                0.40996935               -0.08169712               -0.08160847                0.26848532               -0.01922400               -0.02877116               -0.03320598
               8.99925300                8.00015357                5.01230269                0.63313588               -0.08042524               -0.08232616                0.27643582               -0.01109592               -0.01446141               -0.01061346
               9.99848707                8.00020714                5.01223844                0.88607050               -0.07659301               -0.08552889                0.26929752               -0.00487795                0.00291521               -0.00720077
               0.00117983                8.99733638                5.01048671                0.98369189               -0.06378464               -0.06295816                0.21247693               -0.00043485               -0.00033254               -0.00046751
               1.00054198                8.99745557                5.01050877                0.58385520               -0.06368625               -0.06301708                0.21302019                0.00102676                0.00113271                0.00223779
               1.99990610                8.99757921                5.01054121                0.06556692               -0.04885529               -0.06380120                0.21320900                0.00476814                0.06086747               -0.00034641
               2.99956488                8.99775938                5.01175330                0.02158073                0.15978709               -0.08476163                0.15716264               -0.01607710                0.18294889               -0.09423602
               4.00310185                8.99948843                5.01446067                0.06997621                0.14344147               -0.05854591                0.22799085                0.14821864                0.10043186                0.02982509
               5.00243371                8.99953419                5.01352715                0.14047360               -0.07333347               -0.07808147                0.25765254                0.00751530               -0.07431370               -0.02979399
               6.00163518                8.99945400                5.01282471                0.24426998               -0.08192893               -0.08107386                0.27557650               -0.00571690               -0.05334135               -0.03534124
               7.00079513                8.99936914                5.01240008                0.39789741               -0.08373653               -0.08196998                0.28106115               -0.01184928               -0.03071684               -0.03017134
               7.99996045                8.99932451                5.01220237                0.63355759               -0.08180309               -0.07986220                0.27459891               -0.01100076               -0.00937462               -0.01679440
               8.99915907                8.99934973                5.01220072                0.99453434               -0.07726337               -0.07724595                0.26169265               -0.00440147                0.00127710                0.00024969
               9.99841518                8.99939645                5.01217351                0.99540018               -0.07438875               -0.07667740                0.25054360               -0.00102437                0.00426701                0.00538733
               0.00105336                9.99670783                5.01079420                0.99443759               -0.06236676               -0.06285466                0.20721571               -0.00057176               -0.00067573                0.00019037
               1.00042969                9.99682858                5.01082206                0.84717269               -0.06263402               -0.06269814                0.20799457                0.00117143               -0.00089999                0.00219873
               1.99980068                9.99695584                5.01084684                0.55783682               -0.05483263               -0.06233684                0.20951738                0.00846675                0.05661854                0.00318695
               2.99933304                9.99720877                5.01199953                0.52480688                0.16210645               -0.05506109                0.15055091                0.06376886                0.16974156                0.00651102
               4.00304281                9.99869490                5.01455909                0.55154539                0.15799515               -0.07935379                0.22533936                0.07163108                0.07741323               -0.00339149
               5.00249294                9.99875947                5.01351624                0.59079393               -0.06822140               -0.07747200                0.25709135                0.00429926               -0.09020420               -0.00499409
               6.00167838                9.99866241                5.01273760                0.65111977               -0.08567459               -0.07915944                0.27332874               -0.00475340               -0.06541557               -0.00514330
               7.00077945                9.99857799                5.01226965                0.74294293               -0.08917012               -0.07911477                0.27580847               -0.00635645               -0.03808988               -0.00315087
               7.99989498                9.99856664                5.01206503                0.88650961               -0.08432061               -0.07578779                0.26550620               -0.00501379               -0.01073446                0.00179544
               8.99909304                9.99860865                5.01207696                0.99540132               -0.07609193               -0.07410720                0.24869270               -0.00125505                0.00275589                0.00339170
               9.99837314                9.99867359                5.01205423                0.99501988               -0.07198990               -0.07228584                0.23685569                0.00228974                0.00210308                0.00378889
               0.00276130                0.00277701                6.01137286                0.77443117               -0.06316747               -0.06311167                0.20189420                0.00264299               -0.00180197               -0.00260279
               1.00212962                0.00281132                6.01141428                0.51432105               -0.06754649               -0.06389306                0.21151058               -0.00245442               -0.00640514               -0.00214028
               2.00141037                0.00275770                6.01137858                0.48216680               -0.07028522               -0.06729909                0.21637641               -0.00045000               -0.00640327               -0.00211188
               3.00072392                0.00257044                6.01140804                0.50847458               -0.06579126               -0.06782310                0.21611920               -0.00059840               -0.00148105               -0.00144217
               4.00009454                0.00233580                6.01154119                0.54918635               -0.06142144               -0.06775805                0.21527579               -0.00116723                0.00134962               -0.00085114
               4.99949549                0.00211782                6.01173389                0.60263572               -0.05969586               -0.06719967                0.21501363               -0.00147211                0.00101024               -0.00065506
               5.99890063                0.00194365                6.01195797                0.67089592               -0.06005305               -0.06646750                0.21522546               -0.00142122                0.00016084               -0.00051185
               6.99829443                0.00181583                6.01220445                0.75641842               -0.06149642               -0.06571104                0.21556602               -0.00110368                0.00040660               -0.00038830
               7.99767070                0.00172380                6.01247592                0.86110620               -0.06300623               -0.06501473                0.21547104               -0.00078806                0.00211240               -0.00034804
               8.99703430                0.00164746                6.01277454                0.98404198               -0.06363915               -0.06411018                0.21400590               -0.00059510                0.00281356               -0.00023691
               9.99639791                0.00157098                6.01306019                0.99787296               -0.06363901               -0.06305596                0.21080087               -0.00032758                0.00218848                0.00056422
               0.00275342                1.00214590                6.01139977                0.51433198               -0.06386903               -0.06745454                0.21126771               -0.00241781               -0.00280911               -0.00743020
               1.00211473                1.00217239                6.01144578                0.01202174               -0.06135585               -0.06131664                0.22117775               -0.01016006               -0.00854003               -0.00699127
               2.00152631                1.00208471                6.01137571                0.01000000               -0.05929248               -0.05098979                0.22709389               -0.00275664               -0.01572334               -0.00025964
               3.00092888                1.00189221                6.01134760                0.01000000               -0.06085639               -0.03426737                0.22681003                0.00529195               -0.01153614                0.02585602
               4.00030918                1.00165822                6.01143797                0.01000000               -0.06260194               -0.02097406                0.22449353                0.00497081               -0.00472640                0.03779324
               4.99967685                1.00144582                6.01161011                0.03923506               -0.06358850               -0.06476276                0.22163786               -0.00613093               -0.00103445                0.00548749
               5.99903741                1.00127897                6.01183012                0.12818677               -0.06417654               -0.06683675                0.21899521               -0.00442856                0.00028237                0.00105871
               6.99839331                1.00115872                6.01207827                0.24409547               -0.06452046               -0.06532032                0.21694958               -0.00174148                0.00093236               -0.00054199
               7.99774700                1.00107366                6.01235085                0.39398421               -0.06442737               -0.06456831                0.21535134               -0.00046555                0.00216230               -0.00106716
               8.99710477                1.00100636                6.01264936                0.58228135               -0.06379392               -0.06377634                0.21293900                0.00015163                0.00227977               -0.00020144
               9.99647112                1.00094042                6.01293443                0.85040429               -0.06336455               -0.06293252                0.20949869                0.00041756                0.00120648                0.00074092
               0.00265996                2.00142792                6.01134518                0.48218838               -0.06723565               -0.07022441                0.21579309               -0.00037073               -0.00209226               -0.00746097
               1.00198761                2.00158498                6.01137872                0.01000000               -0.05122742               -0.05908546                0.22709539               -0.00249566               -0.00221582               -0.01339094
               2.00163541                2.00173791                6.01136859                0.01069387               -0.03656798               -0.03595978                0.22775730                0.02587194                0.01594851                0.01992259
               3.00125625                2.00188509                6.01178841                0.01140559               -0.04975356               -0.00794976                0.21999056                0.04240971                0.03022140                0.04376301
               4.00064034                2.00191632                6.01206538                0.01000001               -0.07520636                0.00709177                0.22402775               -0.00499317               -0.01554655                0.06220659
               4.99975212                2.00082256                6.01157409                0.01000000               -0.07705913                0.03407994                0.17643023                0.01777914               -0.03427949                0.13395114
               5.99909916                2.00060691                6.01170853                0.01000000               -0.06436012                0.04251830                0.20117647                0.06244419               -0.00437535                0.14159555
               6.99846492                2.00050942                6.01193333                0.01445127               -0.06427077                0.04153994                0.20811881                0.07272502               -0.00117294                0.14054675
               7.99781375                2.00043244                6.01220475                0.01000001               -0.06471698                0.01894040                0.21187761                0.04864618                0.00140079                0.12413301
               8.99717058                2.00037193                6.01252245                0.06744964               -0.06377985               -0.04551706                0.21138048                0.01225289                0.00255743                0.03449767
               9.99653815                2.00031232                6.01281593                0.56066469               -0.06324292               -0.05677720                0.20834230                0.00870853                0.00044710                0.03252803
               0.00243189                3.00074141                6.01135980                0.50850951               -0.06770514               -0.06585290                0.21527746               -0.00048892               -0.00139816               -0.00242454
               1.00175484                3.00099068                6.01135144                0.01000000               -0.03441240               -0.06047122                0.22678183                0.00561489                0.02327573               -0.00933968
               2.00174364                3.00136552                6.01179201                0.01140647               -0.00780863               -0.04906342                0.22004332                0.04208145                0.03866031                0.03468478
               3.00159866                3.00173321                6.01214042                0.01000001               -0.02358986               -0.02523974                0.19409752                0.04120593                0.02681317                0.03231909
               4.00127184                3.00180006                6.01252713                0.01000000               -0.01284138                0.00201057                0.20907641                0.08105262                0.07897920                0.09821489
               5.00134184                3.00212742                6.01400252                0.01601022               -0.03362027                0.06605215                0.19590197                0.10876754                0.09728110                0.19189358
               6.00059944                3.00212934                6.01437837                0.01488756               -0.06597721                0.07307944                0.23775587                0.09723455                0.03780710                0.24323629
               7.00002229                3.00198952                6.01462707                0.01829961               -0.08710125                0.06810352                0.20741092                0.07107303                0.02924537                0.22876456
               7.99885741                3.00145246                6.01458694                0.01000000               -0.12761771                0.08991387                0.15044194                0.03380236               -0.07385915                0.19649123
               8.99746994                3.00009602                6.01309471                0.02409322               -0.10464523                0.15957918                0.16844126                0.04998541               -0.08091318                0.25673409
               9.99676451                2.99980487                6.01332915                0.52810398               -0.07054305                0.16007915                0.16611033                0.09281696               -0.00710333                0.23885124
               0.00215165                4.00011087                6.01147659                0.54924060               -0.06758516               -0.06154191                0.21418538               -0.00104897               -0.00079325                0.00024954
               1.00147580                4.00037556                6.01144146                0.01000000               -0.02085695               -0.06211008                0.22441178                0.00513620                0.03509035               -0.00262954
               2.00173451                4.00075664                6.01208193                0.01000001                0.00850139               -0.07304204                0.22397806               -0.00740515                0.05638496               -0.00652123
               3.00164582                4.00138030                6.01253990                0.01000000                0.00663385               -0.01821192                0.20944756                0.07622348                0.09158623                0.08361192
               4.00186719                4.00195653                6.01414449                0.01588144               -0.00238178               -0.00836545                0.20250714                0.07429549                0.13653174                0.14030585
               5.00159819                4.00214361                6.01509368                0.01436038               -0.03427138               -0.01256851                0.21977572                0.02939408                0.07300192                0.11374373
               6.00118176                4.00206850                6.01555548                0.01712017               -0.05174673               -0.01444654                0.21016607                0.02685791                0.03901970                0.11425580
               7.00056325                4.00187149                6.01559060                0.01000000               -0.03992332                0.00447302                0.17566470                0.06369837                0.03681885                0.12192966
               8.00038329                4.00223071                6.01635333                0.01929364               -0.03726877                0.06153745                0.21513250                0.17243650                0.10384087                0.13144862
               8.99981788                4.00356352                6.01734147                0.07481494               -0.07032578                0.13732916                0.23789129                0.18106769                0.04689269                0.19679689
               9.99897678                4.00351391                6.01737811                0.55640427               -0.08411021                0.15867002                0.23054471                0.10770992               -0.00338116                0.17546307
               0.00188152                4.99951057                6.01165137                0.60271775               -0.06697326               -0.05977787                0.21367924               -0.00135729               -0.00059132               -0.00023225
               1.00121179                4.99974848                6.01161185                0.03928388               -0.06453591               -0.06306382                0.22147599               -0.00474272                0.00705048                0.00094547
               2.00059080                4.99990468                6.01169027                0.01000000                0.03557264               -0.07506761                0.17740827                0.01009665                0.12574875               -0.02511560
               3.00192324                5.00136897                6.01401043                0.01601309                0.07018200               -0.03960752                0.19642815                0.09807820                0.17874088                0.09810642
               4.00199444                5.00163275                6.01508746                0.01436203               -0.00527454               -0.04081166                0.22017066                0.02498174                0.10672694                0.07491973
               5.00181775                5.00187605                6.01595853                0.01696161               -0.02928645               -0.03914527                0.25847748                0.01666578                0.07987351                0.08206858
               6.00140871                5.00184041                6.01629256                0.01000000               -0.03418502               -0.02688179                0.24138690                0.03132173                0.06808615                0.09970085
               7.00113405                5.00207898                6.01693799                0.02006659               -0.03972973               -0.00324682                0.23057062                0.07691862                0.04191593                0.08946563
               8.00061412                5.00268321                6.01675039                0.07738585               -0.06629745               -0.01567533                0.25027682                0.04290330               -0.01610738                0.01896517
               8.99980810                5.00284260                6.01660490                0.14552099               -0.07980976               -0.07756266                0.26577264                0.00641405               -0.00897516               -0.04974931
               9.99901792                5.00297827                6.01656998                0.59561521               -0.07901768               -0.06818876                0.26090649                0.00622623               -0.00278951               -0.06158660
               0.00164869                5.99891531                6.01185613                0.67101819               -0.06618557               -0.06001242                0.21364671               -0.00131841               -0.00043271               -0.00121116
               1.00098684                5.99911428                6.01182881                0.12826464               -0.06663741               -0.06368294                0.21873274               -0.00341628                0.00268885                0.00213849
               2.00031594                5.99925529                6.01183898                0.01000000                0.04462391               -0.06424324                0.20241485                0.05180009                0.13066826                0.00017166
               3.00187931                6.00058815                6.01435886                0.01489246                0.07718992               -0.06903366                0.23553896                0.07897095                0.22733286                0.03541615
               4.00185974                6.00114030                6.01549962                0.01712387               -0.00777356               -0.05945721                0.21019964                0.01811412                0.10500340                0.03734959
               5.00172384                6.00136070                6.01624503                0.01000000               -0.01272369               -0.04823469                0.24077148                0.02720835                0.09647280                0.06077151
               6.00160527                6.00153087                6.01707553                0.02040664               -0.02325106               -0.03822173                0.21094604                0.04302766                0.04812918                0.04242560
               7.00125882                6.00180655                6.01665143                0.07967181               -0.05637673               -0.04930510                0.22726596                0.01816491               -0.03473876               -0.01913391
               8.00047773                6.00191721                6.01616157                0.15445380               -0.08038609               -0.07795348                0.26379729               -0.00468164               -0.03176241               -0.03047480
               8.99965110                6.00201226                6.01592683                0.24820987               -0.08238898               -0.08344160                0.27794369               -0.00449267               -0.01091592               -0.03861043
               9.99882995                6.00215013                6.01583398                0.65486869               -0.08211459               -0.08528726                0.27360012               -0.00408782               -0.00356504               -0.04658823
               0.00145720                6.99831032                6.01208185                0.75659944               -0.06537177               -0.06126757                0.21373406               -0.00102274               -0.00026544               -0.00111578
               1.00080348                6.99847482                6.01207262                0.24421594               -0.06521294               -0.06411037                0.21657506               -0.00121501                0.00070921                0.00263910
               2.00015294                6.99861981                6.01206741                0.01445985                0.04070816               -0.06442567                0.20937784                0.06039084                0.12600034                0.00286589
               3.00161764                6.99998830                6.01456188                0.01830699                0.07156132               -0.08682661                0.20446823                0.05353796                0.20772955                0.02656736
               4.00158417                7.00044361                6.01548749                0.01000000                0.01768517               -0.05130027                0.17654037                0.05053024                0.10796610                0.02852214
               5.00197135                7.00091136                6.01672224                0.02007352                0.01196227               -0.05416530                0.22771482                0.07149737                0.08116926                0.02506252
               6.00182341                7.00107598                6.01649733                0.07968019               -0.04301714               -0.06144861                0.22612615                0.01720405               -0.01457306               -0.04462280
               7.00111101                7.00109287                6.01603901                0.15679627               -0.07543181               -0.07533002                0.25028143               -0.01145932               -0.02957242               -0.03791294
               8.00031478                7.00112414                6.01566982                0.26059221               -0.08128420               -0.08017523                0.27053169               -0.01120139               -0.02278564               -0.02431688
               8.99948532                7.00117377                6.01541467                0.39909335               -0.08271751               -0.08313214                0.27919550               -0.00715252               -0.00913495               -0.02147897
               9.99866043                7.00127253                6.01528559                0.74455402               -0.08248953               -0.08678676                0.27440180               -0.00435742               -0.00311649               -0.02439541
               0.00129925                7.99768996                6.01233079                0.86137322               -0.06462011               -0.06255577                0.21337260               -0.00074178               -0.00016557                0.00038776
               1.00065305                7.99783208                6.01233917                0.39416599               -0.06444854               -0.06412188                0.21486066               -0.00025824               -0.00013599                0.00368095
               2.00001028                7.99796677                6.01234172                0.01000001                0.02366163               -0.06496332                0.21315818                0.03762828                0.10828692                0.00516116
               3.00112628                7.99885161                6.01452121                0.01000000                0.09685060               -0.11822901                0.14813153                0.00523740                0.16798787               -0.05672362
               4.00194729                8.00011430                6.01605185                0.01930860                0.06975705               -0.05271042                0.21028228                0.15089182                0.10551514                0.07960972
               5.00252142                8.00027740                6.01632674                0.07741285               -0.00897279               -0.07122101                0.24630598                0.03628754                0.01193358               -0.02818239
               6.00176783                8.00030190                6.01588890                0.15450507               -0.07699769               -0.07945306                0.26094615               -0.00498304               -0.02414161               -0.03834756
               7.00098147                8.00029995                6.01553862                0.26066036               -0.07975106               -0.08073133                0.26898807               -0.01116119               -0.01888440               -0.02871101
               8.00017281                8.00031370                6.01526374                0.41232922               -0.08109000               -0.08103146                0.27345353               -0.01028432               -0.01265823               -0.01694290
               8.99935967                8.00034962                6.01505097                0.62874894               -0.08137631               -0.08098266                0.27319260               -0.00591898               -0.00418715               -0.00686336
               9.99854529                8.00041440                6.01491642                0.88481906               -0.08143806               -0.08298506                0.26738889               -0.00220515               -0.00206837               -0.00487759
               0.00115812                8.99705921                6.01260472                0.98443063               -0.06366249               -0.06298731                0.21162938               -0.00059401               -0.00000135                0.00127492
               1.00052150                8.99719238                6.01262957                0.58255524               -0.06360777               -0.06356100                0.21233420                0.00018960                0.00020815                0.00339069
               1.99988597                8.99732055                6.01265641                0.06745680               -0.04733140               -0.06409512                0.21262365                0.00940895                0.03354622                0.00492493
               2.99957487                8.99762372                6.01335077                0.02415034                0.16451260               -0.09700880                0.17064305                0.01147062                0.20539449               -0.06245439
               4.00317622                8.99938940                6.01674891                0.07487677                0.14673136               -0.07753482                0.23129519                0.14677988                0.14874345                0.03188837
               5.00250950                8.99948694                6.01612087                0.14561333               -0.07375137               -0.07798311                0.25971026                0.00331661               -0.04853810               -0.01190993
               6.00170119                8.99948691                6.01557058                0.24840157               -0.08167627               -0.08093243                0.27306299               -0.00471716               -0.03668934               -0.01400916
               7.00087597                8.99947825                6.01517992                0.39941495               -0.08208847               -0.08168268                0.27581263               -0.00705865               -0.02013519               -0.01206296
               8.00005942                8.99950351                6.01493306                0.62913371               -0.08048625               -0.08083166                0.27146817               -0.00585409               -0.00572993               -0.00653924
               8.99926625                8.99955411                6.01480296                0.98600159               -0.07863278               -0.07860824                0.26241768               -0.00317429                0.00118415                0.00017163
               9.99848677                8.99961283                6.01469095                0.99386036               -0.07794799               -0.07795693                0.25541859                0.00022265               -0.00003192                0.00287517
               0.00102102                9.99643021                6.01287209                0.99787529               -0.06255223               -0.06289968                0.20821659               -0.00064545               -0.00044762                0.00093292
               1.00039550                9.99656086                6.01290035                0.85057466               -0.06269538               -0.06315232                0.20872238                0.00013327               -0.00089180                0.00202125
               1.99976712                9.99668487                6.01292362                0.56067080               -0.05543306               -0.06356737                0.20929144                0.00564380                0.02887164                0.00171651
               2.99928684                9.99691144                6.01354944                0.52815273                0.16262769               -0.07122828                0.16740598                0.06513327                0.18845997               -0.00692437
               4.00301967                9.99856360                6.01677701                0.55646337                0.16016979               -0.08257983                0.22206986                0.07465975                0.12695749               -0.00433183
               5.00249024                9.99871773                6.01606178                0.59569165               -0.06687443               -0.07692038                0.25270283                0.00405617               -0.06429752               -0.00399736
               6.00168218                9.99868325                6.01543075                0.65502608               -0.08332715               -0.08036671                0.26669228               -0.00447285               -0.04925069               -0.00490612
               7.00082369                9.99866630                6.01498086                0.74483284               -0.08511587               -0.08119465                0.26910338               -0.00453680               -0.02771654               -0.00442055
               7.99997986                9.99869707                6.01470647                0.88521497               -0.08184114               -0.08064443                0.26384195               -0.00239825               -0.00846278               -0.00315791
               8.99918687                9.99877746                6.01457637                0.99386164               -0.07737741               -0.07766586                0.25365271               -0.00002835                0.00024063               -0.00088695
               9.99843232                9.99885526                6.01446793                0.99594993               -0.07545548               -0.07575669                0.24648474                0.00233511               -0.00113035                0.00055116
               0.00265480                0.00267754                7.01342016                0.77712266               -0.06377888               -0.06372813                0.20683964                0.00139866               -0.00172273               -0.00265326
               1.00201701                0.00271357                7.01353451                0.51599638               -0.06726513               -0.06384436                0.21246710               -0.00160806               -0.00740044               -0.00171948
               2.00130950                0.00269038                7.01354560                0.48187044               -0.07058687               -0.06570634                0.21671228               -0.00028846               -0.01031957               -0.00155149
               3.00060528                0.00256454                7.01357553                0.50829240               -0.06849111               -0.06613357                0.21706075               -0.00012953               -0.00562338               -0.00125995
               3.99993968                0.00238514                7.01369833                0.54942359               -0.06507265               -0.06616974                0.21608036               -0.00059130               -0.00035045               -0.00073605
               4.99930382                0.00220324                7.01388557                0.60307377               -0.06295201               -0.06588917                0.21535082               -0.00090091                0.00182788               -0.00045703
               5.99868064                0.00204863                7.01410959                0.67123761               -0.06235313               -0.06548619                0.21509279               -0.00095577                0.00253544               -0.00033830
               6.99805676                0.00193082                7.01435761                0.75637983               -0.06274299               -0.06505360                0.21500884               -0.00083134                0.00330063               -0.00035779
               7.99742578                0.00184446                7.01462676                0.86078235               -0.06338296               -0.06458572                0.21461968               -0.00062697                0.00454423               -0.00047478
               8.99678910                0.00177578                7.01491227                0.98658121               -0.06362635               -0.06400077                0.21331331               -0.00046077                0.00404534               -0.00026483
               9.99615325                0.00171139                7.01517187                1.00000000               -0.06358508               -0.06324923                0.21101246               -0.00036068                0.00285543                0.00091226
               0.00263275                1.00204026                7.01351768                0.51600650               -0.06382399               -0.06718396                0.21224369               -0.00157868               -0.00248525               -0.00860326
               1.00199451                1.00207513                7.01363800                0.01180239               -0.06258109               -0.06253416                0.21793254               -0.00634729               -0.00925077               -0.00749658
               2.00138113                1.00203331                7.01362316                0.01000000               -0.06189559               -0.05041239                0.22282787                0.00293782               -0.01842375               -0.00386528
               3.00075660                1.00190321                7.01359897                0.01000000               -0.06333584               -0.03181157                0.22365007                0.01299818               -0.01618474                0.01315480
               4.00011441                1.00172344                7.01367083                0.01000000               -0.06467662               -0.01975041                0.22224719                0.01170572               -0.00927930                0.02828378
               4.99946307                1.00154435                7.01381899                0.03712878               -0.06535616               -0.06273298                0.22023476               -0.00315937               -0.00437555               -0.01198056
               5.99880729                1.00139377                7.01401713                0.12587539               -0.06562691               -0.06613362                0.21834337               -0.00385756               -0.00138422               -0.00582327
               6.99815053                1.00128028                7.01424823                0.24129202               -0.06551315               -0.06513523                0.21677676               -0.00211370                0.00070392               -0.00353166
               7.99749703                1.00119860                7.01450504                0.39073725               -0.06497502               -0.06450914                0.21526320               -0.00085458                0.00250660               -0.00213088
               8.99685103                1.00113577                7.01478152                0.58319680               -0.06414970               -0.06389520                0.21316899               -0.00017012                0.00230236               -0.00023247
               9.99621403                1.00107890                7.01503862                0.85418383               -0.06369959               -0.06319616                0.21069167                0.00004894                0.00114803                0.00139225
               0.00255348                2.00133386                7.01350659                0.48189108               -0.06564714               -0.07054017                0.21617328               -0.00022069               -0.00153768               -0.01156479
               1.00189701                2.00146289                7.01362604                0.01000000               -0.05066506               -0.06167244                0.22280432                0.00319065               -0.00609329               -0.01579816
               2.00154018                2.00168213                7.01362989                0.01019263               -0.03609477               -0.03543816                0.22602791                0.04084572                0.00249586                0.00712411
               3.00117512                2.00192831                7.01388423                0.01090200               -0.05037664               -0.01113841                0.21031363                0.05206930                0.01288504                0.03260558
               4.00053265                2.00199013                7.01419881                0.01000001               -0.08024023                0.00308571                0.22557768                0.00310441               -0.03868471                0.04891808
               4.99957031                2.00094858                7.01350112                0.01000000               -0.08325470                0.02754423                0.20199249                0.02262434               -0.04002250                0.10749849
               5.99886755                2.00072596                7.01379906                0.01000000               -0.06803306                0.03058826                0.21240606                0.07537124                0.00467401                0.11841784
               6.99820965                2.00062812                7.01406422                0.01257952               -0.06571774                0.03824001                0.21460293                0.09224470                0.00210066                0.11666327
               7.99755320                2.00055428                7.01434273                0.01000000               -0.06521208                0.02193558                0.21461398                0.06699882                0.00372950                0.10080864
               8.99690541                2.00049788                7.01464834                0.06730950               -0.06426096               -0.04388023                0.21289440                0.01614723                0.00298445                0.01804917
               9.99626798                2.00044747                7.01491660                0.56213980               -0.06374274               -0.05759779                0.21065487                0.00842065                0.00081140                0.01778266
               0.00237028                3.00062945                7.01351916                0.50832630               -0.06602203               -0.06855877                0.21627630               -0.00002932               -0.00121793               -0.00670730
               1.00171005                3.00084168                7.01360229                0.01000000               -0.03188245               -0.06293215                0.22357939                0.01332414                0.01030428               -0.01373812
               2.00173263                3.00132455                7.01388950                0.01090286               -0.01100329               -0.04977083                0.21039126                0.05194749                0.02661390                0.01824636
               3.00148999                3.00168044                7.01427839                0.01000001               -0.02881977               -0.03046964                0.22839049                0.04218081                0.03955263                0.04705084
               4.00115623                3.00178515                7.01475448                0.01000000               -0.01551296                0.00048715                0.22721998                0.08728754                0.06624169                0.10620671
               5.00117973                3.00209524                7.01577557                0.01584793               -0.02605232                0.05529088                0.16547854                0.10835151                0.05017012                0.15811379
               6.00063518                3.00200553                7.01617672                0.01427898               -0.05063138                0.06800306                0.18195860                0.11622153                0.01490651                0.15495816
               7.00016710                3.00204508                7.01636042                0.01709292               -0.08339694                0.06668760                0.18644947                0.10623249               -0.00145926                0.14499942
               7.99896725                3.00163732                7.01628315                0.01000000               -0.14431569                0.09846561                0.18167693                0.05555831               -0.06834393                0.23280765
               8.99728079                3.00025817                7.01488738                0.02415908               -0.12419893                0.16561074                0.18665209                0.06029943               -0.07921517                0.26951741
               9.99648327                2.99992694                7.01511609                0.52938618               -0.07975217                0.16232511                0.18631860                0.10132541               -0.00482339                0.25047513
               0.00212844                3.99996268                7.01362321                0.54947633               -0.06600438               -0.06518905                0.21506074               -0.00048278               -0.00067907               -0.00157971
               1.00146840                4.00020425                7.01367320                0.01000000               -0.01940324               -0.06417255                0.22211222                0.01173778                0.02521854               -0.00697524
               2.00174037                4.00068671                7.01421637                0.01000001                0.00448668               -0.07819096                0.22661872                0.00046308                0.04232579               -0.02771867
               3.00155813                4.00131892                7.01477377                0.01000000                0.00616138               -0.02082750                0.22718699                0.08205538                0.09787716                0.07385076
               4.00186360                4.00199987                7.01624504                0.01627287               -0.00205825               -0.00935374                0.19413463                0.07147651                0.09058006                0.09795015
               5.00151696                4.00205440                7.01669048                0.01483740               -0.03107326               -0.00976048                0.15309724                0.03463708                0.04467610                0.08698804
               6.00124214                4.00208602                7.01721834                0.01740423               -0.04072246               -0.00467611                0.15699749                0.03895679                0.03549487                0.09029704
               7.00070251                4.00196187                7.01728570                0.01000000               -0.03954268                0.01065167                0.16801213                0.07902371                0.05940215                0.13259993
               8.00045128                4.00252359                7.01827761                0.01971501               -0.04403715                0.06636399                0.20725600                0.17762796                0.12797836                0.18169475
               8.99982177                4.00381009                7.01974837                0.07769350               -0.07471709                0.14153793                0.24391386                0.18740137                0.07690005                0.24656167
               9.99895694                4.00369397                7.01968372                0.55939493               -0.08648306                0.16242981                0.23366959                0.11796897               -0.00149223                0.22508127
               0.00187749                4.99932567                7.01379014                0.60315343               -0.06567102               -0.06302404                0.21409742               -0.00079603               -0.00039154                0.00045838
               1.00122078                4.99955823                7.01381879                0.03718027               -0.06251364               -0.06482771                0.22001619               -0.00190324               -0.01039914               -0.00222560
               2.00062722                4.99976073                7.01362663                0.01000000                0.02985790               -0.08120289                0.20281161                0.01469879                0.09904854               -0.02976334
               3.00181794                5.00126389                7.01579565                0.01585073                0.06115303               -0.03241513                0.16614017                0.09865327                0.14421097                0.05568677
               4.00185028                5.00159808                7.01668357                0.01483901               -0.00158057               -0.03766253                0.15308113                0.02927262                0.07925405                0.04863211
               5.00178633                5.00190003                7.01756277                0.01769350               -0.01717124               -0.02666320                0.15105447                0.02681960                0.06189185                0.06506716
               6.00150685                5.00191201                7.01793134                0.01000000               -0.02381620               -0.01465507                0.15711107                0.04636223                0.07101188                0.09442114
               7.00131000                5.00225812                7.01887347                0.02103410               -0.04176357                0.00552557                0.19897245                0.08629097                0.08379471                0.11098533
               8.00067158                5.00296460                7.01933045                0.07900989               -0.07257818               -0.01748017                0.26030571                0.04771270                0.02978129                0.05747880
               8.99985844                5.00308893                7.01926620                0.14983075               -0.07983459               -0.07711066                0.26456319                0.00704728                0.00171274               -0.02563879
               9.99907489                5.00317554                7.01915749                0.59939142               -0.07835487               -0.06574565                0.25719154                0.00817547                0.00008822               -0.03347020
               0.00164740                5.99870220                7.01399242                0.67135600               -0.06521314               -0.06230409                0.21360180               -0.00086234               -0.00025308                0.00102858
               1.00099527                5.99890769                7.01401289                0.12595543               -0.06593548               -0.06513518                0.21802650               -0.00291529               -0.00406036                0.00061848
               2.00032869                5.99906266                7.01394147                0.01000000                0.03492884               -0.06783894                0.21353238                0.06423003                0.10660519                0.00979295
               3.00169385                6.00067062                7.01616065                0.01428375                0.07421120               -0.05555992                0.18537866                0.09868526                0.13345033                0.01803865
               4.00181292                6.00124662                7.01716528                0.01740786                0.00227895               -0.04843090                0.15660860                0.03076565                0.08088764                0.03598698
               5.00173943                6.00152114                7.01788029                0.01000000               -0.00008133               -0.03865383                0.15679106                0.04225089                0.09105421                0.06540492
               6.00181129                6.00179292                7.01896904                0.02162199               -0.01818394               -0.03365777                0.19261660                0.05319918                0.07719977                0.07205602
               7.00137575                6.00207238                7.01909528                0.08151929               -0.06182803               -0.04778653                0.25036597                0.01617976                0.00787713                0.01604617
               8.00057473                6.00217399                7.01883743                0.15681881               -0.08119855               -0.07982080                0.26786255               -0.00131713               -0.00696539               -0.01942311
               8.99975178                6.00226788                7.01869050                0.25254892               -0.08137507               -0.08231988                0.27337336               -0.00137978               -0.00052201               -0.02578042
               9.99894723                6.00237905                7.01854141                0.65850159               -0.08045486               -0.08194263                0.26816568               -0.00184207                0.00080939               -0.03096864
               0.00144926                6.99807959                7.01421718                0.75655466               -0.06472403               -0.06251647                0.21327287               -0.00075829               -0.00022297                0.00162861
               1.00080202                6.99825553                7.01423857                0.24141397               -0.06501824               -0.06510506                0.21635372               -0.00162824               -0.00215792                0.00254632
               2.00014890                6.99840395                7.01421029                0.01258790                0.04028284               -0.06582816                0.21572248                0.07806492                0.10034398                0.00656275
               3.00160768                7.00015269                7.01628283                0.01710011                0.07330867               -0.08449865                0.18811221                0.08725428                0.12264244                0.00060194
               4.00161507                7.00062946                7.01717742                0.01000000                0.02386865               -0.05250177                0.16723206                0.06596800                0.11740225                0.05008679
               5.00208505                7.00112695                7.01863668                0.02104147                0.02022628               -0.05811609                0.19696617                0.07899012                0.10088796                0.06725103
               6.00201960                7.00123885                7.01892862                0.08152892               -0.04162624               -0.06746167                0.24905678                0.01485513                0.02012686               -0.00180723
               7.00125253                7.00130239                7.01864009                0.15944537               -0.07849269               -0.07850544                0.26170970               -0.00560013               -0.01083290               -0.01885842
               8.00044974                7.00136818                7.01838035                0.26279484               -0.08133749               -0.08061014                0.27022643               -0.00522598               -0.00661824               -0.01604084
               8.99962578                7.00144253                7.01818428                0.40164795               -0.08170245               -0.08199331                0.27424186               -0.00333455               -0.00150254               -0.01665850
               9.99881569                7.00153668                7.01800762                0.74703798               -0.08100836               -0.08374132                0.27022312               -0.00220504                0.00073208               -0.01820678
               0.00128036                7.99745187                7.01446121                0.86104053               -0.06420205               -0.06295058                0.21262970               -0.00058584               -0.00027283                0.00265350
               1.00063834                7.99760559                7.01448822                0.39092137               -0.06437678               -0.06466632                0.21472974               -0.00066715               -0.00109024                0.00415695
               1.99999283                7.99774609                7.01449164                0.01000000                0.02875410               -0.06540732                0.21571830                0.05409909                0.08196238                0.00787604
               3.00121342                7.99898064                7.01618236                0.01000000                0.10825947               -0.13353103                0.17869516                0.02115398                0.19804090               -0.04649773
               4.00215802                8.00019659                7.01793604                0.01973102                0.07482058               -0.06142092                0.20353272                0.15348569                0.15339092                0.10237948
               5.00270984                8.00035882                7.01886566                0.07903888               -0.01125309               -0.07830013                0.25611450                0.04016608                0.04938230                0.01758432
               6.00193295                8.00044368                7.01853543                0.15687206               -0.07877088               -0.08034437                0.26490864               -0.00168960               -0.01350500               -0.01352824
               7.00113442                8.00050227                7.01823370                0.26286251               -0.08014431               -0.08083707                0.26868694               -0.00522379               -0.01088641               -0.01243111
               8.00033007                8.00056178                7.01796646                0.41192662               -0.08089188               -0.08085939                0.27000870               -0.00505998               -0.00560478               -0.00975440
               8.99951658                8.00062801                7.01776654                0.62706511               -0.08076271               -0.08073851                0.27044820               -0.00292369               -0.00088845               -0.00652181
               9.99871481                8.00070423                7.01758622                0.88528379               -0.08017666               -0.08171248                0.26663188               -0.00123447                0.00088087               -0.00478308
               0.00113011                8.99682058                7.01471929                0.98696005               -0.06356472               -0.06300572                0.21105636               -0.00046156                0.00000506                0.00236683
               1.00049446                8.99696220                7.01475545                0.58347884               -0.06371384               -0.06390683                0.21252066               -0.00013953                0.00025164                0.00351492
               1.99985583                8.99709581                7.01479368                0.06732429               -0.04570971               -0.06451700                0.21393307                0.01280326                0.01689633                0.00557991
               2.99958026                8.99748207                7.01516616                0.02422125                0.17253913               -0.11538443                0.18901016                0.01703289                0.21289002               -0.05711878
               4.00330661                8.99940104                7.01908658                0.07776580                0.15305064               -0.08222628                0.23679641                0.14952354                0.19319643                0.06098580
               5.00264128                8.99956095                7.01872136                0.14992648               -0.07321313               -0.07805551                0.25853398                0.00371700               -0.02500940               -0.00124252
               6.00184235                8.99963197                7.01828597                0.25273427               -0.08056647               -0.07998675                0.26863906               -0.00169838               -0.02420565               -0.00363639
               7.00102995                8.99968565                7.01791633                0.40194942               -0.08097735               -0.08072887                0.27100015               -0.00329977               -0.01548121               -0.00442564
               8.00022280                8.99975099                7.01763174                0.62741970               -0.08025443               -0.08025687                0.26880136               -0.00288726               -0.00545909               -0.00320644
               8.99942486                8.99982776                7.01744908                0.98560798               -0.07921172               -0.07919569                0.26423809               -0.00143744                0.00029066               -0.00070134
               9.99863857                8.99990243                7.01728188                0.99444716               -0.07862915               -0.07867927                0.25964880                0.00009729                0.00072175                0.00154287
               0.00098789                9.99619176                7.01495853                1.00000000               -0.06275646               -0.06288202                0.20855003               -0.00065199               -0.00017356                0.00149440
               1.00036032                9.99632746                7.01499651                0.85436128               -0.06294322               -0.06347445                0.20986920               -0.00021376               -0.00035758                0.00203322
               1.99972902                9.99645575                7.01503267                0.56215101               -0.05557386               -0.06400542                0.21139626                0.00459439                0.01328469                0.00217908
               2.99924885                9.99667295                7.01534765                0.52944035                0.16702931               -0.08091155                0.18751402                0.07167362                0.19329285               -0.00449187
               4.00306961                9.99855206                7.01900049                0.55946414                0.16522032               -0.08489822                0.22541817                0.08253740                0.17007966               -0.00239380
               5.00255325                9.99879770                7.01857030                0.59946951               -0.06476609               -0.07632421                0.24951335                0.00579190               -0.03709817               -0.00104116
               6.00177429                9.99884395                7.01807145                0.65865075               -0.08019277               -0.07880194                0.26170804               -0.00230666               -0.03391526               -0.00053690
               7.00094940                9.99888769                7.01765171                0.74729547               -0.08220383               -0.07979531                0.26526857               -0.00242000               -0.02159507               -0.00059777
               8.00013021                9.99895665                7.01734187                0.88564619               -0.08065038               -0.07943447                0.26329611               -0.00143881               -0.00835440               -0.00022056
               8.99933639                9.99904410                7.01715001                0.99444847               -0.07814027               -0.07836609                0.25797758               -0.00014714               -0.00107147               -0.00014118
               9.99856741                9.99913064                7.01698393                0.99700362               -0.07689834               -0.07717918                0.25320319                0.00153851               -0.00075880                0.00090585
               0.00249814                0.00252891                8.01550965                0.77935213               -0.06419686               -0.06415073                0.21042821                0.00059810               -0.00138702               -0.00243070
               1.00185618                0.00256995                8.01566362                0.51767449               -0.06675920               -0.06390244                0.21331886               -0.00106122               -0.00698036               -0.00122112
               2.00116296                0.00257155                8.01571282                0.48158389               -0.06987294               -0.06484367                0.21665230               -0.00018920               -0.01149885               -0.00104760
               3.00045872                0.00249836                8.01574926                0.50767622               -0.06927355               -0.06517599                0.21749552                0.00010817               -0.00790945               -0.00100275
               3.99977749                0.00237610                8.01586279                0.54894355               -0.06689640               -0.06526729                0.21671459               -0.00021658               -0.00181581               -0.00059941
               4.99912079                0.00224185                8.01604091                0.60274040               -0.06490988               -0.06511908                0.21573989               -0.00049005                0.00188238               -0.00034140
               5.99847929                0.00212181                8.01625983                0.67090087               -0.06387581               -0.06487671                0.21505390               -0.00060205                0.00374414               -0.00024851
               6.99784327                0.00202744                8.01650463                0.75590010               -0.06361820               -0.06459585                0.21454412               -0.00058157                0.00496802               -0.00033031
               7.99720693                0.00195776                8.01676831                0.86056038               -0.06365845               -0.06426872                0.21384454               -0.00049782                0.00589721               -0.00046110
               8.99657010                0.00190365                8.01704081                0.98904711               -0.06355529               -0.06380129                0.21250996               -0.00038958                0.00468300               -0.00031720
               9.99593582                0.00185571                8.01728044                1.00000000               -0.06342819               -0.06321890                0.21069813               -0.00038734                0.00317164                0.00110152
               0.00246308                1.00188740                8.01564465                0.51768400               -0.06388431               -0.06668784                0.21311156               -0.00103906               -0.00206943               -0.00833994
               1.00182424                1.00193092                8.01580443                0.01111280               -0.06331097               -0.06326088                0.21595554               -0.00390078               -0.00876832               -0.00684288
               2.00119686                1.00192312                8.01583227                0.01000000               -0.06333579               -0.04787522                0.21961775                0.00899259               -0.01847040               -0.00354224
               3.00055752                1.00184660                8.01582060                0.01000000               -0.06466439               -0.03202871                0.22107277                0.01433137               -0.01789850                0.00485736
               3.99990358                1.00172343                8.01588291                0.01373224               -0.06572464               -0.02825350                0.22045805                0.01081666               -0.01159669                0.03378118
               4.99924303                1.00159066                8.01601480                0.03463730               -0.06615488               -0.06129483                0.21910346               -0.00098755               -0.00625004               -0.01849449
               5.99858048                1.00147305                8.01619699                0.12321533               -0.06617737               -0.06530685                0.21768425               -0.00294655               -0.00242994               -0.00865674
               6.99791948                1.00138148                8.01641380                0.23829796               -0.06583188               -0.06484707                0.21635139               -0.00189957                0.00035779               -0.00485437
               7.99726384                1.00131507                8.01665611                0.38793323               -0.06511275               -0.06436282                0.21493519               -0.00092731                0.00228666               -0.00254558
               8.99661723                1.00126564                8.01691274                0.58432695               -0.06419776               -0.06382948                0.21300641               -0.00026283                0.00197296               -0.00036439
               9.99597989                1.00122353                8.01714827                0.85717583               -0.06373436               -0.06326034                0.21105607               -0.00011033                0.00091878                0.00178027
               0.00239031                2.00119515                8.01566864                0.48160361               -0.06478704               -0.06983760                0.21615413               -0.00013265               -0.00103964               -0.01291124
               1.00174244                2.00130473                8.01583480                0.01000000               -0.04815873               -0.06310857                0.21957488                0.00926190               -0.00599866               -0.01560004
               2.00142714                2.00161405                8.01588914                0.01000001               -0.03987053               -0.03895775                0.23236810                0.04780033               -0.00584773               -0.00068054
               3.00094503                2.00185778                8.01599469                0.01000001               -0.05886901               -0.00309502                0.22464678                0.05820982                0.01280075                0.03562535
               4.00024976                2.00181103                8.01657694                0.01000001               -0.07968068                0.00772667                0.20948159                0.01770469               -0.03686010                0.05150631
               4.99935142                2.00101595                8.01561394                0.01000000               -0.08101078                0.02548393                0.21295356                0.03423041               -0.05231010                0.07098500
               5.99862954                2.00081568                8.01595665                0.01875528               -0.06940814                0.01680858                0.21684161                0.07233850                0.00675055                0.09833265
               6.99796326                2.00073049                8.01622539                0.01014904               -0.06626622                0.01432761                0.21680274                0.09110125                0.00266778                0.10633758
               7.99730422                2.00067050                8.01649703                0.01000000               -0.06534322                0.04293341                0.21572593                0.07981542                0.00334623                0.08924823
               8.99665639                2.00062706                8.01678034                0.06612692               -0.06431883               -0.04396540                0.21334612                0.01777326                0.00226438                0.00837910
               9.99601784                2.00059051                8.01702903                0.56262996               -0.06385498               -0.05881339                0.21157123                0.00788068                0.00045895                0.00960700
               0.00224127                3.00049065                8.01568532                0.50770901               -0.06506885               -0.06934321                0.21676363                0.00019868               -0.00096064               -0.00912019
               1.00159058                3.00066875                8.01582303                0.01000000               -0.03207244               -0.06425900                0.22096874                0.01489360                0.00171379               -0.01523747
               2.00159982                3.00114396                8.01599983                0.01000001               -0.00329203               -0.05744573                0.22460650                0.05846331                0.02899226                0.01963536
               3.00152474                3.00178470                8.01670823                0.01300311               -0.02501605               -0.02588687                0.21744075                0.06818352                0.05043933                0.05802491
               4.00109950                3.00187796                8.01707153                0.01000000               -0.03008725                0.00877079                0.21392571                0.09139767                0.02274286                0.08038456
               5.00092299                3.00210034                8.01731209                0.01439021               -0.03933948                0.05401069                0.17927988                0.10491217                0.02192456                0.12686812
               6.00031271                3.00180922                8.01801755                0.01248414               -0.05181551                0.06520730                0.13630562                0.11172950                0.01477359                0.09899923
               6.99988668                3.00166803                8.01835606                0.01492199               -0.06745640                0.06399758                0.15583199                0.15466475               -0.03120153                0.08397981
               7.99896358                3.00217374                8.01822047                0.01000000               -0.14169980                0.10734036                0.24952692                0.09471334               -0.10806046                0.22559081
               8.99705269                3.00038633                8.01682775                0.02282994               -0.13764860                0.17444325                0.20100222                0.05834468               -0.08201982                0.28311430
               9.99621061                3.00004726                8.01705552                0.52942482               -0.08420793                0.16918151                0.19842261                0.11901208               -0.00373050                0.26308532
               0.00203808                3.99980829                8.01577781                0.54899471               -0.06510751               -0.06700599                0.21575752               -0.00011739               -0.00054013               -0.00316360
               1.00138700                4.00001955                8.01588371                0.01373558               -0.02788076               -0.06522374                0.22028185                0.01167915                0.03137512               -0.00910728
               2.00148046                4.00046513                8.01661431                0.01000001                0.00938507               -0.07798249                0.21076011                0.01577927                0.04357304               -0.02513195
               3.00157470                4.00134005                8.01708364                0.01000000                0.01408041               -0.03444368                0.21370311                0.08735478                0.07024567                0.03164430
               4.00176207                4.00198645                8.01802718                0.01509656               -0.00281490               -0.00964049                0.16117032                0.07345172                0.04382389                0.05341469
               5.00151841                4.00209617                8.01815562                0.01365683               -0.02328138               -0.00563776                0.15256635                0.05090954                0.03522522                0.08996656
               6.00129644                4.00211982                8.01869543                0.01616934               -0.04131877                0.00844599                0.16359229                0.05599078                0.04525446                0.07566140
               7.00069203                4.00201045                8.01895085                0.01000000               -0.04081294                0.04105354                0.18630698                0.11108213                0.08890548                0.13884352
               8.00048018                4.00281731                8.02049845                0.01905088               -0.03711317                0.05496127                0.22952674                0.19794568                0.16814443                0.21874810
               8.99994977                4.00411593                8.02221975                0.07893238               -0.07019767                0.15006799                0.24959452                0.20597272                0.09569624                0.28597770
               9.99907623                4.00397414                8.02205150                0.56095930               -0.08735363                0.17019617                0.24038251                0.13714603                0.00083893                0.26459936
               0.00181639                4.99915053                8.01593332                0.60281766               -0.06490752               -0.06497218                0.21455752               -0.00039426               -0.00027167                0.00039335
               1.00116731                4.99936428                8.01601218                0.03469023               -0.06107393               -0.06563357                0.21884129                0.00016793               -0.01691903               -0.00394006
               2.00059491                4.99958431                8.01574651                0.01000000                0.02916041               -0.07988218                0.21352994                0.02756836                0.06173396               -0.04215497
               3.00175052                5.00109582                8.01733323                0.01439293                0.06087495               -0.04391507                0.17969078                0.09253254                0.11041782                0.03321292
               4.00181241                5.00168515                8.01814908                0.01365839                0.00286433               -0.03101275                0.15249254                0.04437718                0.08008428                0.04090593
               5.00180781                5.00198758                8.01897961                0.01675471               -0.01470816               -0.02506410                0.15341617                0.02578747                0.06864862                0.07277907
               6.00151825                5.00197814                8.01943478                0.01000000               -0.01984846               -0.00725531                0.16290295                0.05696771                0.09852990                0.12075103
               7.00141084                5.00248910                8.02091744                0.02078175               -0.03506172                0.01752033                0.21554469                0.10753824                0.13743794                0.16109902
               8.00081701                5.00327296                8.02195651                0.07969282               -0.06977634               -0.01692309                0.26215983                0.05808040                0.06702928                0.08296868
               9.00001531                5.00338769                8.02189616                0.15303318               -0.07899519               -0.07686767                0.26136332                0.00825681                0.00730844               -0.00960033
               9.99923711                5.00345118                8.02171381                0.60216617               -0.07782047               -0.06467573                0.25519382                0.00975412                0.00161155               -0.01217972
               0.00160269                5.99850884                8.01612816                0.67101558               -0.06461144               -0.06382112                0.21364206               -0.00051725               -0.00015667                0.00211072
               1.00095658                5.99870688                8.01618934                0.12329644               -0.06512034               -0.06569339                0.21732517               -0.00207252               -0.00674214               -0.00028355
               2.00030029                5.99886749                8.01610963                0.01876086                0.01839688               -0.06917056                0.21782420                0.06377553                0.08885339                0.01243141
               3.00132452                6.00046174                8.01806643                0.01248877                0.07287842               -0.05585951                0.14162246                0.09257712                0.07372418                0.02330637
               4.00175785                6.00136619                8.01863179                0.01617288                0.02083269               -0.05052841                0.16226170                0.04495465                0.06166618                0.04664601
               5.00174117                6.00159489                8.01938085                0.01000000                0.00882136               -0.03582850                0.16240183                0.05193115                0.11674146                0.09242339
               6.00193428                6.00197472                8.02092786                0.02155334               -0.00966002               -0.02523495                0.20628028                0.07351274                0.12776526                0.12246994
               7.00154797                6.00236085                8.02165875                0.08213370               -0.05955397               -0.04559065                0.25787180                0.02679545                0.04865369                0.04824584
               8.00074320                6.00247885                8.02151882                0.15825652               -0.08056411               -0.07993340                0.26664868                0.00194680                0.00621656               -0.01210209
               8.99993669                6.00257857                8.02139429                0.25626537               -0.07994345               -0.08115663                0.26782702                0.00072281                0.00493849               -0.01697651
               9.99914433                6.00268062                8.02119729                0.66157081               -0.07923539               -0.07937997                0.26399273               -0.00023166                0.00236361               -0.01859576
               0.00140997                6.99787411                8.01634730                0.75606941               -0.06427537               -0.06339640                0.21289674               -0.00051585               -0.00018498                0.00315947
               1.00076722                6.99805041                8.01639969                0.23842084               -0.06472058               -0.06542751                0.21588910               -0.00144844               -0.00334926                0.00233516
               2.00011556                6.99820090                8.01638186                0.01015722                0.01680743               -0.06632952                0.21776524                0.07916631                0.09129216                0.00749597
               3.00110336                6.99997863                8.01832413                0.01492898                0.07314014               -0.07117101                0.15960894                0.13959335                0.05871626               -0.02868889
               4.00157836                7.00067458                8.01883213                0.01000000                0.05672717               -0.05567333                0.18512451                0.09331673                0.11747842                0.08037857
               5.00223791                7.00127101                8.02066156                0.02078909                0.03220874               -0.05252403                0.21343479                0.09836803                0.14926613                0.11949499
               6.00222254                7.00147344                8.02147846                0.08214376               -0.03976449               -0.06503700                0.25649118                0.02508451                0.05173337                0.03905974
               7.00144262                7.00157729                8.02127321                0.16062597               -0.07921545               -0.07928799                0.26333307               -0.00072036                0.00016943               -0.00768954
               8.00063823                7.00167430                8.02107435                0.26405768               -0.08073125               -0.08058114                0.26812884               -0.00140293                0.00195868               -0.01046477
               8.99982799                7.00176456                8.02089950                0.40422435               -0.08049246               -0.08120950                0.26955450               -0.00126275                0.00271568               -0.01277032
               9.99902838                7.00186358                8.02069005                0.74942581               -0.07996158               -0.08180721                0.26703368               -0.00113659                0.00188999               -0.01268493
               0.00123977                7.99724091                8.01658338                0.86081073               -0.06389513               -0.06324409                0.21195378               -0.00046149               -0.00024233                0.00385886
               1.00060081                7.99739833                8.01663376                0.38811928               -0.06421881               -0.06480102                0.21436461               -0.00075434               -0.00139551                0.00406588
               1.99995539                7.99754090                8.01665608                0.01000000                0.05209429               -0.06548932                0.21665554                0.06688094                0.06808095                0.00782503
               3.00164270                7.99903832                8.01809511                0.01000000                0.11882092               -0.13312886                0.25225757                0.05741183                0.18052419               -0.07904817
               4.00233181                8.00025272                8.02012251                0.01906715                0.06334872               -0.05649615                0.22643620                0.17063390                0.18715720                0.14069984
               5.00290967                8.00054441                8.02144903                0.07972223               -0.01010551               -0.07567836                0.25791454                0.04966298                0.07354815                0.05433256
               6.00212970                8.00067398                8.02118707                0.15830943               -0.07884852               -0.07976347                0.26369794                0.00151276               -0.00640687               -0.00037126
               7.00133270                8.00077509                8.02091236                0.26412307               -0.08009130               -0.08027848                0.26661713               -0.00143934               -0.00544006               -0.00380757
               8.00052787                8.00086722                8.02066391                0.41188470               -0.08052789               -0.08051565                0.26842389               -0.00207190               -0.00158577               -0.00567762
               8.99972215                8.00095438                8.02045993                0.62674956               -0.08021591               -0.08039706                0.26808344               -0.00144097                0.00107120               -0.00601240
               9.99892355                8.00104448                8.02024905                0.88598134               -0.07985926               -0.08088051                0.26576859               -0.00062944                0.00112760               -0.00426865
               0.00108591                8.99660922                8.01682585                0.98941634               -0.06337658               -0.06296426                0.21036415               -0.00039210               -0.00001737                0.00288127
               1.00045214                8.99675439                8.01687998                0.58461527               -0.06363628               -0.06394622                0.21232068               -0.00023560                0.00018868                0.00328101
               1.99981318                8.99689111                8.01693507                0.06614850               -0.04561831               -0.06452074                0.21419426                0.01439742                0.00727995                0.00505313
               2.99953978                8.99731606                8.01713097                0.02289402                0.18358868               -0.12898451                0.20336042                0.00978606                0.22112361               -0.05672194
               4.00348496                8.99954466                8.02148484                0.07901146                0.16350697               -0.07824124                0.24232299                0.16540968                0.22716859                0.07822947
               5.00280992                8.99975745                8.02129155                0.15313046               -0.07314265               -0.07726911                0.25548418                0.00505754               -0.00917545                0.00426030
               6.00202210                8.99987817                8.02094336                0.25644349               -0.07946666               -0.07862079                0.26328987                0.00035188               -0.01559436                0.00179765
               7.00122058                8.99997172                8.02059992                0.40450643               -0.08023035               -0.07957535                0.26647001               -0.00127594               -0.01168588               -0.00020887
               8.00041750                9.00006398                8.02030909                0.62707576               -0.07993321               -0.07974120                0.26652393               -0.00142473               -0.00498415               -0.00123151
               8.99962192                9.00015662                8.02008772                0.98338287               -0.07909490               -0.07908100                0.26362548               -0.00083886               -0.00033361               -0.00131359
               9.99883560                9.00024597                8.01988392                0.99396864               -0.07863200               -0.07876001                0.26089959                0.00022311                0.00046079                0.00050603
               0.00094159                9.99598163                8.01704309                1.00000000               -0.06273787               -0.06275947                0.20835226               -0.00065421               -0.00005473                0.00171904
               1.00031421                9.99611941                8.01709773                0.85735835               -0.06299591               -0.06349846                0.21019750               -0.00035032               -0.00007582                0.00186809
               1.99968167                9.99625049                8.01715154                0.56264578               -0.05646684               -0.06406285                0.21213255                0.00381027                0.00452522                0.00190489
               2.99918488                9.99645863                8.01729972                0.52948180                0.17584692               -0.08574221                0.19988015                0.08638051                0.19912759               -0.00311717
               4.00319861                9.99868790                8.02128538                0.56103560                0.17462204               -0.08567600                0.23198955                0.09838486                0.20323468               -0.00017748
               5.00267732                9.99899902                8.02105205                0.60224561               -0.06380734               -0.07584226                0.24788555                0.00742294               -0.01648860                0.00050560
               6.00192246                9.99910156                8.02066491                0.66171317               -0.07779725               -0.07766088                0.25792475               -0.00073591               -0.02183592                0.00103502
               7.00112137                9.99918359                8.02028623                0.74966514               -0.08039933               -0.07881318                0.26238492               -0.00137925               -0.01617604                0.00057156
               8.00031448                9.99927240                8.01997240                0.88631346               -0.07989953               -0.07915830                0.26263730               -0.00084306               -0.00785560                0.00003616
               8.99952338                9.99937276                8.01973592                0.99396993               -0.07825856               -0.07838528                0.25933563               -0.00000995               -0.00209279               -0.00039222
               9.99874931                9.99946928                8.01953200                0.99744625               -0.07740741               -0.07766927                0.25652306                0.00102217               -0.00106497                0.00058422
               0.00231912                0.00235893                9.01762873                0.78107826               -0.06448831               -0.06444612                0.21292530                0.00012846               -0.00099331               -0.00213470
               1.00167424                0.00240753                9.01780089                0.51920249               -0.06626155               -0.06404393                0.21409881               -0.00069061               -0.00596485               -0.00078276
               2.00099389                0.00243053                9.01787865                0.48142039               -0.06885599               -0.06443840                0.21651713               -0.00012010               -0.01107548               -0.00067883
               3.00029712                0.00240180                9.01792544                0.50696390               -0.06910862               -0.06468717                0.21761783                0.00020621               -0.00875393               -0.00075965
               3.99961171                0.00233291                9.01803263                0.54813851               -0.06763395               -0.06479895                0.21713144               -0.00000176               -0.00283451               -0.00047879
               4.99894444                0.00224862                9.01820037                0.60198605               -0.06599584               -0.06471954                0.21611423               -0.00022289                0.00157574               -0.00027083
               5.99829180                0.00216934                9.01841067                0.67019121               -0.06483998               -0.06455267                0.21515508               -0.00034883                0.00420718               -0.00020481
               6.99764764                0.00210586                9.01864850                0.75527109               -0.06421284               -0.06434301                0.21430955               -0.00039191                0.00578449               -0.00030415
               7.99700754                0.00205964                9.01890365                0.86051902               -0.06385012               -0.06406696                0.21331973               -0.00038576                0.00652261               -0.00043744
               8.99637063                0.00202558                9.01916247                0.99138898               -0.06350611               -0.06366234                0.21191981               -0.00032372                0.00492443               -0.00034759
               9.99573742                0.00199777                9.01938583                0.99641933               -0.06332153               -0.06318539                0.21039430               -0.00038730                0.00324637                0.00126534
               0.00227180                1.00171446                9.01777991                0.51921156               -0.06402711               -0.06619840                0.21390441               -0.00067477               -0.00170111               -0.00746089
               1.00163153                1.00176709                9.01795711                0.01188248               -0.06381224               -0.06376181                0.21499362               -0.00230089               -0.00780488               -0.00573559
               2.00099555                1.00178615                9.01801552                0.01000000               -0.06417695               -0.04647863                0.21754415                0.01286450               -0.01715052                0.00584313
               3.00034799                1.00175493                9.01802042                0.01000000               -0.06536347               -0.03243015                0.21923115                0.01724982               -0.01774504                0.01268789
               3.99968828                1.00168492                9.01807999                0.01201866               -0.06619972               -0.02506364                0.21917305                0.02054915               -0.01234817                0.01292747
               4.99902399                1.00160143                9.01820105                0.03226284               -0.06642967               -0.05888170                0.21827313                0.00194257               -0.00707022               -0.02204652
               5.99835969                1.00152381                9.01837081                0.12067245               -0.06627144               -0.06486433                0.21713340               -0.00198412               -0.00296071               -0.00970950
               6.99769856                1.00146243                9.01857526                0.23563137               -0.06579316               -0.06466249                0.21593347               -0.00149258                0.00005469               -0.00518717
               7.99704383                1.00141898                9.01880374                0.38583994               -0.06501148               -0.06423816                0.21454734               -0.00079227                0.00188456               -0.00259160
               8.99639833                1.00138895                9.01904165                0.58566226               -0.06412366               -0.06375655                0.21273041               -0.00024977                0.00151284               -0.00049776
               9.99576135                1.00136592                9.01925974                0.85962953               -0.06369811               -0.06327083                0.21110813               -0.00018572                0.00058887                0.00203112
               0.00220037                2.00103496                9.01782968                0.48143928               -0.06438335               -0.06882892                0.21605422               -0.00007337               -0.00067594               -0.01263575
               1.00155654                2.00113229                9.01801754                0.01000000               -0.04685128               -0.06395320                0.21748740                0.01321492                0.00319386               -0.01407360
               2.00126334                2.00150096                9.01827725                0.01000001               -0.04065987               -0.03970244                0.22949051                0.05263096                0.00051175                0.00592374
               3.00074334                2.00175319                9.01837717                0.01000000               -0.05435744               -0.00014700                0.23144654                0.07048831               -0.00800135                0.02410006
               4.00017619                2.00183164                9.01838844                0.01225167               -0.07994706                0.01288387                0.18850955                0.03183670               -0.04069592                0.05640307
               4.99914440                2.00107099                9.01776019                0.01000000               -0.08925416                0.02447425                0.21631527                0.03443140               -0.03374841                0.06197201
               5.99839111                2.00087205                9.01813589                0.01686983               -0.07108874               -0.01385370                0.21851256                0.06343130                0.00821434                0.03108767
               6.99772262                2.00081261                9.01840028                0.01000000               -0.06629677               -0.02316041                0.21758040                0.07722046                0.00231854                0.05246107
               7.99706518                2.00077488                9.01865725                0.01684124               -0.06519615                0.03643676                0.21589798                0.06141743                0.00224911                0.13330254
               8.99641870                2.00075045                9.01891526                0.06477004               -0.06426973               -0.04539558                0.21341489                0.01822412                0.00121859                0.00519208
               9.99577978                2.00073235                9.01914803                0.56272050               -0.06389175               -0.05998712                0.21192495                0.00777882               -0.00001075                0.00514630
               0.00207566                3.00033789                9.01785443                0.50699559               -0.06458319               -0.06917718                0.21693228                0.00028734               -0.00071619               -0.01008013
               1.00142982                3.00048803                9.01802166                0.01000000               -0.03241921               -0.06496702                0.21910241                0.01785370                0.00927727               -0.01489784
               2.00142727                3.00099210                9.01838163                0.01000000               -0.00013749               -0.05317798                0.23144252                0.07062603                0.01687656               -0.00091635
               3.00142707                3.00175199                9.01862720                0.01169938               -0.02100255               -0.02131981                0.20560425                0.08786627                0.02255632                0.03044824
               4.00100722                3.00194260                9.01903299                0.01000001               -0.03774340                0.00794881                0.18896782                0.09154141                0.02978628                0.05951788
               5.00067221                3.00209091                9.01936116                0.01254279               -0.05602642                0.05576103                0.18898720                0.08564843               -0.02208216                0.08929577
               5.99988669                3.00124674                9.01890284                0.01039603               -0.06660313                0.06549788                0.14425207                0.09346003               -0.02001165                0.09774338
               6.99934014                3.00099923                9.01947706                0.01262635               -0.07761748                0.06823709                0.15992893                0.19279739                0.07415342                0.10709685
               7.99833434                3.00214771                9.02127368                0.01000001               -0.12673990                0.11938201                0.27468152                0.14809543               -0.04635741                0.27948750
               8.99680535                3.00048104                9.01890742                0.02107295               -0.11906133                0.18553924                0.21195040                0.08912058               -0.13119545                0.30447382
               9.99595312                3.00016617                9.01908454                0.52894240               -0.08522293                0.17976562                0.20551467                0.14503478               -0.00495072                0.27714788
               0.00190583                3.99965141                9.01793836                0.54818812               -0.06464352               -0.06773523                0.21622953                0.00008865               -0.00041548               -0.00429218
               1.00125940                3.99983295                9.01807884                0.01202192               -0.02469637               -0.06571176                0.21896581                0.02126872                0.01054493               -0.00969111
               2.00141191                4.00043740                9.01843158                0.01225366                0.01453827               -0.07848928                0.18823187                0.03037059                0.04853116               -0.02954627
               3.00155016                4.00132680                9.01904783                0.01000001                0.01280945               -0.04033160                0.18970976                0.08749288                0.04811818                0.03869834
               4.00166809                4.00199061                9.01946844                0.01331845                0.00015313               -0.00655042                0.17350408                0.08288869                0.03367097                0.04414675
               5.00155323                4.00218621                9.01974181                0.01180004               -0.01580469                0.00197337                0.17569781                0.06963954                0.05171786                0.07290561
               6.00135200                4.00218201                9.02049019                0.01430744               -0.04378142                0.04239302                0.20245637                0.08220394                0.07584503                0.12722094
               7.00067760                4.00217736                9.02101183                0.01000000               -0.04033666                0.08864861                0.23450810                0.15887031                0.11457911                0.20949520
               8.00054527                4.00316252                9.02286814                0.01787145               -0.02474748                0.07279463                0.26904793                0.24914877                0.20595978                0.21879109
               9.00018265                4.00446123                9.02474026                0.07912763               -0.06175262                0.16206666                0.25312192                0.23035502                0.10777986                0.31362143
               9.99931022                4.00432766                9.02449137                0.56162020               -0.08724325                0.18099895                0.24670070                0.16257900                0.00251608                0.29662984
               0.00171435                4.99898318                9.01808130                0.60206103               -0.06451347               -0.06604889                0.21499505               -0.00013527               -0.00019552               -0.00002518
               1.00106921                4.99917379                9.01819562                0.03231643               -0.05867546               -0.06592243                0.21797771                0.00293487               -0.02053470               -0.00460995
               2.00054084                4.99942231                9.01789723                0.01000000                0.02772513               -0.08807352                0.21672564                0.02941653                0.05247185               -0.02305888
               3.00162372                5.00094535                9.01938947                0.01254543                0.06323710               -0.05904749                0.18957935                0.07426391                0.07053969               -0.00927737
               4.00180558                5.00181159                9.01973342                0.01180156                0.01249422               -0.02470601                0.17558551                0.06243773                0.06131332                0.05726976
               5.00187360                5.00213038                9.02063109                0.01504835               -0.01329775               -0.02492777                0.18604863                0.02539863                0.08166869                0.08649125
               6.00153963                5.00209460                9.02118940                0.01000000               -0.01682819                0.00083119                0.20333615                0.06892555                0.13517991                0.14997582
               7.00153704                5.00277220                9.02318436                0.01981980               -0.02530919                0.02520858                0.24310993                0.12946332                0.18425444                0.19301318
               8.00103344                5.00360360                9.02457364                0.07968561               -0.06448674               -0.01742097                0.26045545                0.06842117                0.08903502                0.09912101
               9.00024730                5.00372238                9.02449346                0.15519212               -0.07808078               -0.07681119                0.25844834                0.00859875                0.00949556               -0.00009669
               9.99947183                5.00378615                9.02426136                0.60411170               -0.07754751               -0.06483833                0.25484635                0.01029199                0.00209139                0.00178842
               0.00152191                5.99833044                9.01826526                0.67030256               -0.06429415               -0.06478110                0.21381463               -0.00027149               -0.00010593                0.00245593
               1.00087896                5.99851451                9.01835939                0.12075402               -0.06466156               -0.06579904                0.21674122               -0.00116236               -0.00764217               -0.00067614
               2.00022867                5.99867593                9.01829796                0.01687530               -0.01164002               -0.07074481                0.21936235                0.05704041                0.02288994                0.01449814
               3.00064616                6.00014585                9.01899310                0.01040054                0.07515734               -0.06975631                0.14728061                0.07642907                0.07305409               -0.01203570
               4.00173182                6.00149649                9.02041051                0.01431088                0.05660128               -0.05326362                0.20086615                0.06817135                0.10910307                0.07717747
               5.00177819                6.00168766                9.02112833                0.01000000                0.01784371               -0.03408569                0.20236486                0.06262905                0.14508761                0.12847366
               6.00208870                6.00219863                9.02309464                0.02066964               -0.00101652               -0.01668801                0.23005061                0.09484319                0.17360420                0.16872242
               7.00175786                6.00268153                9.02425271                0.08189798               -0.05625913               -0.04386088                0.25934011                0.03692299                0.07598643                0.06911191
               8.00096351                6.00281410                9.02417041                0.15898052               -0.07928928               -0.07949038                0.26354224                0.00363279                0.01306372               -0.00712478
               9.00017207                6.00292501                9.02404704                0.25930179               -0.07875059               -0.08004465                0.26336327                0.00169402                0.00724756               -0.01019751
               9.99938850                6.00303090                9.02382126                0.66410377               -0.07835720               -0.07774630                0.26136638                0.00061754                0.00286333               -0.00917433
               0.00134078                6.99768756                9.01847512                0.75543553               -0.06403053               -0.06399661                0.21274237               -0.00033219               -0.00014872                0.00385053
               1.00070048                6.99785781                9.01855635                0.23575481               -0.06452376               -0.06539429                0.21543891               -0.00106876               -0.00355148                0.00216231
               2.00005031                6.99800742                9.01856559                0.01000000               -0.01843711               -0.06632713                0.21839397                0.06784182                0.03803314                0.00748437
               3.00033173                6.99955023                9.01947501                0.01263316                0.07884482               -0.07765079                0.16291895                0.17251101                0.07863057                0.07632449
               4.00162720                7.00074632                9.02087991                0.01000000                0.10461549               -0.05693094                0.23151738                0.13569317                0.18405128                0.10729205
               5.00242404                7.00144867                9.02290538                0.01982677                0.04077086               -0.04360901                0.24089434                0.11762848                0.17938602                0.16612222
               6.00244262                7.00176084                9.02405844                0.08190792               -0.03820072               -0.06136378                0.25795217                0.03495503                0.07227792                0.06639343
               7.00166003                7.00189498                9.02390676                0.16093707               -0.07899999               -0.07910602                0.26241945                0.00219373                0.00658235               -0.00122512
               8.00086262                7.00201379                9.02374292                0.26485563               -0.07978207               -0.08003031                0.26527700                0.00068861                0.00661091               -0.00671872
               9.00006439                7.00212148                9.02357537                0.40681474               -0.07951120               -0.08027326                0.26582590               -0.00008903                0.00459104               -0.00916134
               9.99927240                7.00223123                9.02334830                0.75166974               -0.07919918               -0.08029581                0.26472974               -0.00049431                0.00232714               -0.00796418
               0.00117476                7.99705050                9.01870028                0.86076242               -0.06370251               -0.06345296                0.21151889               -0.00035303               -0.00020256                0.00434992
               1.00053773                7.99720662                9.01877551                0.38602762               -0.06408314               -0.06469791                0.21394510               -0.00062923               -0.00133635                0.00378608
               1.99989310                7.99734939                9.01882475                0.01685238                0.04098751               -0.06530039                0.21666534                0.05431722                0.11514723                0.00702651
               3.00135748                7.99859283                9.02122751                0.01000000                0.13270750               -0.12035989                0.27776386                0.10648609                0.21940934               -0.01891271
               4.00254724                8.00035787                9.02246476                0.01788729                0.08793777               -0.04717758                0.26968037                0.21424215                0.16590354                0.17989419
               5.00311624                8.00081548                9.02402395                0.07971444               -0.01028805               -0.07027672                0.25624181                0.05943433                0.08809615                0.07600744
               6.00234148                8.00097136                9.02380939                0.15903168               -0.07837309               -0.07853806                0.26066209                0.00317045               -0.00155519                0.00642968
               7.00154878                8.00109941                9.02356604                0.26491776               -0.07953504               -0.07936903                0.26381690                0.00063084               -0.00174123                0.00084817
               8.00075078                8.00121350                9.02333494                0.41207546               -0.07979573               -0.07979593                0.26564649               -0.00035855                0.00085995               -0.00321361
               8.99995286                8.00131954                9.02312821                0.62721787               -0.07958277               -0.07979929                0.26563797               -0.00047770                0.00186504               -0.00508817
               9.99915913                8.00142498                9.02290159                0.88674901               -0.07937343               -0.08008079                0.26474224               -0.00030663                0.00132188               -0.00326180
               0.00102149                8.99641850                9.01892658                0.99174924               -0.06324791               -0.06294212                0.20987481               -0.00032721               -0.00002029                0.00301078
               1.00038901                8.99656385                9.01900187                0.58595560               -0.06355257               -0.06386481                0.21201237               -0.00022373                0.00011913                0.00290983
               1.99975044                8.99670141                9.01907757                0.06479783               -0.04680218               -0.06442411                0.21409157                0.01518126                0.00421599                0.00417890
               2.99945297                8.99714303                9.01923337                0.02113737                0.19694825               -0.11598525                0.21387132                0.04207209                0.23715025               -0.10842134
               4.00368940                8.99980277                9.02393304                0.07921020                0.17731404               -0.07052158                0.24613427                0.18674136                0.24916975                0.08873960
               5.00299925                9.00004313                9.02383104                0.15528888               -0.07336527               -0.07643248                0.25276731                0.00575085                0.00022694                0.00635726
               6.00222210                9.00019008                9.02355177                0.25947254               -0.07843699               -0.07749048                0.25903173                0.00131848               -0.00893513                0.00409463
               7.00143051                9.00030760                9.02324573                0.40707931               -0.07933915               -0.07864550                0.26289934               -0.00012920               -0.00813242                0.00166898
               8.00063531                9.00041788                9.02296222                0.62751915               -0.07935799               -0.07913733                0.26416611               -0.00047385               -0.00407586               -0.00043038
               8.99984335                9.00052550                9.02272159                0.98142061               -0.07899661               -0.07898441                0.26312167               -0.00030985               -0.00062057               -0.00159715
               9.99905538                9.00062961                9.02249987                0.99305151               -0.07879654               -0.07894012                0.26210035                0.00015282                0.00022932                0.00006819
               0.00087751                9.99579166                9.01912557                0.99642264               -0.06271575               -0.06268388                0.20815464               -0.00063190                0.00004353                0.00171084
               1.00025035                9.99592932                9.01920046                0.85981596               -0.06299821               -0.06345297                0.21022000               -0.00040386                0.00007817                0.00159753
               1.99961754                9.99606090                9.01927532                0.56274099               -0.05763915               -0.06405050                0.21232786                0.00390082               -0.00015843                0.00150454
               2.99909757                9.99627313                9.01934525                0.52900127                0.18822126               -0.08699023                0.20729863                0.10878711                0.20680442               -0.00400527
               4.00338197                9.99894744                9.02364028                0.56170049                0.18731885               -0.08553226                0.23818824                0.11994156                0.22920933                0.00139391
               5.00284394                9.99928683                9.02352801                0.60419121               -0.06392908               -0.07563074                0.24781729                0.00817498               -0.00282445                0.00098075
               6.00210339                9.99942155                9.02322994                0.66424038               -0.07627757               -0.07685289                0.25562086                0.00011257               -0.01264003                0.00155242
               7.00131839                9.99952650                9.02289941                0.75189383               -0.07899891               -0.07811026                0.26035084               -0.00075136               -0.01155116                0.00102286
               8.00052341                9.99963075                9.02259461                0.88705520               -0.07917307               -0.07871271                0.26180028               -0.00052267               -0.00686729                0.00023892
               8.99973493                9.99973985                9.02233672                0.99305275               -0.07847262               -0.07856430                0.26063025               -0.00007007               -0.00252398               -0.00061879
               9.99895396                9.99984618                9.02211439                0.99757741               -0.07809748               -0.07834305                0.25957612                0.00049009               -0.00131743                0.00032431
               0.00213395                0.00218384               10.01976816                0.78237129               -0.06469949               -0.06466060                0.21464782               -0.00012767               -0.00063071               -0.00185635
               1.00148696                0.00224185               10.01994560                0.52051424               -0.06585260               -0.06422860                0.21480408               -0.00042173               -0.00480971               -0.00043830
               2.00081690                0.00228424               10.02004316                0.48138543               -0.06786500               -0.06428653                0.21642389               -0.00006880               -0.00985561               -0.00043251
               3.00012966                0.00229319               10.02010161                0.50631949               -0.06855169               -0.06445685                0.21755835                0.00022781               -0.00861204               -0.00056747
               3.99944587                0.00227180               10.02020542                0.54724897               -0.06776998               -0.06456384                0.21733051                0.00010502               -0.00336062               -0.00038576
               4.99877426                0.00223506               10.02036319                0.60104835               -0.06652796               -0.06451586                0.21638992               -0.00006436                0.00118326               -0.00023424
               5.99811531                0.00219743               10.02056293                0.66930896               -0.06541389               -0.06437939                0.21529277               -0.00018672                0.00421905               -0.00019429
               6.99746598                0.00216783               10.02079082                0.75460098               -0.06459495               -0.06418709                0.21419444               -0.00026301                0.00601774               -0.00029832
               7.99682341                0.00214883               10.02103471                0.86058989               -0.06397839               -0.06391897                0.21296490               -0.00030150                0.00664787               -0.00042330
               8.99618641                0.00213833               10.02127921                0.99350974               -0.06346935               -0.06354399                0.21150389               -0.00027467                0.00490279               -0.00038761
               9.99555402                0.00213320               10.02148833                0.99836964               -0.06323913               -0.06312470                0.21013054               -0.00036757                0.00320494                0.00135611
               0.00207467                1.00153723               10.01992274                0.52052298               -0.06421254               -0.06579604                0.21462015               -0.00041116               -0.00141639               -0.00642410
               1.00143254                1.00159956               10.02010430                0.01206505               -0.06420626               -0.06415710                0.21468957               -0.00120366               -0.00674349               -0.00455179
               2.00079054                1.00164137               10.02018315                0.01000000               -0.06471938               -0.04589152                0.21634279                0.01549522               -0.01525486                0.00744288
               3.00013815                1.00164862               10.02020523                0.01000000               -0.06572797               -0.02800935                0.21798112                0.02644781               -0.01653587                0.01533090
               3.99947598                1.00162617               10.02026637                0.01061431               -0.06636761               -0.01428595                0.21825171                0.02741149               -0.01210695                0.00077710
               4.99881080                1.00158990               10.02038026                0.03017532               -0.06644611               -0.05698885                0.21765107                0.00411072               -0.00721305               -0.02293695
               5.99814706                1.00155364               10.02053966                0.11841578               -0.06615751               -0.06460127                0.21667207               -0.00127542               -0.00316161               -0.00953558
               6.99748765                1.00152595               10.02073247                0.23338363               -0.06559595               -0.06449571                0.21551000               -0.00108547               -0.00019958               -0.00502760
               7.99683514                1.00150964               10.02094706                0.38432530               -0.06480835               -0.06411118                0.21410515               -0.00061269                0.00141334               -0.00251601
               8.99619148                1.00150289               10.02116735                0.58698733               -0.06398300               -0.06365987                0.21238220               -0.00020607                0.00103026               -0.00062193
               9.99555548                1.00150195               10.02137043                0.86158537               -0.06360032               -0.06322826                0.21094893               -0.00019079                0.00027905                0.00217039
               0.00200107                2.00086792               10.01998973                0.48140361               -0.06423255               -0.06784347                0.21599095               -0.00003044               -0.00043376               -0.01154609
               1.00135874                2.00095871               10.02018455                0.01000000               -0.04616628               -0.06450334                0.21627626                0.01574378                0.00462897               -0.01200146
               2.00107774                2.00136641               10.02047895                0.01000001               -0.03424615               -0.03350306                0.21998937                0.06577851                0.00481721                0.01048983
               3.00067382                2.00173300               10.02062362                0.01000000               -0.05124644                0.00371897                0.22294503                0.09030145               -0.01458112                0.02954077
               4.00005282                2.00198609               10.02034713                0.01121316               -0.08724105                0.01810732                0.21380536                0.04237820               -0.04933627                0.04032799
               4.99892900                2.00109529               10.01994024                0.01000001               -0.09495330                0.01573674                0.22088012                0.03600149               -0.02217654                0.03788727
               5.99815375                2.00090541               10.02032690                0.01531224               -0.07203664               -0.00719264                0.21910134                0.07160705                0.00849560                0.02075940
               6.99748827                2.00087791               10.02057700                0.01000000               -0.06597660               -0.01637739                0.21745196                0.07362275                0.00139110                0.04695118
               7.99683422                2.00086661               10.02081499                0.01487581               -0.06491418                0.10214757                0.21548308                0.08790793                0.00092012                0.14693987
               8.99618998                2.00086513               10.02104864                0.06355141               -0.06410642               -0.04260429                0.21313013                0.02142298                0.00020345                0.00596914
               9.99555209                2.00086863               10.02126753                0.56265041               -0.06378948               -0.06275387                0.21179378                0.01044318               -0.00040526                0.00302979
               0.00189248                3.00018036               10.02002397                0.50635014               -0.06435538               -0.06861685                0.21691342                0.00030009               -0.00052215               -0.01004290
               1.00124893                3.00030950               10.02020508                0.01000000               -0.02803336               -0.06534656                0.21783454                0.02684445                0.01175986               -0.01352583
               2.00133181                3.00097131               10.02062868                0.01000000                0.00377893               -0.05038995                0.22295584                0.09089304                0.02183018               -0.00779726
               3.00132450                3.00172300               10.02082031                0.01053184               -0.01852741               -0.01906295                0.22447771                0.09216896                0.00244463                0.01167000
               4.00096126                3.00198831               10.02085089                0.01000001               -0.03564979                0.00914346                0.20708162                0.09351650                0.01197456                0.06851710
               5.00061151                3.00190464               10.02109184                0.01078729               -0.05823445                0.05945342                0.20035000                0.10117465               -0.00572328                0.08612316
               5.99979658                3.00140979               10.02090259                0.01000000               -0.08063024                0.07361327                0.22405887                0.13416681                0.02202113                0.14247981
               6.99899890                3.00119841               10.02155464                0.01059327               -0.05952497                0.08075703                0.22324254                0.26300989                0.11659451                0.17124090
               7.99860608                3.00355259               10.02371410                0.01888239               -0.11904923                0.15132811                0.21598794                0.17445681                0.00762411                0.35944500
               8.99661792                3.00065081               10.02106676                0.01940678               -0.14243637                0.19685889                0.21323825                0.04932160               -0.14667502                0.32549615
               9.99575735                3.00024687               10.02116581                0.52833020               -0.08605710                0.19306413                0.21128949                0.16321883               -0.00937230                0.29469832
               0.00174881                3.99949558               10.02010240                0.54729712               -0.06441215               -0.06786194                0.21647777                0.00018702               -0.00031785               -0.00491946
               1.00110468                3.99965177               10.02026302                0.01061752               -0.01333541               -0.06589838                0.21802144                0.02773932               -0.00238410               -0.00929805
               2.00148210                4.00035861               10.02037894                0.01121509                0.01977576               -0.08572784                0.21285017                0.04093285                0.03233405               -0.03757130
               3.00150020                4.00135175               10.02087783                0.01000001                0.01297054               -0.03790000                0.20775443                0.09054852                0.05692949                0.02109702
               4.00174151                4.00216895               10.02149727                0.01150684                0.00154099               -0.00499169                0.21668230                0.08842010                0.04377934                0.05544485
               5.00153102                4.00228435               10.02166958                0.01000000               -0.00990952                0.02131240                0.22727323                0.07912044                0.06362669                0.09553591
               6.00154332                4.00237767               10.02274455                0.01233574               -0.04626811                0.04817066                0.24007624                0.10403473                0.11371500                0.15564878
               7.00060566                4.00249305               10.02364101                0.01000001               -0.03361820                0.09550391                0.36516245                0.21141420                0.18960706                0.30213252
               8.00087095                4.00389317               10.02587941                0.01655223               -0.00617602                0.02002631                0.25190481                0.24958975                0.21208493                0.20696012
               9.00048214                4.00480231               10.02728219                0.07877239               -0.06233111                0.17140841                0.25177123                0.23681648                0.08613471                0.33316785
               9.99962433                4.00472991               10.02698552                0.56175940               -0.08578046                0.19550923                0.25220093                0.19204979                0.00221352                0.32336613
               0.00158383                4.99882312               10.02023322                0.60112120               -0.06431468               -0.06657201                0.21532793                0.00001561               -0.00015291               -0.00052110
               1.00094068                4.99899153               10.02037173                0.03022911               -0.05666660               -0.06595732                0.21733046                0.00499930               -0.02146660               -0.00461273
               2.00045050                4.99925675               10.02008102                0.01000001                0.01922227               -0.09347581                0.22129492                0.03078761                0.02796079               -0.01007756
               3.00132513                5.00096500               10.02112482                0.01078986                0.06732794               -0.06081270                0.20094103                0.09022824                0.06632510                0.00654874
               4.00179706                5.00188848               10.02166079                0.01000000                0.03300352               -0.02028506                0.22740918                0.07145307                0.08220404                0.06879432
               5.00198520                5.00233089               10.02270059                0.01310938               -0.00642424               -0.01971410                0.25040270                0.04562459                0.11342598                0.11900664
               6.00166857                5.00237320               10.02350150                0.01000000               -0.01367549                0.00512276                0.27005170                0.07581307                0.16587396                0.17517141
               7.00171169                5.00310848               10.02577964                0.01850746               -0.01899811                0.02638226                0.29007068                0.14830983                0.20887794                0.20603361
               8.00128861                5.00395312               10.02716561                0.07924284               -0.05970924               -0.03630496                0.25815963                0.06548408                0.09057763                0.08046806
               9.00051750                5.00407897               10.02706513                0.15650810               -0.07727358               -0.07547961                0.25622862                0.00762918                0.00973386                0.00516010
               9.99974314                5.00415706               10.02681074                0.60538519               -0.07743660               -0.06598560                0.25506871                0.00924977                0.00209349                0.00988184
               0.00141231                5.99816414               10.02040446                0.66941723               -0.06412708               -0.06535152                0.21401760               -0.00011614               -0.00008839                0.00235922
               1.00077104                5.99833263               10.02052417                0.11849737               -0.06439675               -0.06569963                0.21625417               -0.00050109               -0.00731207               -0.00074645
               2.00012438                5.99848909               10.02049687                0.01531760               -0.00489994               -0.07164796                0.21983122                0.06549638                0.01281730                0.01531566
               3.00067304                6.00013549               10.02101204                0.01000000                0.08401552               -0.08471443                0.22566664                0.11553468                0.11438765                0.02958694
               4.00180469                6.00176325               10.02264912                0.01233909                0.06428750               -0.05611513                0.23992162                0.08932711                0.13264878                0.11209097
               5.00195879                6.00189007               10.02342815                0.01000000                0.02386483               -0.03165243                0.26845674                0.06893854                0.16982957                0.15911251
               6.00228198                6.00248013               10.02552887                0.01934660                0.00165709               -0.01433186                0.26247718                0.10643833                0.19189340                0.18753493
               7.00199193                6.00302070               10.02684555                0.08116204               -0.05359178               -0.04345127                0.25850124                0.04325188                0.08665102                0.07166646
               8.00121015                6.00316707               10.02678967                0.15923320               -0.07805750               -0.07888669                0.26032191                0.00426223                0.01574167               -0.00354567
               9.00043078                6.00329272               10.02666156                0.26165201               -0.07784929               -0.07894052                0.25996752                0.00200335                0.00776304               -0.00517592
               9.99965316                6.00341020               10.02642462                0.66607019               -0.07776220               -0.07665432                0.25958868                0.00104449                0.00283832               -0.00267114
               0.00124453                6.99751609               10.02060215                0.75476098               -0.06388216               -0.06438435                0.21270090               -0.00020862               -0.00013318                0.00396886
               1.00060571                6.99767754               10.02070847                0.23350730               -0.06434843               -0.06520466                0.21498955               -0.00068571               -0.00326606                0.00203096
               1.99995756                6.99782380               10.02074974                0.01000000               -0.01220237               -0.06598179                0.21812865                0.06375711                0.03325991                0.00685415
               3.00036166                6.99927071               10.02158251                0.01059997                0.09357281               -0.06168936                0.22720956                0.23301074                0.13669213                0.11529990
               4.00182902                7.00076618               10.02346248                0.01000001                0.11427169               -0.04828870                0.35761554                0.17379387                0.27004865                0.17888247
               5.00264710                7.00169784               10.02547945                0.01851408                0.04188480               -0.03755913                0.28832441                0.13442824                0.18639265                0.19139378
               6.00266671                7.00208656               10.02663751                0.08117159               -0.03786563               -0.05854433                0.25712359                0.04080721                0.07447995                0.07702182
               7.00188978                7.00223946               10.02652160                0.16075891               -0.07824414               -0.07838096                0.26019617                0.00346083                0.01004992                0.00224061
               8.00110183                7.00237539               10.02637989                0.26540214               -0.07876713               -0.07917066                0.26211507                0.00167283                0.00862684               -0.00400442
               9.00031444                7.00250016               10.02621602                0.40915646               -0.07863844               -0.07931594                0.26260151                0.00053014                0.00514331               -0.00613531
               9.99952906                7.00262397               10.02598465                0.75356710               -0.07853775               -0.07912675                0.26276256               -0.00011559                0.00235753               -0.00424634
               0.00108525                7.99687645               10.02081376                0.86082690               -0.06356311               -0.06359715                0.21124643               -0.00027203               -0.00017311                0.00435251
               1.00044962                7.99702854               10.02091267                0.38451419               -0.06394579               -0.06449468                0.21347649               -0.00045855               -0.00116230                0.00342879
               1.99980634                7.99716946               10.02098939                0.01488678                0.09706260               -0.06498362                0.21610362                0.07908019                0.12708813                0.00596519
               3.00239088                7.99890170               10.02365039                0.01889193                0.15235500               -0.11204129                0.21087966                0.13468367                0.31032745                0.02591375
               4.00285344                8.00079748               10.02551612                0.01656674                0.04680473               -0.03111219                0.25575321                0.21394256                0.15376010                0.18772455
               5.00332697                8.00113889               10.02657387                0.07927049               -0.01484665               -0.06586542                0.25404603                0.05301949                0.06460687                0.07716374
               6.00255651                8.00130924               10.02640031                0.15928186               -0.07773225               -0.07735267                0.25754109                0.00380909                0.00200339                0.00905821
               7.00177232                8.00145308               10.02618870                0.26546063               -0.07868033               -0.07838677                0.26071775                0.00160612                0.00097117                0.00284956
               8.00098290                8.00158366               10.02597684                0.41253779               -0.07897621               -0.07898410                0.26277504                0.00058086                0.00221324               -0.00186556
               9.00019280                8.00170640               10.02577269                0.62813523               -0.07898323               -0.07920020                0.26342235                0.00007106                0.00210795               -0.00420553
               9.99940323                8.00182767               10.02554390                0.88748221               -0.07895664               -0.07947186                0.26379053               -0.00014563                0.00126768               -0.00227448
               0.00093493                8.99624415               10.02102335                0.99386158               -0.06313912               -0.06293001                0.20955051               -0.00027911               -0.00003507                0.00288688
               1.00030353                8.99638764               10.02112023                0.58728480               -0.06344646               -0.06371834                0.21163639               -0.00018094                0.00005318                0.00250912
               1.99966600                8.99652412               10.02121690                0.06358551               -0.04381109               -0.06421896                0.21365354                0.01848108                0.00490273                0.00331816
               2.99942731                8.99702989               10.02140840                0.01947102                0.21023439               -0.13734662                0.21467674                0.00924678                0.25365655               -0.12190691
               4.00387068                9.00014393               10.02640753                0.07885530                0.18842055               -0.07480930                0.24509961                0.20486201                0.26375154                0.06235294
               5.00319572                9.00038053               10.02634690                0.15660248               -0.07209880               -0.07570967                0.25075301                0.00498863                0.00531733                0.00658661
               6.00242871                9.00053951               10.02612400                0.26181505               -0.07741179               -0.07664881                0.25583790                0.00164761               -0.00397449                0.00460928
               7.00164749                9.00067172               10.02585791                0.40940498               -0.07842915               -0.07781956                0.25982770                0.00047734               -0.00513499                0.00222478
               8.00086013                9.00079570               10.02559241                0.62841461               -0.07878178               -0.07856372                0.26203250                0.00006777               -0.00319748               -0.00018662
               9.00007185                9.00091616               10.02535016                0.97977992               -0.07882542               -0.07881431                0.26253071               -0.00004230               -0.00076131               -0.00173734
               9.99928362                9.00103453               10.02512593                0.99203451               -0.07882352               -0.07904694                0.26289832                0.00005705                0.00014484               -0.00014033
               0.00079269                9.99561785               10.02120618                0.99837297               -0.06266577               -0.06262976                0.20798741               -0.00059209                0.00007382                0.00159342
               1.00016603                9.99575417               10.02130213                0.86177481               -0.06294880               -0.06334732                0.21003586               -0.00038907                0.00012910                0.00134210
               1.99953371                9.99588508               10.02139810                0.56267570               -0.06050151               -0.06390455                0.21205577                0.00680184               -0.00221567                0.00117261
               2.99895600                9.99615477               10.02144569                0.52839109                0.20331617               -0.08751160                0.21308811                0.12367964                0.21835372               -0.00770518
               4.00360004                9.99930129               10.02604914                0.56184160                0.20375822               -0.08426388                0.24386110                0.14643143                0.25008065                0.00073474
               5.00303117                9.99962470               10.02600840                0.60546326               -0.06508866               -0.07558337                0.24830753                0.00729278                0.00525977                0.00100202
               6.00229826                9.99977626               10.02577733                0.66620116               -0.07527452               -0.07632436                0.25412764                0.00055499               -0.00627497                0.00154367
               7.00152568                9.99989669               10.02549325                0.75377774               -0.07792225               -0.07750375                0.25862617               -0.00037527               -0.00790352                0.00106847
               8.00073982               10.00001238               10.02520840                0.88776592               -0.07862755               -0.07833201                0.26101856               -0.00035929               -0.00589706                0.00019240
               8.99995312               10.00013012               10.02494853                0.99203567               -0.07860960               -0.07860447                0.26151285               -0.00015553               -0.00273033               -0.00069959
               9.99916763               10.00024673               10.02472352                0.99758643               -0.07854981               -0.07878050                0.26186916                0.00006232               -0.00136897                0.00026958
               0.00195162                0.00201264               11.02192168                0.78332878               -0.06485867               -0.06482253                0.21585000               -0.00025691               -0.00032706               -0.00162565
               1.00130303                0.00208135               11.02209697                0.52159645               -0.06554304               -0.06442488                0.21542858               -0.00021572               -0.00372515               -0.00017865
               2.00064076                0.00214190               11.02220712                0.48144140               -0.06702083               -0.06426905                0.21640938               -0.00002871               -0.00834026               -0.00027319
               2.99996262                0.00218323               11.02227660                0.50579993               -0.06789157               -0.06436839                0.21742443                0.00021262               -0.00787276               -0.00042329
               3.99928293                0.00220329               11.02237924                0.54640982               -0.06760112               -0.06445341                0.21736714                0.00014644               -0.00345228               -0.00031464
               4.99861059                0.00220979               11.02252817                0.60008798               -0.06671887               -0.06441562                0.21654435                0.00002105                0.00086085               -0.00021253
               5.99794855                0.00221200               11.02271653                0.66839313               -0.06571900               -0.06428695                0.21539966               -0.00009028                0.00400299               -0.00019427
               6.99729621                0.00221659               11.02293239                0.75396104               -0.06482186               -0.06408889                0.21413253               -0.00018027                0.00588814               -0.00029455
               7.99665211                0.00222648               11.02316295                0.86073415               -0.06405713               -0.06381071                0.21272888               -0.00024164                0.00645649               -0.00041038
               8.99601507                0.00224154               11.02339255                0.99538290               -0.06344196               -0.06344593                0.21121495               -0.00023971                0.00472092               -0.00042465
               9.99538327                0.00226069               11.02358844                0.99994380               -0.06317978               -0.06305647                0.20991371               -0.00033579                0.00308846                0.00139746
               0.00188033                1.00136441               11.02207232                0.52160496               -0.06440930               -0.06549168                0.21525349               -0.00020944               -0.00120815               -0.00544241
               1.00123624                1.00143710               11.02225090                0.01227521               -0.06454000               -0.06449287                0.21475662               -0.00041716               -0.00575635               -0.00345912
               2.00058953                1.00149921               11.02234237                0.01000000               -0.06510966               -0.04383390                0.21573007                0.01911508               -0.01323129                0.00968249
               2.99993405                1.00153954               11.02238005                0.01000000               -0.06592135               -0.02271506                0.21715876                0.03402353               -0.01482122                0.01725695
               3.99927111                1.00155876               11.02244502                0.01000000               -0.06637993               -0.00748040                0.21757589                0.03080057               -0.01128814                0.00745081
               4.99860645                1.00156564               11.02255408                0.02841222               -0.06634296               -0.05463158                0.21716055                0.00604368               -0.00694274               -0.02024646
               5.99794425                1.00156913               11.02270425                0.11648237               -0.06596391               -0.06438454                0.21627038               -0.00071093               -0.00316452               -0.00882434
               6.99728717                1.00157570               11.02288546                0.23152927               -0.06535143               -0.06435575                0.21509869               -0.00073100               -0.00042036               -0.00467251
               7.99663722                1.00158837               11.02308584                0.38322533               -0.06458011               -0.06399230                0.21366202               -0.00043948                0.00094004               -0.00240595
               8.99599557                1.00160708               11.02328930                0.58814815               -0.06382251               -0.06355625                0.21200747               -0.00015436                0.00058555               -0.00074353
               9.99536077                1.00163012               11.02347872                0.86309243               -0.06347998               -0.06315619                0.21067610               -0.00016482                0.00000489                0.00221197
               0.00180205                2.00070280               11.02214950                0.48145897               -0.06421592               -0.06700260                0.21600206                0.00000260               -0.00027767               -0.01014535
               1.00115989                2.00079149               11.02234306                0.01000000               -0.04407123               -0.06490324                0.21565649                0.01932466                0.00672643               -0.00982529
               2.00092062                2.00126523               11.02267704                0.01000001               -0.02881722               -0.02815243                0.21900788                0.07982679                0.00858754                0.01462414
               3.00058354                2.00172892               11.02283607                0.01000000               -0.05238893                0.00958146                0.22318713                0.10540850               -0.01123901                0.03635788
               3.99987284                2.00205368               11.02266454                0.01042676               -0.09312243                0.03020223                0.23765589                0.05461584               -0.05085330                0.04056066
               4.99872109                2.00111716               11.02217780                0.01000001               -0.09742881                0.02592025                0.22527574                0.03851090               -0.02732116                0.04265793
               5.99792427                2.00092431               11.02251791                0.01412767               -0.07293707                0.00547744                0.21883492                0.08661915                0.00612332                0.03537433
               6.99726235                2.00092947               11.02274931                0.01000001               -0.06561630               -0.01078335                0.21690547                0.07978350                0.00038968                0.05752284
               7.99661194                2.00094663               11.02296691                0.01339198               -0.06460601                0.13419085                0.21484665                0.11892129               -0.00030623                0.13291299
               8.99597023                2.00097042               11.02317786                0.06254230               -0.06390224               -0.04248350                0.21267141                0.02377494               -0.00064579                0.00424754
               9.99533390                2.00099756               11.02338390                0.56251848               -0.06363362               -0.06439870                0.21140744                0.01305422               -0.00073264                0.00410747
               0.00170300                3.00002436               11.02219270                0.50582962               -0.06426915               -0.06795152                0.21681519                0.00027670               -0.00037596               -0.00939791
               1.00106031                3.00013904               11.02237836                0.01000000               -0.02271812               -0.06555777                0.21699919                0.03435442                0.01350986               -0.01166782
               2.00124864                3.00093616               11.02284075                0.01000000                0.00967247               -0.05157960                0.22309648                0.10576446                0.02827525               -0.00433508
               3.00125376                3.00173117               11.02311676                0.01000000               -0.01367267               -0.01423469                0.23623038                0.11067623                0.00938061                0.01920709
               4.00097519                3.00216280               11.02317463                0.01000001               -0.03738594                0.01179603                0.24472231                0.11159819                0.01163957                0.07308705
               5.00050604                3.00208404               11.02336816                0.01000000               -0.05554345                0.06855090                0.24483268                0.11866273               -0.00046657                0.12272030
               5.99986432                3.00167868               11.02338401                0.01000000               -0.08227621                0.08858791                0.24335162                0.15032979                0.02242804                0.16127646
               6.99886052                3.00136003               11.02394191                0.01000000               -0.04448075                0.15327643                0.27725517                0.33330189                0.09576443                0.29533811
               7.99897470                3.00427219               11.02559344                0.01728639               -0.12201905                0.14517905                0.22250059                0.19656122               -0.05018278                0.24542945
               8.99642014                3.00075741               11.02317219                0.01802664               -0.17035715                0.20778989                0.21080069                0.04494833               -0.13688053                0.33887092
               9.99556756                3.00034215               11.02331033                0.52776373               -0.08525767                0.20762497                0.21438093                0.18917036               -0.00742595                0.31794554
               0.00157822                3.99934377               11.02226791                0.54645659               -0.06430521               -0.06768294                0.21655857                0.00022041               -0.00024215               -0.00510328
               1.00093517                3.99948034               11.02243927                0.01000000               -0.00672216               -0.06593229                0.21732848                0.03108184                0.00373062               -0.00834161
               2.00144378                4.00023363               11.02268858                0.01042864                0.03176303               -0.09166670                0.23710779                0.05311090                0.03142290               -0.03812081
               3.00157043                4.00144423               11.02320292                0.01000001                0.01540785               -0.03945260                0.24456361                0.10863272                0.06111748                0.02168645
               4.00175194                4.00228960               11.02380209                0.01000001                0.00040205               -0.00635879                0.25406276                0.09713291                0.05252652                0.06489446
               5.00157847                4.00248818               11.02428727                0.01000000               -0.00485324                0.03339523                0.28352202                0.11009165                0.08264206                0.13768135
               6.00165487                4.00269607               11.02529171                0.01051947               -0.01217952                0.05675153                0.26870555                0.17102812                0.19690174                0.18564747
               7.00133488                4.00399500               11.02831508                0.01820812               -0.02545422                0.11641474                0.32433229                0.21720582                0.19441070                0.33608160
               8.00114579                4.00385021               11.02790624                0.01529852               -0.02678213                0.00152610                0.19639322                0.18580064                0.09839774                0.21573221
               9.00079924                4.00512622               11.02977568                0.07819285               -0.05989780                0.18443966                0.25129144                0.28382855                0.11139947                0.35790250
               9.99994783                4.00515006               11.02953539                0.56163391               -0.08514078                0.21012672                0.25507114                0.22513107                0.00654226                0.34339960
               0.00143428                4.99867070               11.02238785                0.60015883               -0.06421911               -0.06675392                0.21553476                0.00009378               -0.00012527               -0.00093791
               1.00079209                4.99882039               11.02254223                0.02846587               -0.05436553               -0.06587518                0.21682091                0.00686336               -0.01872812               -0.00421223
               2.00034697                4.99910283               11.02232313                0.01000001                0.02891793               -0.09600576                0.22566899                0.03375479                0.03241193               -0.01412944
               3.00137044                5.00094212               11.02340829                0.01000000                0.07634647               -0.05821649                0.24547893                0.10720201                0.10159470                0.01273086
               4.00187390                5.00203563               11.02428160                0.01000000                0.04654832               -0.01764884                0.28377364                0.10132933                0.12248876                0.08863298
               5.00230141                5.00275195               11.02563914                0.01124274               -0.00479199               -0.01985686                0.27683614                0.07473194                0.13195491                0.13837872
               6.00177806                5.00281371               11.02659044                0.01000001               -0.01254619                0.00586313                0.38908806                0.08953359                0.20993783                0.21855494
               7.00205049                5.00368833               11.02898578                0.01710469               -0.01092762               -0.03110531                0.28284283                0.11921028                0.18949470                0.09574200
               8.00155950                5.00430271               11.02973684                0.07858105               -0.06268149               -0.01606500                0.25447489                0.05372142                0.05842882                0.10784767
               9.00079686                5.00444621               11.02961804                0.15721706               -0.07685098               -0.07278089                0.25450078                0.00675572                0.00868346                0.01044761
              10.00002248                5.00454468               11.02936274                0.60615890               -0.07743735               -0.06732488                0.25522505                0.00841353                0.00194345                0.01282917
               0.00128071                5.99800869               11.02254561                0.66849854               -0.06404064               -0.06565345                0.21418520               -0.00002596               -0.00008156                0.00204416
               1.00064031                5.99816284               11.02268448                0.11656377               -0.06417823               -0.06552289                0.21583302                0.00001507               -0.00645219               -0.00062660
               1.99999715                5.99831352               11.02269458                0.01413291                0.00706843               -0.07254242                0.21944749                0.08057841                0.02748641                0.01335189
               3.00078167                6.00027990               11.02350643                0.01000000                0.09857730               -0.08621214                0.24387383                0.13027510                0.13340475                0.03245353
               4.00196869                6.00193663               11.02520894                0.01052276                0.07566757               -0.02893299                0.27056051                0.15342384                0.15947692                0.19251764
               5.00229503                6.00209104               11.02649747                0.01000001                0.02702331               -0.03105622                0.38605872                0.07760811                0.21364536                0.19889313
               6.00250916                6.00281333               11.02834419                0.01787368               -0.00324704               -0.01919379                0.32208862                0.11969358                0.17813516                0.17500452
               7.00223008                6.00337290               11.02942274                0.08019449               -0.05234116               -0.05458445                0.25681821                0.03918706                0.07528831                0.04128254
               8.00146234                6.00352891               11.02937685                0.15918773               -0.07688531               -0.07780894                0.25730519                0.00394642                0.01592952               -0.00143968
               9.00069238                6.00367060               11.02924639                0.26337263               -0.07715959               -0.07792821                0.25735531                0.00201456                0.00735899               -0.00173667
               9.99991914                6.00380357               11.02901304                0.66751383               -0.07732341               -0.07588310                0.25829042                0.00128748                0.00260030                0.00145951
               0.00112547                6.99735763               11.02272913                0.75411687               -0.06379124               -0.06461672                0.21270774               -0.00013080               -0.00012012                0.00373422
               1.00048756                6.99750993               11.02285614                0.23165292               -0.06420027               -0.06496996                0.21455831               -0.00035481               -0.00279332                0.00192527
               1.99984147                6.99765198               11.02292817                0.01000001               -0.00673621               -0.06559949                0.21745687                0.07039625                0.04564699                0.00612141
               3.00035284                6.99921788               11.02401920                0.01000000                0.16448808               -0.04973436                0.28307301                0.30303079                0.25086253                0.09205573
               4.00313123                7.00145697               11.02803222                0.01821373                0.13120160               -0.03846540                0.31618579                0.18216127                0.30169694                0.18248756
               5.00297687                7.00213082               11.02867186                0.01711130               -0.01205791               -0.02998712                0.28196876                0.11010113                0.08003803                0.17271544
               6.00289007                7.00242983               11.02920091                0.08020351               -0.04291128               -0.05736497                0.25546731                0.03616872                0.04344067                0.06562443
               7.00211864                7.00259664               11.02911068                0.16033944               -0.07746703               -0.07764045                0.25749630                0.00391423                0.01152797                0.00366919
               8.00134073                7.00274653               11.02898522                0.26579962               -0.07780742               -0.07826240                0.25910696                0.00198610                0.00909883               -0.00223959
               9.00056250                7.00288764               11.02882740                0.41117279               -0.07792181               -0.07846515                0.25997602                0.00080371                0.00500395               -0.00382035
               9.99978230                7.00302702               11.02860355                0.75510489               -0.07802006               -0.07826797                0.26121397                0.00008434                0.00216366               -0.00154154
               0.00097349                7.99671636               11.02292521                0.86096523               -0.06346306               -0.06369060                0.21108656               -0.00021527               -0.00014565                0.00404840
               1.00033886                7.99686344               11.02304504                0.38341513               -0.06381789               -0.06426821                0.21301202               -0.00029384               -0.00096071                0.00306082
               1.99969713                7.99700153               11.02314682                0.01340278                0.13492238               -0.06464613                0.21533598                0.10703153                0.10812336                0.00498279
               3.00303731                7.99928521               11.02544510                0.01729573                0.15009206               -0.11541401                0.22040448                0.15742125                0.20656585               -0.03009564
               4.00269897                8.00116732               11.02757982                0.01531152                0.02434374               -0.04700831                0.19564262                0.15503943                0.18200822                0.07368388
               5.00352418                8.00149130               11.02910487                0.07860712                0.00338720               -0.06952431                0.25055574                0.04554824                0.08756083                0.04432029
               6.00276672                8.00166603               11.02896021                0.15923365               -0.07662546               -0.07622948                0.25463657                0.00351590                0.00411483                0.00922198
               7.00199167                8.00182009               11.02878039                0.26585443               -0.07778302               -0.07745465                0.25777602                0.00191939                0.00276264                0.00329881
               8.00121106                8.00196367               11.02859044                0.41320087               -0.07818542               -0.07819748                0.26012101                0.00097937                0.00290036               -0.00119434
               9.00042796                8.00210129               11.02839666                0.62930629               -0.07844922               -0.07863638                0.26152412                0.00033207                0.00208190               -0.00340402
               9.99964207                8.00223821               11.02817740                0.88816699               -0.07858913               -0.07899207                0.26294253               -0.00008705                0.00115193               -0.00138778
               0.00082702                8.99608382               11.02311759                0.99572673               -0.06304998               -0.06292504                0.20934497               -0.00024511               -0.00004893                0.00261051
               1.00019652                8.99622457               11.02323459                0.58844886               -0.06333465               -0.06355349                0.21123808               -0.00013034               -0.00001524                0.00213943
               1.99956032                8.99635906               11.02335064                0.06258326               -0.04305214               -0.06397862                0.21305861                0.02087836                0.00308390                0.00260973
               2.99933547                8.99690960               11.02352691                0.01809267                0.22328051               -0.16203822                0.21235707               -0.00329808                0.26218645               -0.10650484
               4.00402593                9.00051680               11.02883503                0.07827494                0.20268251               -0.07442042                0.24464853                0.24763209                0.28386995                0.08284846
               5.00338912                9.00074034               11.02884610                0.15730769               -0.06971653               -0.07537120                0.24924812                0.00426071                0.01054268                0.00551884
               6.00263160                9.00090524               11.02866853                0.26352778               -0.07648632               -0.07601371                0.25341993                0.00167644               -0.00055015                0.00421377
               7.00185940                9.00104755               11.02844229                0.41140640               -0.07762445               -0.07714548                0.25734553                0.00074586               -0.00282919                0.00208814
               8.00107911                9.00118258               11.02820287                0.62956628               -0.07824000               -0.07805285                0.26020966                0.00032504               -0.00239379               -0.00021490
               9.00029460                9.00131491               11.02797220                0.97842301               -0.07861917               -0.07860874                0.26186716                0.00009203               -0.00077986               -0.00175679
               9.99950673                9.00144718               11.02775784                0.99107129               -0.07878670               -0.07909071                0.26333311               -0.00004739                0.00009280               -0.00018287
               0.00068708                9.99545786               11.02328532                0.99994714               -0.06260732               -0.06259605                0.20785765               -0.00054237                0.00005916                0.00140663
               1.00006101                9.99559237               11.02340118                0.86328413               -0.06287056               -0.06322040                0.20974154               -0.00034558                0.00008941                0.00111784
               1.99942967                9.99572196               11.02351643                0.56254854               -0.06237038               -0.06371031                0.21154359                0.00953918               -0.00106570                0.00090363
               2.99881360                9.99604445               11.02360701                0.52782725                0.21956004               -0.08651466                0.21584867                0.14566075                0.23623934               -0.00503195
               4.00382087                9.99967891               11.02851750                0.56171696                0.22036736               -0.08378897                0.24713743                0.17646546                0.26457799                0.00477683
               5.00322095                9.99998388               11.02849416                0.60623426               -0.06639198               -0.07564600                0.24874381                0.00652503                0.00823014                0.00087093
               6.00249303               10.00014576               11.02831249                0.66763889               -0.07458501               -0.07594879                0.25309358                0.00080836               -0.00222120                0.00132021
               7.00172925               10.00027718               11.02807193                0.75530319               -0.07714225               -0.07703682                0.25729650               -0.00017203               -0.00524506                0.00088757
               8.00095019               10.00040261               11.02781498                0.88843094               -0.07820225               -0.07799735                0.26032301               -0.00029535               -0.00502404                0.00008199
               9.00016521               10.00052912               11.02756698                0.99107244               -0.07867987               -0.07857951                0.26202392               -0.00024997               -0.00277360               -0.00074877
               9.99937659               10.00065639               11.02735177                0.99756881               -0.07886136               -0.07907880                0.26348669               -0.00028650               -0.00138574                0.00025261
               0.00177684                0.00185006               12.02408516                0.78403763               -0.06498234               -0.06494855                0.21670571               -0.00031520               -0.00008247               -0.00144460
               1.00112701                0.00193041               12.02425417                0.52246366               -0.06531878               -0.06461241                0.21596944               -0.00005424               -0.00278490                0.00001546
               2.00047046                0.00200828               12.02437135                0.48154376               -0.06634611               -0.06431731                0.21646746                0.00000275               -0.00680457               -0.00017136
               2.99980009                0.00207784               12.02445010                0.50540542               -0.06726013               -0.06435457                0.21728235                0.00018206               -0.00682626               -0.00031829
               3.99912526                0.00213394               12.02455277                0.54568087               -0.06729526               -0.06440691                0.21730098                0.00015064               -0.00321541               -0.00026056
               4.99845419                0.00217900               12.02469408                0.59919683               -0.06670541               -0.06436493                0.21658613                0.00006002                0.00067192               -0.00019762
               5.99779115                0.00221809               12.02487092                0.66752919               -0.06584331               -0.06423275                0.21544733               -0.00003696                0.00370262               -0.00019583
               6.99713732                0.00225579               12.02507347                0.75338961               -0.06493858               -0.06402103                0.21408464               -0.00012910                0.00555352               -0.00029010
               7.99649238                0.00229484               12.02528929                0.86092040               -0.06409900               -0.06372742                0.21256541               -0.00019960                0.00607605               -0.00039854
               8.99585534                0.00233634               12.02550350                0.99701430               -0.06341906               -0.06336338                0.21100741               -0.00021480                0.00444257               -0.00045418
               9.99522400                0.00238059               12.02568660                1.00000000               -0.06313421               -0.06298599                0.20973050               -0.00030220                0.00292809                0.00140117
               0.00169333                1.00120057               12.02422781                0.52247197               -0.06459723               -0.06527151                0.21580216               -0.00005143               -0.00105862               -0.00459207
               1.00104736                1.00128429               12.02439944                0.01248390               -0.06482798               -0.06478310                0.21500466                0.00016253               -0.00490251               -0.00251353
               2.00039677                1.00136511               12.02449775                0.01000000               -0.06541396               -0.04238831                0.21548202                0.02180202               -0.01130683                0.01151400
               2.99973908                1.00143430               12.02454840                0.01000001               -0.06602916               -0.01771957                0.21663061                0.03931065               -0.01294221                0.02170950
               3.99907619                1.00148987               12.02461789                0.01000000               -0.06631838               -0.00331247                0.21706424                0.03349065               -0.01017154                0.02063088
               4.99841271                1.00153535               12.02472347                0.02695453               -0.06619015               -0.05223188                0.21674757                0.00804549               -0.00643408               -0.01551431
               5.99775239                1.00157576               12.02486506                0.11485594               -0.06575288               -0.06424775                0.21590733               -0.00031115               -0.00305341               -0.00793074
               6.99709765                1.00161557               12.02503445                0.23000701               -0.06511399               -0.06419360                0.21471777               -0.00042260               -0.00061674               -0.00424685
               7.99645011                1.00165756               12.02522030                0.38239861               -0.06436690               -0.06387846                0.21325352               -0.00028515                0.00049565               -0.00229367
               8.99581032                1.00170270               12.02540750                0.58907872               -0.06366898               -0.06345719                0.21164805               -0.00010509                0.00019799               -0.00084897
               9.99517673                1.00175073               12.02558395                0.86421887               -0.06335904               -0.06307092                0.21036417               -0.00012995               -0.00022368                0.00218926
               0.00160838                2.00054463               12.02430977                0.48156080               -0.06426506               -0.06632928                0.21608233                0.00002810               -0.00017832               -0.00871091
               1.00096573                2.00063475               12.02449768                0.01000000               -0.04259446               -0.06521757                0.21540304                0.02198017                0.00843425               -0.00776792
               2.00075649                2.00116051               12.02485911                0.01000001               -0.02520957               -0.02460178                0.21796329                0.09254240                0.01306934                0.01932197
               3.00046154                2.00172345               12.02508736                0.01000000               -0.05312336                0.01530003                0.22578794                0.11731700               -0.00083312                0.04827011
               3.99969402                2.00206769               12.02510025                0.01000000               -0.09661651                0.04113172                0.24317331                0.06386838               -0.04779201                0.05947152
               4.99852921                2.00113436               12.02444576                0.01000001               -0.09946621                0.03571112                0.22761747                0.04227600               -0.03796699                0.06542614
               5.99770470                2.00093314               12.02470360                0.01326797               -0.07410701                0.01428775                0.21824283                0.08782773                0.00210328                0.04585847
               6.99704707                2.00097191               12.02491511                0.01845365               -0.06525763               -0.00380876                0.21617826                0.08456209               -0.00055446                0.10715081
               7.99639955                2.00101727               12.02511192                0.01229616               -0.06434963                0.09321447                0.21416638                0.10086623               -0.00134716                0.15390092
               8.99576007                2.00106719               12.02530207                0.06170858               -0.06370968               -0.04361517                0.21218095                0.02275010               -0.00130294                0.00310006
               9.99512535                2.00111917               12.02549568                0.56235566               -0.06347216               -0.06482146                0.21093499                0.01298783               -0.00097737                0.00531287
               0.00151365                2.99987399               12.02436027                0.50543422               -0.06425755               -0.06731323                0.21670453                0.00023866               -0.00026893               -0.00843613
               1.00087108                2.99997993               12.02454506                0.01000001               -0.01773676               -0.06568390                0.21646112                0.03959950                0.01776184               -0.00966230
               2.00115892                3.00087307               12.02509061                0.01000000                0.01535823               -0.05233514                0.22565285                0.11753912                0.03983699                0.00621933
               3.00117824                3.00174030               12.02554492                0.01000000               -0.01081330               -0.01147546                0.24382275                0.12934697                0.02760142                0.03757002
               4.00094265                3.00231251               12.02574533                0.01000001               -0.03927249                0.01460862                0.26564030                0.12614651                0.01939787                0.08690118
               5.00039279                3.00224957               12.02598849                0.01000000               -0.06356325                0.08163221                0.26968084                0.13570206               -0.00707124                0.15735733
               5.99967138                3.00186152               12.02576962                0.01000000               -0.08440137                0.09755307                0.26007523                0.15193381                0.03371846                0.19062089
               6.99870476                3.00153940               12.02709974                0.01000000               -0.06496178                0.15994550                0.22509881                0.32463069                0.09452121                0.25363295
               7.99837215                3.00352185               12.02816412                0.01607676               -0.12706723                0.15235765                0.18868391                0.21348820               -0.14996350                0.14665486
               8.99616342                3.00083040               12.02528277                0.01694775               -0.15198077                0.22236582                0.21191096                0.11266738               -0.16109965                0.35746741
               9.99533253                3.00045430               12.02545343                0.52729867               -0.08308844                0.22131668                0.21322934                0.21791055               -0.00661445                0.34088809
               0.00140125                3.99919836               12.02443357                0.54572632               -0.06426219               -0.06736587                0.21653213                0.00021700               -0.00018373               -0.00494961
               1.00075863                3.99932107               12.02460959                0.01000000               -0.00271730               -0.06589287                0.21680352                0.03376091                0.01661685               -0.00710038
               2.00134691                4.00011381               12.02512110                0.01000000                0.04252033               -0.09524528                0.24290753                0.06233164                0.04974114               -0.03452049
               3.00160904                4.00149394               12.02576910                0.01000001                0.01803868               -0.04120975                0.26513356                0.12331828                0.07450967                0.03017577
               4.00170768                4.00235987               12.02657852                0.01000000                0.00425995               -0.00291123                0.28088597                0.11731951                0.07464359                0.08714696
               5.00169424                4.00276700               12.02734002                0.01000000               -0.01270694                0.03193508                0.29447715                0.12235022                0.08295397                0.13384295
               6.00145354                4.00288420               12.02811867                0.01000000                0.00925532                0.09151532                0.28151670                0.21265667                0.13551203                0.28321680
               7.00187934                4.00417082               12.03012765                0.01677541               -0.00376176                0.11881354                0.20607693                0.24153241                0.11927009                0.22490865
               8.00137831                4.00406442               12.02980728                0.01420041               -0.03991841                0.05588070                0.20761028                0.23982321                0.12710435                0.21351697
               9.00108098                4.00551451               12.03230802                0.07756783               -0.05712695                0.19934084                0.25307593                0.31914677                0.14073747                0.38157603
              10.00023577                4.00554550               12.03208694                0.56139789               -0.08452072                0.22408480                0.25514846                0.25110280                0.00563119                0.36237576
               0.00127258                4.99852667               12.02454392                0.59926579               -0.06417306               -0.06673095                0.21562466                0.00012582               -0.00010474               -0.00121164
               1.00063084                4.99866208               12.02470815                0.02700778               -0.05199496               -0.06574420                0.21639314                0.00879470               -0.01396942               -0.00358260
               2.00023268                4.99896817               12.02459440                0.01000001                0.03838529               -0.09813581                0.22781464                0.03796317                0.05503055               -0.02403612
               3.00139855                5.00091610               12.02603440                0.01000000                0.08916520               -0.06601441                0.26959426                0.12519252                0.13601797                0.00661899
               4.00201598                5.00225428               12.02733627                0.01000000                0.04584565               -0.02484374                0.29444671                0.11338389                0.11795761                0.09112655
               5.00231546                5.00288827               12.02823731                0.01000000                0.02523584                0.00341062                0.29204362                0.14198796                0.19116225                0.19740505
               6.00252070                5.00369182               12.03128327                0.01800685                0.00198611                0.02427733                0.33692804                0.12466350                0.22000455                0.24635661
               7.00235519                5.00391567               12.03143649                0.01577035               -0.03478857               -0.02246894                0.21822973                0.07666691                0.07309366                0.11432741
               8.00182493                5.00463947               12.03225511                0.07784946               -0.06449567               -0.00872662                0.25178676                0.06141608                0.06135916                0.14055703
               9.00106527                5.00481722               12.03215515                0.15752389               -0.07661596               -0.07329431                0.25310845                0.00786616                0.00864202                0.01187133
              10.00029261                5.00493599               12.03191524                0.60658781               -0.07726662               -0.06734601                0.25511669                0.00868328                0.00184917                0.01396226
               0.00113295                5.99786374               12.02468816                0.66763187               -0.06399244               -0.06577450                0.21428991                0.00002144               -0.00007666                0.00165513
               1.00049303                5.99800619               12.02484083                0.11493689               -0.06404038               -0.06533022                0.21545536                0.00036592               -0.00542104               -0.00039958
               1.99985215                5.99815109               12.02488582                0.01327311                0.01668712               -0.07370913                0.21874547                0.08211181                0.03733452                0.00973323
               3.00082677                6.00017365               12.02588952                0.01000000                0.10755234               -0.08714715                0.25919493                0.12941036                0.16402781                0.04755264
               4.00200319                6.00186299               12.02806033                0.01000000                0.11348426               -0.01046181                0.28267577                0.19279367                0.25583420                0.13149328
               5.00309646                6.00283521               12.03114932                0.01800871                0.04581102               -0.01717638                0.33381988                0.11352259                0.23928521                0.20955578
               6.00291941                6.00336974               12.03197064                0.01643951               -0.03157085               -0.04543987                0.26099443                0.07311235                0.06385908                0.06061285
               7.00246504                6.00372144               12.03198191                0.07917335               -0.06071654               -0.04802412                0.25379472                0.02504956                0.02068456                0.04587976
               8.00170508                6.00388989               12.03193577                0.15897008               -0.07616337               -0.07612355                0.25467337                0.00346719                0.01454037                0.00107126
               9.00094177                6.00404862               12.03180867                0.26457444               -0.07666000               -0.07718627                0.25537808                0.00198084                0.00652898                0.00042872
              10.00017188                6.00419858               12.03159043                0.66852792               -0.07698903               -0.07536089                0.25731840                0.00136731                0.00227237                0.00378951
               0.00098812                6.99721118               12.02485631                0.75354150               -0.06373070               -0.06473871                0.21272537               -0.00008425               -0.00010680                0.00330439
               1.00035081                6.99735547               12.02499964                0.23013034               -0.06403373               -0.06474437                0.21416314               -0.00007112               -0.00225986                0.00183708
               1.99970744                6.99749398               12.02509888                0.01846114               -0.00379752               -0.06522270                0.21661805                0.07671444                0.09806150                0.00542824
               3.00027486                6.99917316               12.02724397                0.01000000                0.17514245               -0.06907851                0.22939061                0.29067410                0.20655374                0.09467352
               4.00321029                7.00204505               12.02978620                0.01678092                0.14021509               -0.01973225                0.20259155                0.21011130                0.18852094                0.11150942
               5.00307916                7.00254474               12.03111883                0.01577691               -0.00567896               -0.04920776                0.21769070                0.06696620                0.10728937                0.05844024
               6.00309671                7.00278303               12.03174685                0.07918175               -0.03715661               -0.06718388                0.25252010                0.02271561                0.04699357                0.01098579
               7.00233603                7.00295519               12.03167152                0.15982409               -0.07648124               -0.07669995                0.25483445                0.00331370                0.01147090                0.00354987
               8.00156709                7.00311700               12.03156203                0.26609643               -0.07699174               -0.07738799                0.25648874                0.00189324                0.00874883               -0.00122309
               9.00079620                7.00327349               12.03141554                0.41284880               -0.07735258               -0.07775538                0.25791668                0.00087453                0.00454480               -0.00217614
              10.00002004                7.00342878               12.03120893                0.75631346               -0.07761588               -0.07764802                0.26000808                0.00017371                0.00189854                0.00028868
               0.00084268                7.99656897               12.02503549                0.86114588               -0.06338777               -0.06374631                0.21099462               -0.00017621               -0.00012000                0.00356365
               1.00020880                7.99671130               12.02517291                0.38258890               -0.06369660               -0.06405874                0.21258725               -0.00014805               -0.00076434                0.00271348
               1.99956875                7.99684664               12.02529611                0.01230677                0.09401938               -0.06436388                0.21453985                0.09043516                0.13064140                0.00416821
               3.00208919                7.99879208               12.02805848                0.01608592                0.16325443               -0.12176390                0.19276706                0.17667479                0.10142073               -0.12739344
               4.00283384                8.00146835               12.02942897                0.01421325                0.08043061               -0.05909120                0.20363095                0.20387867                0.17156316                0.10198563
               5.00369780                8.00185106               12.03158498                0.07787404                0.00647218               -0.07215634                0.24801886                0.05258187                0.12039284                0.04602857
               6.00296328                8.00202607               12.03149304                0.15901322               -0.07502285               -0.07557637                0.25213047                0.00305960                0.00663227                0.00781276
               7.00219734                8.00218745               12.03134422                0.26614775               -0.07693185               -0.07666213                0.25522392                0.00182993                0.00381851                0.00292331
               8.00142464                8.00234213               12.03117926                0.41397180               -0.07749307               -0.07750658                0.25786277                0.00106591                0.00317838               -0.00093625
               9.00064748                8.00249352               12.03100318                0.63056772               -0.07799268               -0.07813965                0.25993929                0.00042899                0.00194059               -0.00272805
               9.99986479                8.00264562               12.03080275                0.88878017               -0.07826939               -0.07861368                0.26216998               -0.00008135                0.00101751               -0.00065349
               0.00069993                8.99593625               12.02521024                0.99735054               -0.06297565               -0.06292262                0.20921346               -0.00022122               -0.00005698                0.00224389
               1.00007018                8.99607430               12.02534499                0.58938181               -0.06322869               -0.06339698                0.21085883               -0.00008194               -0.00007198                0.00182052
               1.99943536                8.99620671               12.02547808                0.06175568               -0.04417636               -0.06375394                0.21244845                0.02007005                0.00219850                0.00208369
               2.99918665                8.99673788               12.02565554                0.01701723                0.23967647               -0.14490807                0.21367521                0.06235243                0.27571805               -0.13157565
               4.00422889                9.00086322               12.03130050                0.07765058                0.21932144               -0.07182303                0.24653161                0.27671732                0.30267399                0.11195160
               5.00357308                9.00110162               12.03133186                0.15761012               -0.07036857               -0.07525333                0.24808912                0.00556261                0.01210154                0.00541950
               6.00282152                9.00127150               12.03119240                0.26472140               -0.07582575               -0.07556653                0.25162956                0.00165588                0.00162281                0.00339277
               7.00205657                9.00142195               12.03100482                0.41306847               -0.07695920               -0.07661512                0.25541989                0.00081528               -0.00118077                0.00162998
               8.00128234                9.00156686               12.03079660                0.63081030               -0.07776409               -0.07761713                0.25869396                0.00042017               -0.00171211               -0.00036011
               9.00050128                9.00171070               12.03058750                0.97734477               -0.07840672               -0.07839682                0.26120536                0.00015101               -0.00072363               -0.00170205
               9.99971420                9.00185650               12.03039259                0.99023940               -0.07870828               -0.07908552                0.26350342               -0.00014269                0.00007637               -0.00013073
               0.00056216                9.99531052               12.02536333                1.00000000               -0.06254539               -0.06257355                0.20775231               -0.00049297                0.00001114                0.00118014
               0.99993671                9.99544336               12.02549696                0.86441227               -0.06277995               -0.06309391                0.20941048               -0.00029469               -0.00000862                0.00093511
               1.99930656                9.99557156               12.02562897                0.56239039               -0.06284947               -0.06351438                0.21095923                0.00964845                0.00011654                0.00071427
               2.99867972                9.99589392               12.02576266                0.52736552                0.23489420               -0.08439594                0.21442705                0.17232300                0.25426291               -0.00420486
               4.00400445               10.00003189               12.03099189                0.56148161                0.23605289               -0.08313380                0.24756094                0.20015923                0.27845644                0.00390880
               5.00340078               10.00034599               12.03098327                0.60665972               -0.06641905               -0.07556233                0.24891707                0.00691220                0.00936637                0.00076656
               6.00267607               10.00051474               12.03083920                0.66864676               -0.07412466               -0.07567640                0.25237053                0.00091230                0.00006897                0.00100370
               7.00191828               10.00065514               12.03063918                0.75650015               -0.07658878               -0.07668025                0.25629086               -0.00007554               -0.00344341                0.00063217
               8.00114429               10.00078979               12.03041486                0.88902644               -0.07787097               -0.07770776                0.25968870               -0.00028249               -0.00429990               -0.00004909
               9.00036086               10.00092558               12.03018901                0.99024038               -0.07869814               -0.07851188                0.26226339               -0.00033568               -0.00272383               -0.00076301
               9.99957033               10.00106391               12.02999325                0.99757076               -0.07905359               -0.07925913                0.26456316               -0.00055416               -0.00136335                0.00027676
               0.00161194                0.00169844               13.02625580                0.78456473               -0.06508032               -0.06504855                0.21732680               -0.00033564                0.00011261               -0.00130524
               1.00096114                0.00179113               13.02641636                0.52314345               -0.06516041               -0.06478049                0.21642826                0.00007211               -0.00199783                0.00016216
               2.00030873                0.00188567               13.02653647                0.48165796               -0.06582307               -0.06439402                0.21657441                0.00002692               -0.00538019               -0.00010566
               2.99964468                0.00198026               13.02662225                0.50511344               -0.06670440               -0.06437886                0.21716113                0.00014656               -0.00566830               -0.00024208
               3.99897465                0.00206783               13.02672526                0.54507664               -0.06694017               -0.06439321                0.21717792                0.00013495               -0.00276354               -0.00021871
               4.99830587                0.00214705               13.02685989                0.59841773               -0.06657183               -0.06433764                0.21653855                0.00007100                0.00062135               -0.00018465
               5.99764321                0.00221980               13.02702547                0.66676184               -0.06584760               -0.06419609                0.21543205               -0.00001064                0.00340224               -0.00019423
               6.99698892                0.00228883               13.02721408                0.75290242               -0.06498051               -0.06397099                0.21403445               -0.00009785                0.00512512               -0.00028195
               7.99634360                0.00235648               13.02741426                0.86112563               -0.06411574               -0.06366230                0.21245160               -0.00016950                0.00559169               -0.00038400
               8.99570661                0.00242448               13.02761269                0.99842074               -0.06339793               -0.06329330                0.21084610               -0.00019653                0.00410317               -0.00047459
               9.99507564                0.00249401               13.02778305                1.00000000               -0.06309667               -0.06291783                0.20956102               -0.00027177                0.00273936                0.00137365
               0.00151590                1.00104796               13.02638836                0.52315160               -0.06476569               -0.06511627                0.21626817                0.00007214               -0.00095078               -0.00388427
               1.00086824                1.00114332               13.02655100                0.01267557               -0.06507337               -0.06503065                0.21532105                0.00059325               -0.00418836               -0.00171940
               2.00021443                1.00124173               13.02665201                0.01000000               -0.06565894               -0.04134322                0.21544373                0.02383751               -0.00958005                0.01325104
               2.99955507                1.00133648               13.02671266                0.01000001               -0.06609150               -0.01412277                0.21629791                0.04316162               -0.01109624                0.02716263
               3.99889260                1.00142389               13.02678631                0.01000000               -0.06622348                0.00239226                0.21666324                0.03755768               -0.00893977                0.03381905
               4.99823060                1.00150367               13.02688903                0.02576477               -0.06601979               -0.04931892                0.21638108                0.01032372               -0.00580009               -0.00956431
               5.99757221                1.00157784               13.02702240                0.11350411               -0.06554966               -0.06414393                0.21557079               -0.00003861               -0.00287129               -0.00699047
               6.99691960                1.00164913               13.02717982                0.22875709               -0.06490624               -0.06408179                0.21437801               -0.00019826               -0.00078232               -0.00387117
               7.99627408                1.00171986               13.02735091                0.38174758               -0.06418629               -0.06378245                0.21290312               -0.00015698                0.00009526               -0.00219501
               8.99563588                1.00179154               13.02752226                0.58976922               -0.06353489               -0.06336663                0.21132294               -0.00006054               -0.00013194               -0.00092211
               9.99500339                1.00186483               13.02768600                0.86503571               -0.06324913               -0.06298358                0.21005003               -0.00009648               -0.00040461                0.00213016
               0.00142265                2.00039612               13.02647114                0.48167453               -0.06434275               -0.06580600                0.21620878                0.00004724               -0.00011450               -0.00737680
               1.00077923                2.00049051               13.02665113                0.01000000               -0.04151627               -0.06547209                0.21536026                0.02398293                0.01006326               -0.00592536
               2.00059233                2.00105881               13.02703631                0.01000001               -0.02267403               -0.02215836                0.21703390                0.10191913                0.01833685                0.02477140
               3.00032575                2.00169781               13.02735183                0.01000000               -0.05168626                0.02321755                0.22625135                0.13264322                0.01228030                0.06158499
               3.99955860                2.00211567               13.02752801                0.01000000               -0.09836729                0.04993276                0.23463186                0.07449140               -0.04338192                0.08915771
               4.99835840                2.00116067               13.02673015                0.01000001               -0.10308116                0.04166292                0.22780999                0.04654936               -0.04796884                0.09686776
               5.99749698                2.00093692               13.02688277                0.01266062               -0.07577320                0.02490945                0.21759018                0.08508817               -0.00291376                0.07854181
               6.99684294                2.00100720               13.02707288                0.01776439               -0.06494701               -0.02144886                0.21546155                0.07903771               -0.00141993                0.06655421
               7.99619804                2.00108083               13.02725024                0.01148114               -0.06412579                0.03950366                0.21355390                0.08341306               -0.00212319                0.10693675
               8.99556042                2.00115714               13.02742148                0.06099882               -0.06354570               -0.04453669                0.21174156                0.02132291               -0.00176693                0.00315017
               9.99492713                2.00123434               13.02760260                0.56216761               -0.06332946               -0.06480933                0.21048296                0.01224806               -0.00114790                0.00569893
               0.00132805                2.99973184               13.02652679                0.50514143               -0.06428415               -0.06674905                0.21661098                0.00019636               -0.00019077               -0.00735474
               1.00068521                2.99983388               13.02670758                0.01000001               -0.01412660               -0.06576353                0.21612018                0.04337383                0.02304545               -0.00770517
               2.00104552                3.00079857               13.02735381                0.01000000                0.02329272               -0.05096864                0.22614103                0.13268538                0.05290516                0.01944010
               3.00115107                3.00180083               13.02799321                0.01000000               -0.00629742               -0.00697709                0.23582873                0.14507194                0.04993272                0.05969085
               4.00091957                3.00242255               13.02848743                0.01000001               -0.04053673                0.01629690                0.28051391                0.13256952                0.04409276                0.11512839
               5.00034033                3.00233693               13.02876178                0.01000000               -0.07460664                0.08777760                0.28972647                0.14962426                0.01283857                0.19081445
               5.99942744                3.00207603               13.02858552                0.01000001               -0.09919427                0.09549170                0.28817110                0.14818569               -0.01568290                0.21288375
               6.99835645                3.00122015               13.02844389                0.01000000               -0.08175199                0.15746111                0.18539922                0.28113185                0.01887595                0.25614731
               7.99779240                3.00250993               13.02936712                0.01517906               -0.12238091                0.14743615                0.15849906                0.24950650               -0.09235796                0.20212552
               8.99590883                3.00090081               13.02741040                0.01612903               -0.13492249                0.23641093                0.21241802                0.19163090               -0.11417307                0.37758428
               9.99509395                3.00056865               13.02757492                0.52693487               -0.08148774                0.23507158                0.21168357                0.24555806               -0.00659316                0.36307867
               0.00122250                3.99906114               13.02659856                0.54512089               -0.06425207               -0.06699808                0.21644453                0.00019416               -0.00013786               -0.00457291
               1.00057998                3.99917524               13.02677534                0.01000000                0.00282970               -0.06581877                0.21639131                0.03776524                0.02959383               -0.00575674
               2.00127909                4.00003944               13.02754673                0.01000000                0.05116126               -0.09705906                0.23446414                0.07294156                0.07895269               -0.02990668
               3.00160320                4.00155827               13.02850559                0.01000001                0.01974013               -0.04233711                0.27996770                0.13000228                0.10218779                0.05469506
               4.00167389                4.00244161               13.02941981                0.01000000                0.00471026               -0.00230989                0.29642101                0.12342585                0.08609613                0.09944204
               5.00169741                4.00291622               13.03017682                0.01000000               -0.00482089                0.02769091                0.28590798                0.11212370                0.07744600                0.14687920
               6.00157747                4.00284676               13.03092205                0.01000000                0.01671324                0.09064170                0.27195437                0.23958627                0.12549716                0.24553704
               7.00203167                4.00415642               13.03243662                0.01560563               -0.00349828                0.14502350                0.22994998                0.26834344                0.06675036                0.25222316
               8.00150751                4.00402956               13.03205844                0.01328926               -0.03486730                0.12377129                0.22197481                0.30022881                0.12497159                0.26917736
               9.00133432                4.00588536               13.03483720                0.07698770               -0.05024498                0.21410879                0.25224924                0.36534801                0.15309479                0.39990893
              10.00050261                4.00593577               13.03463836                0.56113388               -0.08317148                0.23758956                0.25483771                0.27730775                0.00531554                0.38269019
               0.00110372                4.99839187               13.02670035                0.59848490               -0.06415058               -0.06658631                0.21562082                0.00013012               -0.00008650               -0.00133786
               1.00046222                4.99851750               13.02687009                0.02581750               -0.04911971               -0.06559441                0.21601406                0.01098777               -0.00809077               -0.00283694
               2.00012133                4.99885738               13.02687942                0.01000001                0.04433601               -0.10178661                0.22778542                0.04263194                0.08566608               -0.03348719
               3.00134894                5.00095408               13.02880018                0.01000000                0.09544043               -0.07684407                0.28807641                0.14017477                0.16848794                0.02632415
               4.00203014                5.00237635               13.03017054                0.01000000                0.04143606               -0.01625230                0.28575014                0.10441729                0.12930574                0.08798317
               5.00217766                5.00289075               13.03148002                0.01000000                0.04744134                0.02422113                0.28986070                0.14927594                0.15914975                0.16631227
               6.00297896                5.00388886               13.03332900                0.01663113                0.01814284                0.03576216                0.21092022                0.13030721                0.11940280                0.15399005
               7.00254051                5.00412062               13.03335037                0.01458825               -0.04554640               -0.00504785                0.21111833                0.08717374                0.08601311                0.12169710
               8.00206804                5.00498536               13.03477257                0.07714037               -0.06154712                0.01069330                0.25096906                0.07406248                0.08907409                0.15461317
               9.00130957                5.00518299               13.03468021                0.15758628               -0.07643763               -0.07332928                0.25199447                0.00845268                0.00752926                0.01175267
              10.00053928                5.00532044               13.03446507                0.60679494               -0.07702894               -0.06750520                0.25475270                0.00866820                0.00163459                0.01381008
               0.00097384                5.99772941               13.02683141                0.66686193               -0.06396182               -0.06577445                0.21432755                0.00004207               -0.00006888                0.00127695
               1.00033422                5.99786335               13.02699358                0.11358444               -0.06393456               -0.06514520                0.21510669                0.00059340               -0.00435692               -0.00010737
               1.99969515                5.99800370               13.02706949                0.01266567                0.02767528               -0.07535617                0.21798798                0.07975370                0.06882419                0.00518393
               3.00088773                6.00002139               13.02869033                0.01000001                0.10652137               -0.10058502                0.28552664                0.12802607                0.18478595               -0.00047935
               4.00182558                6.00211656               13.03086246                0.01000000                0.11413426               -0.00289199                0.27267484                0.21879554                0.21764973                0.12201497
               5.00317041                6.00340064               13.03317386                0.01663294                0.05640857               -0.00133902                0.21022299                0.12148902                0.14086494                0.11719654
               6.00295375                6.00356200               13.03356407                0.01514319               -0.02458812               -0.03808568                0.18723904                0.04765532                0.07323378                0.06910720
               7.00267865                6.00405546               13.03449863                0.07820336               -0.05136779               -0.04076443                0.25091268                0.03368978                0.06522797                0.07595682
               8.00192639                6.00424342               13.03447031                0.15866837               -0.07551760               -0.07533899                0.25249976                0.00334834                0.01344489                0.00183163
               9.00116830                6.00441878               13.03435395                0.26537939               -0.07626634               -0.07666877                0.25389992                0.00195842                0.00560657                0.00157995
              10.00040106                6.00458567               13.03415940                0.66921513               -0.07672333               -0.07499814                0.25655748                0.00140003                0.00193909                0.00489541
               0.00083667                6.99707639               13.02698364                0.75305060               -0.06368830               -0.06478582                0.21273857               -0.00005739               -0.00009042                0.00279203
               1.00019979                6.99721460               13.02713940                0.22887987               -0.06391513               -0.06455017                0.21381364                0.00013037               -0.00178538                0.00177545
               1.99955837                6.99735026               13.02726053                0.01777172               -0.02015967               -0.06490026                0.21580265                0.07285091                0.05793073                0.00480314
               2.99979660                6.99894238               13.02860701                0.01000000                0.17342097               -0.08478081                0.18552562                0.25066931                0.21166084                0.02058624
               4.00302679                7.00231851               13.03208405                0.01561105                0.16827022               -0.02119168                0.23020421                0.23498709                0.20975201                0.06219092
               5.00316200                7.00286397               13.03302568                0.01459482                0.01252287               -0.06009042                0.21069289                0.07530944                0.11082151                0.07209688
               6.00327725                7.00312715               13.03425131                0.07821130               -0.03145570               -0.05926289                0.24970921                0.03138685                0.07629313                0.05541496
               7.00253289                7.00330533               13.03420737                0.15929634               -0.07527789               -0.07551019                0.25245937                0.00273015                0.01154004                0.00357448
               8.00177169                7.00347858               13.03411500                0.26631805               -0.07631963               -0.07665274                0.25436650                0.00167795                0.00797306               -0.00072467
               9.00100649                7.00364961               13.03398573                0.41420346               -0.07690960               -0.07720010                0.25634730                0.00084426                0.00398549               -0.00110572
              10.00023350                7.00382048               13.03380371                0.75724119               -0.07729968               -0.07721001                0.25906547                0.00019726                0.00162768                0.00141538
               0.00069626                7.99643369               13.02714511                0.86134575               -0.06333091               -0.06377649                0.21095156               -0.00014889               -0.00009212                0.00298278
               1.00006295                7.99657235               13.02729679                0.38193800               -0.06359402               -0.06388376                0.21222687               -0.00002698               -0.00058878                0.00240343
               1.99942438                7.99670570               13.02743762                0.01149157                0.04349534               -0.06411955                0.21382539                0.07443955                0.08510817                0.00360598
               3.00093286                7.99832577               13.02930044                0.01518808                0.15896761               -0.11842404                0.16069892                0.21089236                0.15431624               -0.07059373
               4.00260374                8.00169273               13.03165244                0.01330172                0.14675508               -0.05628002                0.22015647                0.26246828                0.21695509                0.09976772
               5.00386796                8.00219883               13.03406525                0.07716368                0.02681927               -0.07067653                0.24732287                0.06306337                0.13337246                0.07274140
               6.00314012                8.00237674               13.03400282                0.15870880               -0.07430695               -0.07501044                0.25008444                0.00301421                0.00743506                0.00667637
               7.00238182                8.00254526               13.03388487                0.26636604               -0.07622255               -0.07600701                0.25316565                0.00161576                0.00435491                0.00212197
               8.00161567                8.00271037               13.03374770                0.41476542               -0.07692690               -0.07694003                0.25605296                0.00100058                0.00321735               -0.00091784
               9.00084329                8.00287477               13.03359544                0.63180791               -0.07761971               -0.07772834                0.25866739                0.00043684                0.00176522               -0.00219805
              10.00006328                8.00304147               13.03342080                0.88931476               -0.07800103               -0.07832082                0.26148697               -0.00010191                0.00088945               -0.00008951
               0.00055638                8.99580086               13.02730186                0.99874965               -0.06291341               -0.06292053                0.20912116               -0.00020373               -0.00005851                0.00181983
               0.99992725                8.99593692               13.02745177                0.59007408               -0.06313181               -0.06326102                0.21051561               -0.00003714               -0.00009841                0.00155253
               1.99929374                8.99606787               13.02759961                0.06105142               -0.04499171               -0.06356271                0.21190691                0.01894493                0.00256896                0.00174449
               2.99902741                8.99657390               13.02780041                0.01620193                0.25546737               -0.12898282                0.21399627                0.13640640                0.29168569               -0.08559027
               4.00440309                9.00119291               13.03376566                0.07707141                0.23559222               -0.06592133                0.24603883                0.32210944                0.31648911                0.12315593
               5.00373926                9.00145044               13.03380788                0.15766797               -0.07059930               -0.07512221                0.24720699                0.00635163                0.01213396                0.00428647
               6.00299111                9.00162694               13.03370112                0.26551807               -0.07538396               -0.07522615                0.25033196                0.00165694                0.00279625                0.00247191
               7.00223158                9.00178519               13.03355068                0.41440991               -0.07644588               -0.07620822                0.25397575                0.00078673               -0.00009867                0.00106940
               8.00146219                9.00193978               13.03337675                0.63203468               -0.07737228               -0.07726318                0.25748582                0.00042740               -0.00117459               -0.00054029
               9.00068413                9.00209504               13.03319631                0.97651912               -0.07820584               -0.07819639                0.26058536                0.00016655               -0.00062535               -0.00160547
               9.99989807                9.00225406               13.03302791                0.98957028               -0.07860605               -0.07904313                0.26347664               -0.00022060                0.00008377               -0.00002643
               0.00042005                9.99517528               13.02744037                1.00000000               -0.06248531               -0.06255736                0.20765061               -0.00044798               -0.00006615                0.00092969
               0.99979520                9.99530713               13.02758939                0.86523030               -0.06268738               -0.06297943                0.20907670               -0.00024663               -0.00013503                0.00079774
               1.99916630                9.99543444               13.02773562                0.56220664               -0.06296259               -0.06334255                0.21041315                0.00920516                0.00052717                0.00059578
               2.99853595                9.99574611               13.02789555                0.52700544                0.25015439               -0.08277901                0.21276085                0.19784653                0.27166176               -0.00428168
               4.00416939               10.00037430               13.03346872                0.56121849                0.25125096               -0.08186083                0.24754041                0.22414394                0.29392491                0.00366148
               5.00356097               10.00069639               13.03347250                0.60686309               -0.06654429               -0.07540457                0.24882961                0.00706681                0.00929260                0.00054914
               6.00283851               10.00087222               13.03335990                0.66932751               -0.07381222               -0.07547220                0.25184542                0.00097544                0.00116324                0.00067759
               7.00208472               10.00102110               13.03319775                0.75741687               -0.07620709               -0.07640929                0.25553394               -0.00004125               -0.00233219                0.00036780
               8.00131436               10.00116511               13.03300876                0.88954488               -0.07761928               -0.07746740                0.25913263               -0.00029477               -0.00374319               -0.00017550
               9.00053234               10.00131085               13.03281225                0.98957120               -0.07867676               -0.07841961                0.26230006               -0.00040444               -0.00262283               -0.00075399
               9.99974083               10.00146061               13.03264304                0.99761182               -0.07915069               -0.07934539                0.26519583               -0.00074818               -0.00131872                0.00032434
               0.00145796                0.00155882               14.02843169                0.78495849               -0.06515846               -0.06512847                0.21778360               -0.00033670                0.00026888               -0.00119820
               1.00080638                0.00166438               14.02858273                0.52366725               -0.06505001               -0.06492474                0.21680992                0.00016925               -0.00134809                0.00027510
               2.00015696                0.00177509               14.02870284                0.48176293               -0.06542187               -0.06447947                0.21670422                0.00004486               -0.00411880               -0.00006237
               2.99949794                0.00189219               14.02879333                0.50489742               -0.06623077               -0.06442147                0.21706618                0.00011098               -0.00452167               -0.00018632
               3.99883235                0.00200747               14.02889632                0.54458911               -0.06657733               -0.06439700                0.21702770                0.00010951               -0.00219787               -0.00018545
               4.99816640                0.00211703               14.02902485                0.59776268               -0.06636707               -0.06432237                0.21642716                0.00006585                0.00068146               -0.00017154
               5.99750501                0.00222035               14.02917957                0.66610845               -0.06576797               -0.06416947                0.21536199               -0.00000132                0.00314345               -0.00018826
               6.99685104                0.00231867               14.02935416                0.75250197               -0.06497053               -0.06393219                0.21397532               -0.00007919                0.00467988               -0.00026966
               7.99620560                0.00241385               14.02953832                0.86133427               -0.06412135               -0.06361622                0.21239024               -0.00015021                0.00506646               -0.00036632
               8.99556861                0.00250772               14.02972043                0.99962276               -0.06337646               -0.06322457                0.21071940               -0.00018682                0.00372756               -0.00047149
               9.99493807                0.00260216               14.02987782                1.00000000               -0.06305417               -0.06283759                0.20939758               -0.00024957                0.00250824                0.00134416
               0.00134904                1.00090754               14.02855317                0.52367525               -0.06491037               -0.06500828                0.21665660                0.00016702               -0.00087181               -0.00330517
               1.00069994                1.00101513               14.02870586                0.01284343               -0.06527677               -0.06523599                0.21564435                0.00091023               -0.00360017               -0.00106170
               2.00004351                1.00113029               14.02880663                0.01000000               -0.06585390               -0.04104708                0.21551528                0.02492004               -0.00808176                0.01432151
               2.99938286                1.00124797               14.02887436                0.01000001               -0.06612422               -0.01087950                0.21609061                0.04753505               -0.00939022                0.03261693
               3.99872102                1.00136350               14.02895116                0.01000000               -0.06611236                0.00711256                0.21633851                0.04207745               -0.00771121                0.03915047
               4.99806061                1.00147380               14.02905110                0.02480297               -0.06584257               -0.04590334                0.21604495                0.01319137               -0.00511851               -0.00392952
               5.99740417                1.00157865               14.02917648                0.11239245               -0.06535597               -0.06397470                0.21525247                0.00021139               -0.00264308               -0.00606534
               6.99675350                1.00167935               14.02932201                0.22773160               -0.06473012               -0.06398748                0.21407627               -0.00004019               -0.00090377               -0.00351362
               7.99610957                1.00177768               14.02947836                0.38121298               -0.06404542               -0.06370253                0.21262663               -0.00004951               -0.00024688               -0.00210199
               8.99547259                1.00187548               14.02963396                0.59024318               -0.06342163               -0.06328356                0.21104057               -0.00000730               -0.00040795               -0.00095658
               9.99484114                1.00197378               14.02978495                0.86560900               -0.06314496               -0.06289616                0.20975290               -0.00006553               -0.00056004                0.00205359
               0.00124612                2.00025866               14.02863394                0.48177908               -0.06442930               -0.06540324                0.21635591                0.00006087               -0.00007268               -0.00619704
               1.00060183                2.00035966               14.02880489                0.01000000               -0.04117998               -0.06567573                0.21542784                0.02502595                0.01103947               -0.00432692
               2.00042252                2.00095415               14.02919979                0.01000001               -0.01931958               -0.01894227                0.21613886                0.11014077                0.02359991                0.03021796
               3.00021544                2.00167460               14.02961239                0.01000000               -0.04872283                0.02661915                0.22243623                0.14279900                0.01777967                0.06626948
               3.99944807                2.00214972               14.02979288                0.01000000               -0.10001847                0.06798889                0.22633517                0.09296384               -0.04210321                0.12036392
               4.99821507                2.00119896               14.02900196                0.01000001               -0.10721885                0.05726914                0.22629773                0.06409976               -0.04934212                0.14105698
               5.99730369                2.00094085               14.02905540                0.01223829               -0.07819333                0.02506319                0.21684597                0.10557025               -0.00751023                0.11828446
               6.99665120                2.00103892               14.02922434                0.01727720               -0.06476042               -0.01903732                0.21485175                0.08730621               -0.00212673                0.07740514
               7.99600848                2.00113980               14.02938300                0.01086273               -0.06394167                0.04892357                0.21304511                0.08260168               -0.00268475                0.09855158
               8.99537237                2.00124205               14.02953690                0.06037042               -0.06341663               -0.04545554                0.21139460                0.02020029               -0.00206307                0.00315870
               9.99474015                2.00134423               14.02970534                0.56195577               -0.06322202               -0.06468310                0.21013486                0.01174333               -0.00124249                0.00585716
               0.00114826                2.99959947               14.02869249                0.50492468               -0.06432921               -0.06626557                0.21654046                0.00015463               -0.00013315               -0.00627847
               1.00050497                2.99970162               14.02886746                0.01000001               -0.01084388               -0.06581186                0.21590557                0.04762405                0.02836789               -0.00590285
               2.00093138                3.00075145               14.02961343                0.01000000                0.02691492               -0.04820444                0.22234968                0.14259650                0.05738771                0.02514762
               3.00104327                3.00178036               14.03026149                0.01000000                0.00622763                0.00531414                0.22958039                0.17680531                0.07555778                0.08516874
               4.00105594                3.00272328               14.03135561                0.01307969               -0.02458964                0.02579395                0.25152962                0.15745700                0.08313084                0.15491370
               5.00055148                3.00261919               14.03178302                0.01000000               -0.06901606                0.08936950                0.25624786                0.14412464                0.02056094                0.22161596
               5.99967562                3.00207992               14.03153304                0.01000001               -0.11253989                0.10553006                0.33934601                0.15397039               -0.02157852                0.30672518
               6.99830068                3.00129860               14.03080772                0.01000000               -0.10585702                0.16349427                0.28328293                0.30514946                0.00134988                0.31945411
               7.99755848                3.00275616               14.03133410                0.01451471               -0.13142604                0.14513613                0.20046075                0.25682195               -0.07306297                0.25248037
               8.99567216                3.00096636               14.02953113                0.01550977               -0.13434182                0.25004195                0.21215014                0.20572755               -0.10449262                0.39783350
               9.99487164                3.00068012               14.02968710                0.52665229               -0.08005178                0.24824619                0.21083179                0.27135638               -0.00561914                0.38468790
               0.00104493                3.99893335               14.02876246                0.54463219               -0.06425961               -0.06662090                0.21632577                0.00016205               -0.00010096               -0.00407637
               1.00040234                3.99904342               14.02893742                0.01000000                0.00753905               -0.06572609                0.21605644                0.04208470                0.03478658               -0.00442989
               2.00119571                3.99999006               14.02981038                0.01000000                0.06886896               -0.09878933                0.22619131                0.09109940                0.10992998               -0.02841482
               3.00177972                4.00178088               14.03136846                0.01308070                0.02813308               -0.02612572                0.25109096                0.15547339                0.14269012                0.09193902
               4.00175838                4.00266560               14.03250694                0.01000000               -0.00193975               -0.00759906                0.25416906                0.10358941                0.09038189                0.10279725
               5.00174092                4.00298635               14.03305818                0.01000001               -0.00273473                0.02991413                0.25685312                0.10871890                0.04003236                0.11643641
               6.00170368                4.00305146               14.03355775                0.01000000                0.01685163                0.10248394                0.29450879                0.23426194                0.07966440                0.24681872
               7.00207795                4.00430881               14.03472665                0.01467521               -0.01132609                0.14944997                0.24570741                0.26611302                0.01076532                0.22349400
               8.00147716                4.00404252               14.03424677                0.01255722               -0.02574974                0.12818533                0.21861227                0.33260886                0.13314825                0.30709191
               9.00156296                4.00624289               14.03735300                0.07648311               -0.03686943                0.22845778                0.25097570                0.40589185                0.16803456                0.41793572
              10.00073977                4.00630916               14.03718369                0.56088088               -0.08231883                0.25055166                0.25412757                0.30082309                0.00502550                0.40252164
               0.00093136                4.99826706               14.02885633                0.59782815               -0.06414033               -0.06636804                0.21554853                0.00011869               -0.00006857               -0.00134667
               1.00028995                4.99838709               14.02902843                0.02485513               -0.04577212               -0.06543470                0.21566610                0.01370405               -0.00258320               -0.00205521
               2.00001591                4.99877566               14.02915011                0.01000001                0.05936211               -0.10581951                0.22615395                0.06034565                0.12822189               -0.03446867
               3.00147719                5.00125784               14.03179593                0.01000000                0.09531707               -0.07118244                0.25424518                0.13727190                0.19937644                0.03098478
               4.00192225                5.00257130               14.03305127                0.01000001                0.04314012               -0.01379107                0.25648630                0.10369544                0.09962845                0.05187806
               5.00234000                5.00321747               14.03403452                0.01000000                0.05580717                0.03235660                0.26619874                0.15147603                0.13070512                0.14136935
               6.00303840                5.00412960               14.03550167                0.01550096                0.01459390                0.03890578                0.22248384                0.12128857                0.08488505                0.13589870
               7.00263188                5.00428760               14.03565886                0.01359232               -0.03809134                0.00373880                0.23247303                0.09878366                0.09688271                0.12700665
               8.00227657                5.00531986               14.03727449                0.07650120               -0.05542591                0.02707875                0.24943945                0.09447081                0.09593735                0.16954903
               9.00152336                5.00553552               14.03719504                0.15751226               -0.07605022               -0.07340955                0.25103736                0.00865709                0.00641684                0.01104068
              10.00075557                5.00569115               14.03701029                0.60686817               -0.07677904               -0.06756516                0.25427746                0.00856284                0.00139588                0.01301638
               0.00080723                5.99760599               14.02897471                0.66620604               -0.06394195               -0.06568664                0.21430542                0.00004568               -0.00005705                0.00094948
               1.00016781                5.99773473               14.02914296                0.11247203               -0.06376758               -0.06496596                0.21477649                0.00079736               -0.00332293                0.00022313
               1.99953188                5.99787367               14.02924558                0.01224325                0.02808538               -0.07768726                0.21714791                0.10025204                0.10630238                0.00107620
               3.00072952                6.00035723               14.03160005                0.01000001                0.11703880               -0.11415343                0.33461546                0.13617354                0.27383082               -0.00739403
               4.00187266                6.00238978               14.03351382                0.01000000                0.12413104               -0.00362070                0.29798672                0.21703312                0.20934340                0.07782762
               5.00321214                6.00363348               14.03535378                0.01550274                0.05933314               -0.00610868                0.22309659                0.11140620                0.11666339                0.08705226
               6.00305932                6.00382957               14.03571542                0.01403631               -0.01743900               -0.03385077                0.22930109                0.05762944                0.08723444                0.08488120
               7.00286336                6.00438358               14.03700017                0.07734023               -0.04703307               -0.03235819                0.24947549                0.04128968                0.08049278                0.08500682
               8.00211866                6.00458409               14.03698576                0.15834044               -0.07492741               -0.07473730                0.25083432                0.00313643                0.01191138                0.00191462
               9.00136481                6.00477470               14.03688666                0.26589704               -0.07594456               -0.07628149                0.25281314                0.00187982                0.00473176                0.00202145
              10.00059977                6.00495785               14.03672158                0.66966683               -0.07650463               -0.07477308                0.25594288                0.00136892                0.00162885                0.00522780
               0.00067479                6.99695332               14.02911108                0.75264652               -0.06365708               -0.06477884                0.21273779               -0.00004304               -0.00006996                0.00227468
               1.00003822                6.99708777               14.02927591                0.22785379               -0.06381694               -0.06438639                0.21350197                0.00026470               -0.00133765                0.00175428
               1.99939845                6.99722192               14.02941493                0.01728444               -0.01768310               -0.06469944                0.21510027                0.08111864                0.06755449                0.00432486
               2.99968456                6.99897477               14.03095448                0.01000000                0.17941080               -0.10852113                0.27883266                0.27540667                0.27372811                0.00365449
               4.00298667                7.00249888               14.03439028                0.01468049                0.17218862               -0.03038454                0.25143078                0.23280005                0.17355014                0.01132130
               5.00312833                7.00309530               14.03533268                0.01359905                0.02271102               -0.05549002                0.23159024                0.08782166                0.10932700                0.08195883
               6.00344089                7.00345258               14.03674104                0.07734768               -0.02125908               -0.05598912                0.24831379                0.03890903                0.08430365                0.07057569
               7.00270315                7.00364044               14.03672071                0.15880240               -0.07463505               -0.07485079                0.25052199                0.00243685                0.01092810                0.00291586
               8.00194819                7.00382512               14.03664936                0.26648001               -0.07579757               -0.07610337                0.25275293                0.00146061                0.00712729               -0.00059290
               9.00118720                7.00400989               14.03654249                0.41527528               -0.07657748               -0.07678593                0.25519342                0.00077232                0.00343923               -0.00048692
              10.00041664                7.00419569               14.03639023                0.75794209               -0.07705595               -0.07691089                0.25833353                0.00018484                0.00138332                0.00202093
               0.00053747                7.99631041               14.02925452                0.86154931               -0.06329557               -0.06379694                0.21096500               -0.00013363               -0.00006227                0.00237180
               0.99990451                7.99644700               14.02941744                0.38140333               -0.06351068               -0.06375122                0.21194807                0.00007555               -0.00042686                0.00214812
               1.99926726                7.99657968               14.02957262                0.01087301                0.05280874               -0.06391611                0.21322189                0.07397295                0.07653502                0.00324698
               3.00096069                7.99818681               14.03127246                0.01452361                0.15704393               -0.12719029                0.20086398                0.21860814                0.20010797               -0.05033373
               4.00240813                8.00178209               14.03383210                0.01256949                0.15270931               -0.04944091                0.21767828                0.29507044                0.25191726                0.10695819
               5.00401487                8.00252368               14.03653144                0.07652329                0.04421112               -0.06576030                0.24595893                0.08398381                0.14641344                0.07847515
               6.00329236                8.00270979               14.03649473                0.15837831               -0.07376561               -0.07443650                0.24853843                0.00283204                0.00757629                0.00511119
               7.00253956                8.00288657               14.03640753                0.26652495               -0.07569692               -0.07549926                0.25161295                0.00140278                0.00452313                0.00125195
               8.00177842                8.00306203               14.03630032                0.41551891               -0.07649378               -0.07650589                0.25468430                0.00087229                0.00312130               -0.00103357
               9.00100969                8.00323898               14.03617652                0.63295697               -0.07732762               -0.07740529                0.25768640                0.00040141                0.00159486               -0.00180575
              10.00023187                8.00341963               14.03603249                0.88977215               -0.07778211               -0.07809759                0.26089753               -0.00013220                0.00077920                0.00031977
               0.00039894                8.99567739               14.02939267                0.99994471               -0.06284784               -0.06291617                0.20906254               -0.00019676               -0.00003165                0.00136581
               0.99977046                8.99581275               14.02955530                0.59054901               -0.06304190               -0.06314593                0.21021879                0.00002275               -0.00008951                0.00133374
               1.99913810                8.99594359               14.02971621                0.06042787               -0.04580740               -0.06341113                0.21147547                0.01809505                0.00283254                0.00156863
               2.99885431                8.99643097               14.02993547                0.01558660                0.27065509               -0.12844024                0.21342927                0.14928161                0.30798009               -0.07539160
               4.00455120                9.00151006               14.03622127                0.07656844                0.25129961               -0.05415454                0.24512870                0.36234925                0.33023469                0.13616732
               5.00388030                9.00178009               14.03627600                0.15758960               -0.07082796               -0.07479738                0.24648101                0.00671794                0.01153040                0.00318352
               6.00313464                9.00196385               14.03619903                0.26602754               -0.07506691               -0.07495374                0.24941931                0.00160454                0.00326553                0.00159696
               7.00237896                9.00213045               14.03608433                0.41546914               -0.07607114               -0.07591010                0.25294002                0.00071856                0.00053537                0.00052000
               8.00161322                9.00229500               14.03594632                0.63316907               -0.07706747               -0.07698880                0.25656427                0.00039216               -0.00077407               -0.00071599
               9.00083762                9.00246178               14.03579921                0.97591228               -0.07802693               -0.07801790                0.26003164                0.00015911               -0.00050891               -0.00149089
              10.00005268                9.00263374               14.03566213                0.98906858               -0.07849346               -0.07897475                0.26331105               -0.00027898                0.00010579                0.00010115
               0.00026280                9.99505209               14.02951635                1.00000000               -0.06240445               -0.06252990                0.20755007               -0.00041401               -0.00013019                0.00062977
               0.99963876                9.99518408               14.02967850                0.86580432               -0.06259315               -0.06286702                0.20876245               -0.00020148               -0.00027342                0.00067346
               1.99901094                9.99531146               14.02983724                0.56199883               -0.06294537               -0.06321378                0.20999880                0.00898025                0.00072807                0.00055599
               2.99837985                9.99561800               14.03001788                0.52672693                0.26475281               -0.08129629                0.21174893                0.22193103                0.28886914               -0.00344711
               4.00430600               10.00069900               14.03594270                0.56096673                0.26577971               -0.08110670                0.24717628                0.24596605                0.30923781                0.00344228
               5.00369545               10.00102773               14.03595986                0.60693263               -0.06659566               -0.07523549                0.24862926                0.00710013                0.00860663                0.00031105
               6.00297408               10.00121071               14.03587611                0.66977269               -0.07363297               -0.07531371                0.25145660                0.00097566                0.00150430                0.00037241
               7.00222279               10.00136837               14.03574986                0.75810712               -0.07595765               -0.07620880                0.25497643               -0.00004106               -0.00173266                0.00012723
               8.00145493               10.00152225               14.03559751                0.88998724               -0.07743278               -0.07727483                0.25866136               -0.00031613               -0.00333899               -0.00028541
               9.00067413               10.00167862               14.03543501                0.98906947               -0.07862750               -0.07831632                0.26219350               -0.00045403               -0.00249899               -0.00073085
               9.99988238               10.00184014               14.03529717                0.99769614               -0.07917504               -0.07935976                0.26547888               -0.00087821               -0.00126318                0.00038344
               0.00131523                0.00143152               15.03061147                0.78525344               -0.06522044               -0.06519204                0.21812055               -0.00032829                0.00039520               -0.00111566
               1.00066303                0.00155038               15.03075256                0.52406534               -0.06497331               -0.06504457                0.21712116                0.00024182               -0.00081440                0.00036360
               2.00001577                0.00167685               15.03087056                0.48184894               -0.06511344               -0.06456368                0.21683581                0.00005750               -0.00303260               -0.00003320
               2.99936076                0.00181447               15.03096358                0.50473490               -0.06583002               -0.06447170                0.21699211                0.00007743               -0.00345884               -0.00014499
               3.99869917                0.00195445               15.03106581                0.54420141               -0.06622489               -0.06441067                0.21686765                0.00008017               -0.00160020               -0.00015860
               4.99803626                0.00209112               15.03118843                0.59722669               -0.06611996               -0.06431498                0.21627483                0.00005179                0.00080887               -0.00015817
               5.99737677                0.00222221               15.03133271                0.66556948               -0.06562478               -0.06415089                0.21524980               -0.00000176                0.00292919               -0.00017904
               6.99672377                0.00234775               15.03149358                0.75218305               -0.06490533               -0.06390747                0.21390484               -0.00006874                0.00426035               -0.00025280
               7.99607866                0.00246907               15.03166206                0.86153667               -0.06410561               -0.06359346                0.21236977               -0.00013413                0.00452487               -0.00034898
               8.99544165                0.00258799               15.03182708                1.00000000               -0.06338233               -0.06320480                0.21073703               -0.00017440                0.00329574               -0.00043120
               9.99481101                0.00270664               15.03197100                1.00000000               -0.06306404               -0.06282431                0.20944263               -0.00021758                0.00219419                0.00135594
               0.00119309                1.00077960               15.03072149                0.52407315               -0.06503065               -0.06493345                0.21697421                0.00023777               -0.00081298               -0.00283510
               1.00054278                1.00089994               15.03086388                0.01298574               -0.06543960               -0.06540061                0.21594395                0.00113766               -0.00311961               -0.00052110
               1.99988430                1.00103121               15.03096232                0.01000000               -0.06600252               -0.04102422                0.21563554                0.02554390               -0.00681090                0.01513593
               2.99922273                1.00116975               15.03103447                0.01000001               -0.06613270               -0.00892032                0.21596071                0.05033109               -0.00787766                0.03456335
               3.99856164                1.00131034               15.03111308                0.01000000               -0.06599150                0.00820218                0.21606800                0.04530098               -0.00656349                0.04454359
               4.99790290                1.00144797               15.03120993                0.02403212               -0.06566038               -0.04206182                0.21573213                0.01715653               -0.00444997                0.00108024
               5.99724844                1.00158070               15.03132745                0.11148811               -0.06516279               -0.06380775                0.21494713                0.00041650               -0.00240032               -0.00528891
               6.99659965                1.00170867               15.03146134                0.22689365               -0.06456192               -0.06390803                0.21380182                0.00007376               -0.00098239               -0.00319455
               7.99595720                1.00183314               15.03160345                0.38076214               -0.06392597               -0.06364704                0.21241046                0.00001997               -0.00054641               -0.00202169
               8.99532113                1.00195594               15.03174307                0.59053781               -0.06335034               -0.06324245                0.21089165                0.00002154               -0.00067294               -0.00092901
               9.99469019                1.00207839               15.03188106                0.86599510               -0.06309366               -0.06286517                0.20963995               -0.00003548               -0.00073796                0.00202887
               0.00107932                2.00013285               15.03079826                0.48186467               -0.06451470               -0.06509240                0.21650312                0.00006983               -0.00004473               -0.00518580
               1.00043417                2.00024237               15.03095968                0.01000000               -0.04112450               -0.06583235                0.21554465                0.02561805                0.01177189               -0.00297043
               2.00025683                2.00085636               15.03135908                0.01000001               -0.01729611               -0.01701425                0.21532655                0.11543210                0.02599485                0.03280079
               3.00008825                2.00163606               15.03180055                0.01000000               -0.04649290                0.02891882                0.21800077                0.14797198                0.02219335                0.07382929
               3.99932697                2.00211850               15.03205471                0.01000000               -0.09896041                0.07482103                0.22087732                0.10564194               -0.03983363                0.11929019
               4.99810904                2.00124988               15.03125610                0.01000001               -0.11012875                0.06325287                0.22339275                0.07493873               -0.05367631                0.13800406
               5.99712439                2.00094605               15.03121969                0.01194761               -0.08181188                0.10637428                0.21612075                0.12712171               -0.01162346                0.20282854
               6.99647280                2.00106959               15.03136991                0.01693239               -0.06463025                0.01991221                0.21429974                0.11164104               -0.00260848                0.13551288
               7.99583179                2.00119613               15.03151114                0.01038132               -0.06379874                0.04313169                0.21262302                0.09520447               -0.00304953                0.09424340
               8.99519683                2.00132314               15.03164937                0.05979686               -0.06331949               -0.04572842                0.21112068                0.01990228               -0.00221473                0.00351590
               9.99456540                2.00144933               15.03180530                0.56172460               -0.06314277               -0.06471730                0.20989113                0.01159102               -0.00126007                0.00586003
               0.00097545                2.99947775               15.03085760                0.50476143               -0.06438195               -0.06585424                0.21648821                0.00011553               -0.00009010               -0.00528159
               1.00033163                2.99958329               15.03102569                0.01000001               -0.00881031               -0.06583456                0.21576927                0.05033941                0.03020746               -0.00430850
               2.00079924                3.00069093               15.03180080                0.01000000                0.02942046               -0.04609509                0.21791236                0.14773323                0.06474432                0.02980956
               3.00092004                3.00174813               15.03258482                0.01000000                0.01307091                0.01132753                0.22318007                0.18940171                0.07492166                0.08461824
               4.00106066                3.00280677               15.03351802                0.01273144               -0.01729600                0.03417010                0.21678794                0.17148695                0.06606605                0.13382330
               5.00057412                3.00271303               15.03388674                0.01000000               -0.05447480                0.08717807                0.20697577                0.21198099                0.08309730                0.21664243
               5.99997117                3.00370818               15.03537244                0.01935311               -0.09958662                0.14342260                0.26814799                0.18858911                0.02909771                0.35769919
               6.99858239                3.00210692               15.03410955                0.01000000               -0.11817176                0.13527890                0.26924061                0.20363710               -0.06997398                0.33626339
               7.99760773                3.00269577               15.03337634                0.01402098               -0.15582096                0.15174347                0.21940359                0.23233971               -0.10996192                0.24523624
               8.99546597                3.00104137               15.03165341                0.01503318               -0.14690535                0.26285163                0.21206504                0.23247730               -0.09877480                0.41799091
               9.99466962                3.00078405               15.03179156                0.52642923               -0.07963444                0.26068418                0.21041576                0.29308436               -0.00542920                0.40597113
               0.00087055                3.99881577               15.03092507                0.54424345               -0.06427708               -0.06625319                0.21619388                0.00012658               -0.00007088               -0.00354409
               1.00022778                3.99892568               15.03109647                0.01000000                0.00880480               -0.06562164                0.21577688                0.04519214                0.04004350               -0.00319854
               2.00104665                3.99993446               15.03207056                0.01000000                0.07663295               -0.09790588                0.22065725                0.10279802                0.10860117               -0.02580259
               3.00176044                4.00186261               15.03352741                0.01273244                0.03725798               -0.02029715                0.21653805                0.16913488                0.12175843                0.07431794
               4.00179181                4.00280190               15.03450319                0.01000000               -0.01566007               -0.01998667                0.19245750                0.09271376                0.08616202                0.09666150
               5.00144724                4.00299344               15.03531388                0.01000001               -0.01447617                0.03547524                0.28624959                0.13899229                0.11861645                0.19600263
               6.00150229                4.00381450               15.03681222                0.01000000                0.00553575                0.03704919                0.25191254                0.19314404                0.09502437                0.15511482
               7.00155796                4.00377516               15.03735077                0.01395029                0.00209193                0.11401609                0.17695427                0.22697271               -0.05149319                0.11575381
               8.00154413                4.00423100               15.03643069                0.01197675                0.01000694                0.14707892                0.22582963                0.38239429                0.13092102                0.33867303
               9.00175810                4.00658017               15.03985672                0.07605668               -0.03011942                0.24143819                0.24979351                0.43340794                0.18214763                0.43499840
              10.00094174                4.00666302               15.03972091                0.56065409               -0.08163579                0.26294170                0.25333691                0.32163750                0.00464423                0.42219886
               0.00075816                4.99815269               15.03101132                0.59729057               -0.06413818               -0.06610552                0.21543124                0.00009872               -0.00005088               -0.00128481
               1.00011678                4.99827086               15.03118341                0.02408362               -0.04199459               -0.06526712                0.21534226                0.01746139                0.00229800               -0.00130113
               1.99991827                4.99873281               15.03140250                0.01000001                0.06592622               -0.10870300                0.22318965                0.06943939                0.12431993               -0.03821532
               3.00143530                5.00134219               15.03388508                0.01000000                0.09329195               -0.05738309                0.20644612                0.20049420                0.19418296                0.09092394
               4.00178411                5.00240703               15.03530026                0.01000001                0.04530284               -0.02338955                0.28534627                0.12736254                0.18042921                0.13006235
               5.00234136                5.00342253               15.03680399                0.01000000                0.06341099                0.04250419                0.30340627                0.19484862                0.13794971                0.15176748
               6.00305233                5.00444917               15.03777868                0.01459769                0.01819930                0.01028774                0.24602975                0.12572340                0.04488174                0.07380472
               7.00270535                5.00438724               15.03799983                0.01277986               -0.03008601                0.04592938                0.23238472                0.13241954                0.10479862                0.11289197
               8.00245061                5.00563735               15.03976136                0.07594893               -0.05016180                0.03379259                0.24808791                0.11084479                0.10063045                0.18360108
               9.00170211                5.00587014               15.03970095                0.15737084               -0.07569606               -0.07342099                0.25025717                0.00872783                0.00546157                0.01008449
              10.00093669                5.00604288               15.03955062                0.60686600               -0.07654235               -0.06763674                0.25380280                0.00837822                0.00117850                0.01192159
               0.00063619                5.99749366               15.03111752                0.66566466               -0.06393031               -0.06553112                0.21423608                0.00004017               -0.00004268                0.00066902
               0.99999689                5.99762034               15.03128911                0.11156696               -0.06360431               -0.06478251                0.21445916                0.00095739               -0.00244745                0.00055301
               1.99936411                5.99776040               15.03141245                0.01195249                0.10496061               -0.08115431                0.21633385                0.12036203                0.18770569               -0.00257977
               3.00209610                6.00071495               15.03538264                0.01935712                0.14473038               -0.09995607                0.26411773                0.17171062                0.33019606                0.03947334
               4.00225872                6.00233411               15.03682219                0.01000000                0.06029877               -0.00901844                0.25390108                0.17320278                0.12265669                0.09938433
               5.00330208                6.00384353               15.03763579                0.01459946                0.03966665               -0.00485240                0.24794068                0.11712885                0.04511866                0.05357099
               6.00305205                6.00402026               15.03815010                0.01313037               -0.01419568               -0.03449049                0.23531628                0.06865951                0.09353988                0.09300442
               7.00301817                6.00469375               15.03948814                0.07660449               -0.03869633               -0.02154795                0.24814429                0.05121877                0.08062414                0.09080864
               8.00227812                6.00490685               15.03948700                0.15802090               -0.07455234               -0.07425910                0.24963082                0.00299263                0.01028658                0.00166033
               9.00152712                6.00511175               15.03941022                0.26621564               -0.07571551               -0.07600624                0.25204439                0.00178617                0.00397401                0.00204390
              10.00076381                6.00531028               15.03927826                0.66995588               -0.07633066               -0.07464478                0.25545354                0.00130200                0.00136560                0.00508689
               0.00050561                6.99684207               15.03123840                0.75232417               -0.06364249               -0.06470595                0.21272009               -0.00003674               -0.00004527                0.00179052
               0.99986918                6.99697521               15.03140944                0.22701506               -0.06373567               -0.06422083                0.21321633                0.00035446               -0.00093553                0.00176557
               1.99923089                6.99710972               15.03156253                0.01693953                0.02133152               -0.06455227                0.21445636                0.10519090                0.12169603                0.00404446
               3.00029581                6.99934306               15.03418366                0.01000000                0.14443477               -0.11884232                0.26206920                0.18481886                0.29839450               -0.06558314
               4.00211959                7.00222666               15.03711267                0.01395549                0.13509867               -0.01666029                0.18527841                0.20534022                0.06945951               -0.05017431
               5.00299778                7.00332548               15.03765748                0.01278633                0.07278532               -0.05092553                0.23119463                0.11821065                0.09009273                0.09079640
               6.00357529                7.00375936               15.03921759                0.07661160               -0.00773284               -0.04996448                0.24703264                0.04971484                0.08983616                0.07066521
               7.00284313                7.00395628               15.03921781                0.15836383               -0.07414182               -0.07435370                0.24913663                0.00206716                0.00997189                0.00190819
               8.00209246                7.00415217               15.03917006                0.26659429               -0.07543630               -0.07570566                0.25160711                0.00123594                0.00629162               -0.00069793
               9.00133440                7.00435001               15.03908960                0.41610988               -0.07633947               -0.07649073                0.25438442                0.00068578                0.00295776               -0.00018774
              10.00056567                7.00454999               15.03897038                0.75846668               -0.07687335               -0.07671548                0.25777311                0.00015334                0.00117624                0.00226970
               0.00036918                7.99619954               15.03136441                0.86174686               -0.06328565               -0.06378580                0.21101109               -0.00011854               -0.00003503                0.00174417
               0.99973632                7.99633592               15.03153575                0.38095187               -0.06345568               -0.06363294                0.21172595                0.00012740               -0.00028786                0.00191930
               1.99910007                7.99646936               15.03170206                0.01039142                0.04696081               -0.06375502                0.21271318                0.08707634                0.07201365                0.00306680
               3.00067554                7.99833811               15.03331772                0.01402975                0.16415174               -0.15112064                0.21945535                0.19588422                0.19115553               -0.08348380
               4.00238310                8.00200090               15.03600601                0.01198876                0.17290289               -0.02105019                0.22592396                0.35172860                0.28019503                0.09920638
               5.00413360                8.00282502               15.03898443                0.07596972                0.05162243               -0.06199018                0.24479313                0.10071933                0.15875284                0.08284416
               6.00341555                8.00302097               15.03897359                0.15805638               -0.07334496               -0.07409267                0.24745021                0.00272265                0.00737551                0.00347097
               7.00266670                8.00320668               15.03891713                0.26663624               -0.07532216               -0.07515066                0.25052504                0.00118216                0.00445334                0.00039386
               8.00190911                8.00339274               15.03884138                0.41619412               -0.07618422               -0.07619511                0.25371401                0.00073168                0.00295900               -0.00121443
               9.00114301                8.00358194               15.03874917                0.63397805               -0.07710885               -0.07716357                0.25696073                0.00034878                0.00144620               -0.00152999
              10.00036693                8.00377597               15.03863875                0.89015806               -0.07760842               -0.07792930                0.26039801               -0.00016265                0.00068968                0.00060303
               0.00023047                8.99556635               15.03148311                1.00000000               -0.06285626               -0.06295085                0.20919953               -0.00018190                0.00003460                0.00084158
               0.99960191                8.99570255               15.03165615                0.59084409               -0.06301201               -0.06308505                0.21010198                0.00003935               -0.00001022                0.00110355
               1.99897023                8.99583462               15.03182912                0.05985867               -0.04599787               -0.06329206                0.21111570                0.01797604                0.00337912                0.00153287
               2.99868195                8.99632065               15.03206900                0.01511431                0.28485083               -0.14128792                0.21306850                0.17516832                0.32446464               -0.06920203
               4.00466725                9.00180566               15.03866824                0.07614415                0.26550753               -0.05002985                0.24427370                0.38970441                0.34337548                0.14854020
               5.00399210                9.00208568               15.03873750                0.15744399               -0.07095808               -0.07450646                0.24592670                0.00689661                0.01065450                0.00223865
               6.00324809                9.00227750               15.03868950                0.26633831               -0.07485506               -0.07477247                0.24881824                0.00153165                0.00331664                0.00083944
               7.00249500                9.00245327               15.03860949                0.41629151               -0.07581285               -0.07570451                0.25224337                0.00063625                0.00085090                0.00003434
               8.00173183                9.00262826               15.03850803                0.63417632               -0.07684294               -0.07678680                0.25589470                0.00034013               -0.00048996               -0.00087028
               9.00095814                9.00280674               15.03839694                0.97548773               -0.07787409               -0.07786550                0.25955472                0.00014103               -0.00039025               -0.00137424
              10.00017435                9.00299140               15.03829413                0.98872253               -0.07837949               -0.07888932                0.26305332               -0.00031862                0.00013539                0.00023329
               0.00009315                9.99494052               15.03159137                1.00000000               -0.06243100               -0.06258295                0.20775089               -0.00036258               -0.00013744                0.00023079
               0.99946884                9.99507422               15.03176464                0.86619080               -0.06258332               -0.06283289                0.20871182               -0.00015730               -0.00032787                0.00050743
               1.99884148                9.99520352               15.03193559                0.56177127               -0.06304847               -0.06311065                0.20968810                0.00903155                0.00077422                0.00059592
               2.99820787                9.99551235               15.03213053                0.52650830                0.27853398               -0.08083043                0.21113525                0.24243110                0.30605725               -0.00335583
               4.00441216               10.00100030               15.03841225                0.56074178                0.27959083               -0.08053561                0.24675692                0.26561838                0.32467989                0.00310875
               5.00379969               10.00133489               15.03844509                0.60692692               -0.06667822               -0.07507919                0.24842970                0.00701913                0.00761081                0.00009768
               6.00307860               10.00152552               15.03838904                0.67005538               -0.07355116               -0.07519842                0.25118561                0.00093606                0.00138127                0.00011268
               7.00232866               10.00169259               15.03829728                0.75862132               -0.07580816               -0.07606782                0.25458195               -0.00005973               -0.00148413               -0.00007791
               8.00156243               10.00185700               15.03818199                0.89035900               -0.07729819               -0.07712623                0.25827343               -0.00033743               -0.00305931               -0.00037551
               9.00078270               10.00202463               15.03805612                0.98872337               -0.07855980               -0.07821117                0.26199143               -0.00048518               -0.00237076               -0.00070063
               9.99999124               10.00219819               15.03795261                0.99781990               -0.07914604               -0.07932141                0.26549665               -0.00095521               -0.00120490                0.00044556
               0.00118369                0.00131646               16.03279410                0.78547451               -0.06526884               -0.06524186                0.21836675               -0.00031555                0.00049801               -0.00105198
               1.00053100                0.00144900               16.03292516                0.52436437               -0.06491985               -0.06514145                0.21736968                0.00029401               -0.00037750                0.00043377
               1.99988529                0.00159091               16.03303956                0.48191369               -0.06487446               -0.06464181                0.21695547                0.00006577               -0.00211617               -0.00001329
               2.99923351                0.00174750               16.03313317                0.50460944               -0.06549039               -0.06452351                0.21693136                0.00004678               -0.00251881               -0.00011413
               3.99857549                0.00190977               16.03323368                0.54389552               -0.06589215               -0.06442994                0.21670823                0.00005019               -0.00103052               -0.00013688
               4.99791567                0.00207088               16.03335034                0.59679671               -0.06585228               -0.06431363                0.21610173                0.00003326                0.00095782               -0.00014532
               5.99725844                0.00222729               16.03348456                0.66513603               -0.06543889               -0.06413950                0.21511210               -0.00000761                0.00274148               -0.00016847
               6.99660689                0.00237810               16.03363226                0.75193651               -0.06479218               -0.06389749                0.21382813               -0.00006373                0.00385822               -0.00023625
               7.99596260                0.00252410               16.03378571                0.86172725               -0.06406547               -0.06359261                0.21237898               -0.00011717                0.00402947               -0.00033031
               8.99532558                0.00266712               16.03393517                1.00000000               -0.06342451               -0.06325207                0.21093152               -0.00015438                0.00292802               -0.00040152
               9.99469411                0.00280916               16.03406668                0.99421259               -0.06314763               -0.06290964                0.20976341               -0.00016871                0.00194717                0.00133258
               0.00104800                1.00066405               16.03289265                0.52437201               -0.06512795               -0.06488151                0.21722866                0.00028847               -0.00076875               -0.00245596
               1.00039672                1.00079758               16.03302474                0.01310339               -0.06556496               -0.06552776                0.21620668                0.00129417               -0.00272980               -0.00007972
               1.99973670                1.00094449               16.03311934                0.01000000               -0.06610857               -0.04096120                0.21576932                0.02604663               -0.00575306                0.01527274
               2.99907455                1.00110226               16.03319357                0.01000001               -0.06612024               -0.00733315                0.21587708                0.05255702               -0.00658036                0.03575623
               3.99841430                1.00126547               16.03327252                0.01000000               -0.06586553                0.01104048                0.21583871                0.04729199               -0.00554552                0.04479614
               4.99775724                1.00142774               16.03336574                0.02341926               -0.06547728               -0.03943230                0.21544279                0.01906626               -0.00384361                0.00428801
               5.99710475                1.00158590               16.03347542                0.11076091               -0.06496944               -0.06374269                0.21465733                0.00051761               -0.00218143               -0.00458335
               6.99645785                1.00173913               16.03359804                0.22621386               -0.06439187               -0.06385661                0.21355145                0.00014841               -0.00105819               -0.00290459
               7.99581691                1.00188817               16.03372657                0.38037736               -0.06381698               -0.06361630                0.21224087                0.00004557               -0.00079013               -0.00193426
               8.99518151                1.00203460               16.03385179                0.59069268               -0.06332632               -0.06325484                0.21090173                0.00001074               -0.00086367               -0.00090565
               9.99455039                1.00218006               16.03397775                0.86624010               -0.06311235               -0.06291085                0.20976490               -0.00000520               -0.00084927                0.00196430
               0.00092238                2.00001883               16.03296401                0.48192907               -0.06459401               -0.06485075                0.21663701                0.00007493               -0.00002587               -0.00433896
               1.00027644                2.00013844               16.03311578                0.01000000               -0.04104179               -0.06594620                0.21567563                0.02610229                0.01183757               -0.00184016
               2.00010155                2.00077168               16.03350632                0.01000001               -0.01563852               -0.01541600                0.21448462                0.11964141                0.02771650                0.03468942
               2.99996367                2.00160083               16.03397240                0.01000000               -0.04528513                0.03218024                0.21562003                0.15544103                0.02252266                0.07318966
               3.99919585                2.00213058               16.03421043                0.01000000               -0.09935544                0.08429000                0.21466250                0.11712207               -0.03815887                0.12061202
               4.99797657                2.00128223               16.03346981                0.01000001               -0.11192199                0.07332577                0.21983291                0.07118152               -0.05477515                0.13043971
               5.99695741                2.00095244               16.03337782                0.01174932               -0.08344907                0.10277367                0.21548686                0.13743725               -0.01404466                0.17189948
               6.99630758                2.00110097               16.03351033                0.01668779               -0.06446868                0.01519437                0.21380501                0.13693923               -0.00302089                0.13300301
               7.99566803                2.00125177               16.03363546                0.01000001               -0.06368356                0.04265780                0.21227410                0.11497606               -0.00332291                0.10541177
               8.99503391                2.00140203               16.03375931                0.05926625               -0.06324709               -0.04578828                0.21089901                0.01995468               -0.00231313                0.00393441
               9.99440309                2.00155094               16.03390316                0.56148155               -0.06308220               -0.06480643                0.20973153                0.01170965               -0.00126563                0.00600799
               0.00081028                2.99936703               16.03302226                0.50463529               -0.06443617               -0.06550429                0.21644744                0.00007988               -0.00005771               -0.00440421
               1.00016592                2.99947866               16.03318285                0.01000001               -0.00715710               -0.06583586                0.21568051                0.05252078                0.03130119               -0.00294299
               2.00066714                3.00063617               16.03397168                0.01000000                0.03292781               -0.04496890                0.21550140                0.15512282                0.06387453                0.03034389
               3.00082448                3.00174587               16.03472510                0.01000000                0.02041004                0.01830732                0.21308522                0.20668379                0.07500745                0.08502257
               4.00107534                3.00295127               16.03569137                0.01248928               -0.02327344                0.03430069                0.21172734                0.18238439                0.05472559                0.11525342
               5.00035901                3.00289426               16.03592254                0.01000000               -0.05202916                0.13534594                0.20785232                0.22588780                0.04664589                0.26919484
               6.00003476                3.00364137               16.03689600                0.01898384               -0.07308541                0.13975380                0.17040169                0.18793144                0.01533167                0.25432385
               6.99889730                3.00204302               16.03619254                0.01000000               -0.11096895                0.08163159                0.20586467                0.21109985               -0.04821429                0.23715866
               7.99781538                3.00274133               16.03572217                0.01365119               -0.18079295                0.15895905                0.23180186                0.24987112               -0.11501773                0.26144314
               8.99528144                3.00111884               16.03377243                0.01465724               -0.16643103                0.27466419                0.21182503                0.25121896               -0.10908461                0.43733136
               9.99448676                3.00088393               16.03389542                0.52624904               -0.07946826                0.27215649                0.21034559                0.31156828               -0.00531583                0.42731125
               0.00070072                3.99870875               16.03308634                0.54393647               -0.06430005               -0.06590583                0.21606041                0.00009100               -0.00004632               -0.00303735
               1.00005772                3.99882173               16.03325296                0.01000000                0.01180372               -0.06551162                0.21554043                0.04711813                0.04012697               -0.00211131
               2.00093680                3.99987230               16.03422353                0.01000000                0.08622633               -0.09833514                0.21438548                0.11393803                0.10963081               -0.02375352
               3.00178225                4.00196698               16.03569922                0.01249027                0.03791725               -0.02623905                0.21158175                0.17914514                0.10225128                0.06443429
               4.00169514                4.00281659               16.03635609                0.01000000                0.00109839               -0.00488639                0.20788265                0.17793785                0.14214715                0.15288731
               5.00180422                4.00398915               16.03878317                0.01926607               -0.00639333                0.05183233                0.25207024                0.15962483                0.14058912                0.25225269
               6.00156728                4.00374751               16.03859600                0.01000000               -0.01872982                0.03132231                0.16240120                0.07249434               -0.02041872                0.16683238
               7.00142962                4.00273360               16.03826574                0.01339506                0.00111779                0.11825275                0.13686178                0.22656522                0.00286208                0.15904897
               8.00158963                4.00443096               16.03876337                0.01151905                0.02430350                0.15971225                0.22640030                0.44671939                0.20199767                0.33932609
               9.00191569                4.00689531               16.04234887                0.07570025               -0.02426811                0.25324359                0.24883703                0.45625004                0.18808682                0.45175641
              10.00110427                4.00699407               16.04225043                0.56045765               -0.08114211                0.27441498                0.25260091                0.33952792                0.00433839                0.44142188
               0.00058615                4.99804891               16.03316496                0.59685907               -0.06414189               -0.06582307                0.21529054                0.00007469               -0.00003433               -0.00120031
               0.99994473                4.99816843               16.03333527                0.02347016               -0.03927500               -0.06509837                0.21504421                0.01933810                0.00537569               -0.00062504
               1.99980065                4.99866946               16.03361390                0.01000001                0.07591826               -0.11051303                0.21957252                0.06541623                0.11692069               -0.03864163
               3.00146309                5.00122109               16.03592485                0.01000000                0.14056405               -0.05594336                0.20785017                0.21627596                0.24640268                0.05567468
               4.00261193                5.00285354               16.03875820                0.01926740                0.05787435               -0.01257631                0.25117106                0.15436556                0.23910421                0.14928743
               5.00262058                5.00393090               16.04010265                0.01000000                0.00641324               -0.00688703                0.20583245                0.11983357                0.08235795                0.09280064
               6.00274019                5.00426782               16.04042227                0.01389174                0.00622916                0.02516154                0.18961015                0.09938296               -0.02050066                0.05358425
               7.00274516                5.00440807               16.04030655                0.01212946               -0.00760675                0.11240883                0.22437596                0.16885387                0.09139045                0.18755620
               8.00258806                5.00593558               16.04223625                0.07548467               -0.04509174                0.03888237                0.24712239                0.12941603                0.10663061                0.18953111
               9.00184333                5.00618371               16.04220018                0.15720334               -0.07541278               -0.07341915                0.24970852                0.00869971                0.00470896                0.00914964
              10.00107980                5.00637223               16.04208635                0.60682486               -0.07635264               -0.06771191                0.25338649                0.00818810                0.00098116                0.01073115
               0.00046319                5.99739229               16.03325943                0.66522900               -0.06392562               -0.06533328                0.21413811                0.00002957               -0.00002758                0.00041523
               0.99982394                5.99751976               16.03343215                0.11083894               -0.06353631               -0.06459893                0.21415988                0.00102000               -0.00165550                0.00084154
               1.99919247                5.99766204               16.03357226                0.01175415                0.10498796               -0.08281332                0.21561676                0.12929279                0.15534285               -0.00459001
               3.00192369                6.00084811               16.03688241                0.01898779                0.14400857               -0.07465289                0.16826282                0.17711210                0.23157673                0.02395601
               4.00207264                6.00256506               16.03859184                0.01000000                0.04314586               -0.02709792                0.15966755                0.06467035                0.15051855               -0.01329797
               5.00278661                6.00385141               16.04031259                0.01389344                0.05025662               -0.01841555                0.19278765                0.09451796                0.02790968               -0.01213349
               6.00307777                6.00425075               16.04042175                0.01240224                0.01761645               -0.01127113                0.23297597                0.10337307                0.07925162                0.07979319
               7.00313894                6.00498178               16.04196305                0.07599465               -0.03377276               -0.00792281                0.24694031                0.05814057                0.08813180                0.09752247
               8.00240231                6.00520860               16.04197838                0.15772829               -0.07429551               -0.07394014                0.24883791                0.00296583                0.00882963                0.00129536
               9.00165303                6.00542693               16.04192755                0.26640143               -0.07556615               -0.07582639                0.25154826                0.00169636                0.00334882                0.00183750
              10.00089099                6.00563983               16.04183065                0.67013661               -0.07620396               -0.07458179                0.25508221                0.00123018                0.00114905                0.00469251
               0.00033179                6.99674225               16.03336548                0.75207430               -0.06364229               -0.06458515                0.21269245               -0.00003564               -0.00002314                0.00131664
               0.99969537                6.99687645               16.03354024                0.22633437               -0.06368232               -0.06405388                0.21295738                0.00040602               -0.00057173                0.00175524
               1.99905815                6.99701320               16.03370406                0.01669480                0.02034710               -0.06438056                0.21387869                0.12923344                0.11537934                0.00380518
               3.00010231                6.99972803               16.03619586                0.01000000                0.09219447               -0.11081564                0.20112705                0.19272670                0.20161839               -0.04265390
               4.00090204                7.00231158               16.03809585                0.01340025                0.13614719               -0.01772097                0.14148001                0.20536302                0.12146609                0.00014051
               5.00282526                7.00356259               16.03995658                0.01213540                0.13876235               -0.03754323                0.22505048                0.15832771                0.16190801                0.07574646
               6.00367728                7.00404239               16.04168169                0.07600126                0.00624296               -0.04717254                0.24589342                0.05582075                0.09592367                0.07812032
               7.00295012                7.00424961               16.04170344                0.15798721               -0.07375300               -0.07395061                0.24820552                0.00181348                0.00898058                0.00087151
               8.00220222                7.00445677               16.04168150                0.26667074               -0.07520444               -0.07544189                0.25086591                0.00104058                0.00554130               -0.00093271
               9.00144603                7.00466718               16.04163018                0.41675220               -0.07618118               -0.07629451                0.25385609                0.00060189                0.00255747               -0.00009759
              10.00067860                7.00488059               16.04154570                0.75885788               -0.07674270               -0.07659414                0.25735451                0.00011685                0.00100842                0.00229373
               0.00019408                7.99610058               16.03347475                0.86193259               -0.06329721               -0.06374979                0.21108253               -0.00010244               -0.00000553                0.00119121
               0.99956111                7.99623868               16.03365196                0.38056640               -0.06342614               -0.06352560                0.21155289                0.00013601               -0.00013704                0.00175155
               1.99892556                7.99637443               16.03382688                0.01000704                0.04593698               -0.06362421                0.21228756                0.10639008                0.08280097                0.00294037
               3.00047985                7.99863180               16.03566157                0.01365979                0.17098885               -0.17469549                0.23128547                0.21191917                0.20747221               -0.08504912
               4.00234533                8.00221064               16.03835058                0.01153068                0.18712535               -0.01184754                0.22767594                0.41584559                0.27814121                0.16389925
               5.00422235                8.00310055               16.04142730                0.07550432                0.05809150               -0.05991959                0.24400813                0.11717585                0.16198448                0.08813926
               6.00350716                8.00330729               16.04144374                0.15776158               -0.07307602               -0.07386015                0.24676958                0.00269646                0.00705298                0.00199883
               7.00276083                8.00350277               16.04141804                0.26670999               -0.07508023               -0.07493118                0.24983933                0.00099051                0.00425075               -0.00037722
               8.00200556                8.00369977               16.04137460                0.41677373               -0.07597931               -0.07598902                0.25308147                0.00060051                0.00277322               -0.00141742
               9.00124125                8.00390104               16.04131574                0.63485788               -0.07695277               -0.07699152                0.25644928                0.00029340                0.00132390               -0.00134421
              10.00046650                8.00410795               16.04124045                0.89048081               -0.07747436               -0.07780279                0.25998005               -0.00018823                0.00061979                0.00079134
               0.00005355                8.99546725               16.03357666                1.00000000               -0.06293073               -0.06302032                0.20950666               -0.00015938                0.00006599                0.00044440
               0.99942424                8.99560594               16.03375734                0.59099886               -0.06303603               -0.06307156                0.21014541                0.00001662                0.00002751                0.00098431
               1.99879283                8.99574071               16.03393853                0.05933201               -0.04598798               -0.06320047                0.21081822                0.01815769                0.00393133                0.00151343
               2.99850448                8.99623412               16.03419684                0.01474294                0.29786867               -0.16019918                0.21260491                0.19392071                0.34044071               -0.07889610
               4.00475020                9.00207463               16.04110675                0.07579014                0.27838199               -0.04687467                0.24362030                0.41348943                0.35652273                0.15173727
               5.00407212                9.00236420               16.04119454                0.15727259               -0.07106060               -0.07430138                0.24559711                0.00695402                0.00978521                0.00148695
               6.00332899                9.00256519               16.04117540                0.26651652               -0.07473340               -0.07466954                0.24848381                0.00145722                0.00313794                0.00021283
               7.00257746                9.00275099               16.04112920                0.41692234               -0.07565144               -0.07557748                0.25182259                0.00055615                0.00095741               -0.00037100
               8.00181596                9.00293699               16.04106421                0.63504317               -0.07668716               -0.07664676                0.25543668                0.00028544               -0.00029611               -0.00099831
               9.00104371                9.00312735               16.04099030                0.97521094               -0.07774733               -0.07773919                0.25915490                0.00011944               -0.00027882               -0.00126490
              10.00026102                9.00332454               16.04092319                0.98851295               -0.07826963               -0.07879345                0.26273879               -0.00034174                0.00016758                0.00035903
              -0.00008648                9.99484018               16.03367136                0.99421643               -0.06255453               -0.06270752                0.20821916               -0.00029570               -0.00021955               -0.00002461
               0.99928798                9.99497725               16.03385273                0.86643573               -0.06264971               -0.06286869                0.20889899               -0.00011451               -0.00047672                0.00045666
               1.99866053                9.99511042               16.03403100                0.56153156               -0.06318167               -0.06302918                0.20947063                0.00929801                0.00092144                0.00061897
               2.99802434                9.99542782               16.03424058                0.52633275                0.29122551               -0.08063013                0.21087438                0.26012231                0.32361094               -0.00330559
               4.00448504               10.00127315               16.04087784                0.56054748                0.29232640               -0.08014792                0.24638456                0.28281842                0.33994847                0.00282984
               5.00387087               10.00161452               16.04092846                0.60688246               -0.06677608               -0.07496828                0.24828484                0.00691234                0.00649570               -0.00009582
               6.00314952               10.00181390               16.04089982                0.67022990               -0.07353587               -0.07512877                0.25102641                0.00088738                0.00100567               -0.00010159
               7.00240015               10.00199122               16.04084150                0.75900267               -0.07573056               -0.07597734                0.25432263               -0.00008391               -0.00145759               -0.00024512
               8.00163491               10.00216683               16.04076298                0.89066843               -0.07720333               -0.07701622                0.25796191               -0.00035397               -0.00287384               -0.00044660
               9.00085609               10.00234625               16.04067484                0.98851369               -0.07848062               -0.07810972                0.26172995               -0.00050010               -0.00224902               -0.00066824
              10.00006529               10.00253208               16.04060710                0.99797522               -0.07907949               -0.07924600                0.26532051               -0.00098996               -0.00114908                0.00050526
               0.00106308                0.00121338               17.03497880                0.78563998               -0.06530574               -0.06528004                0.21854273               -0.00030121                0.00058193               -0.00100313
               1.00041002                0.00135990               17.03509995                0.52458706               -0.06488244               -0.06521785                0.21756364                0.00032971               -0.00002170                0.00048964
               1.99976543                0.00151702               17.03520967                0.48195921               -0.06468809               -0.06471160                0.21705621                0.00007050               -0.00135663                0.00000019
               2.99911626                0.00169138               17.03530220                0.50451026               -0.06520270               -0.06457327                0.21687836                0.00001930               -0.00171779               -0.00009113
               3.99846138                0.00187403               17.03539997                0.54365516               -0.06558642               -0.06445186                0.21655678                0.00002135               -0.00052636               -0.00011956
               4.99780453                0.00205743               17.03551047                0.59645714               -0.06558470               -0.06431638                0.21592558                0.00001296                0.00109420               -0.00013376
               5.99714968                0.00223711               17.03563495                0.66479490               -0.06523780               -0.06413387                0.21496797               -0.00001717                0.00256210               -0.00015806
               6.99649978                0.00241145               17.03577015                0.75175171               -0.06466735               -0.06389460                0.21375598               -0.00006241                0.00347309               -0.00022180
               7.99585634                0.00258075               17.03590964                0.86190251               -0.06402626               -0.06360493                0.21242102               -0.00010528                0.00359600               -0.00031219
               8.99521925                0.00274672               17.03604571                1.00000000               -0.06346981               -0.06330320                0.21115626               -0.00013876                0.00264131               -0.00039532
               9.99458694                0.00291114               17.03616627                0.99464961               -0.06323112               -0.06299393                0.21011046               -0.00012450                0.00179312                0.00126581
               0.00091355                1.00056058               17.03506606                0.52459460               -0.06520466               -0.06484544                0.21742798                0.00032294               -0.00073557               -0.00215273
               1.00026150                1.00070772               17.03518802                0.01319847               -0.06565745               -0.06562221                0.21642875                0.00139528               -0.00241661                0.00027767
               1.99960040                1.00086990               17.03527770                0.01000000               -0.06617774               -0.04096020                0.21589786                0.02635121               -0.00488850                0.01508680
               2.99893795                1.00104564               17.03535201                0.01000001               -0.06609157               -0.00615204                0.21582097                0.05389727               -0.00549995                0.03541788
               3.99827857                1.00122952               17.03542985                0.01000000               -0.06574115                0.01189238                0.21564420                0.04868101               -0.00468236                0.04427033
               4.99762312                1.00141426               17.03551878                0.02293594               -0.06530328               -0.03777728                0.21518225                0.02039372               -0.00333018                0.00614539
               5.99697250                1.00159577               17.03562060                0.11018280               -0.06478945               -0.06368254                0.21439363                0.00057671               -0.00201349               -0.00399455
               6.99632733                1.00177250               17.03573237                0.22566764               -0.06424263               -0.06381466                0.21333416                0.00019439               -0.00115179               -0.00264935
               7.99568765                1.00194470               17.03584826                0.38004886               -0.06373311               -0.06359920                0.21212398                0.00006014               -0.00099083               -0.00183911
               8.99505267                1.00211369               17.03596110                0.59074405               -0.06331855               -0.06327670                0.21095449                0.00000560               -0.00098783               -0.00089630
               9.99442128                1.00228120               17.03607636                0.86638048               -0.06313942               -0.06296551                0.20993107                0.00002357               -0.00088927                0.00186868
               0.00077525                1.99991647               17.03513100                0.48197426               -0.06466482               -0.06466195                0.21675081                0.00007694               -0.00001332               -0.00364408
               1.00012861                2.00004745               17.03527319                0.01000000               -0.04103602               -0.06602346                0.21580215                0.02640385                0.01158997               -0.00091450
               1.99995453                2.00069781               17.03564878                0.01000001               -0.01470065               -0.01446507                0.21419292                0.12274851                0.02784031                0.03493649
               2.99983459                2.00156834               17.03611295                0.01000000               -0.04440764                0.03380601                0.21373617                0.15883095                0.02225114                0.07166567
               3.99906638                2.00211188               17.03634796                0.01000000               -0.09942221                0.08683282                0.21347667                0.12063552               -0.03537382                0.11478200
               4.99784615                2.00130188               17.03565276                0.01000001               -0.11317010                0.06846525                0.21812057                0.07654324               -0.05351756                0.12837648
               5.99680298                2.00096346               17.03552943                0.01161545               -0.08457054                0.09903494                0.21488958                0.14342864               -0.01519529                0.15938017
               6.99615474                2.00113515               17.03564602                0.01651436               -0.06433118                0.01610916                0.21336782                0.14049525               -0.00335980                0.12835487
               7.99551636                2.00130877               17.03575662                0.01000000               -0.06359342                0.04260142                0.21198898                0.11929301               -0.00355044                0.11405978
               8.99488287                2.00148118               17.03586735                0.05877593               -0.06319822               -0.04576240                0.21074533                0.02007065               -0.00239776                0.00446934
               9.99425239                2.00165183               17.03599993                0.56123544               -0.06304786               -0.06490990                0.20966347                0.01186708               -0.00127997                0.00626895
               0.00065312                2.99926734               17.03518655                0.50453552               -0.06448809               -0.06520750                0.21641315                0.00004791               -0.00003330               -0.00366248
               1.00000823                2.99938725               17.03533930                0.01000001               -0.00593134               -0.06582146                0.21562099                0.05388942                0.03085594               -0.00180583
               2.00053449                3.00058060               17.03611083                0.01000000                0.03461312               -0.04403218                0.21358234                0.15864920                0.06213849                0.03023970
               3.00070050                3.00172176               17.03684652                0.01000000                0.02116226                0.01916055                0.21178961                0.21119413                0.07025776                0.08065723
               4.00095773                3.00296617               17.03775257                0.01232203               -0.01990447                0.03404686                0.20643142                0.17731123                0.04900015                0.11589810
               5.00030241                3.00278357               17.03804378                0.01000000               -0.04749666                0.12782524                0.20865556                0.23916324                0.04502585                0.23282418
               6.00000780                3.00357647               17.03878047                0.01872018               -0.07552364                0.13307125                0.19282548                0.20597411                0.00230836                0.22863607
               6.99879193                3.00209468               17.03822684                0.01000000               -0.11401606                0.08534848                0.20404026                0.22566775               -0.05031872                0.22963043
               7.99772748                3.00279673               17.03801237                0.01337170               -0.18404540                0.15973358                0.22425533                0.25441722               -0.12811394                0.26664334
               8.99511103                3.00119844               17.03588991                0.01435457               -0.17050716                0.28531858                0.21157271                0.26680824               -0.11721415                0.45638940
               9.99431734                3.00098300               17.03599847                0.52610043               -0.07936906                0.28243497                0.21028996                0.32710588               -0.00555171                0.44865913
               0.00053639                3.99861232               17.03524628                0.54369520               -0.06432537               -0.06558761                0.21593363                0.00005706               -0.00002648               -0.00259321
               0.99989313                3.99873103               17.03540728                0.01000000                0.01283091               -0.06540427                0.21534149                0.04859836                0.03944787               -0.00119085
               2.00079300                3.99981717               17.03635827                0.01000000                0.08898851               -0.09846782                0.21314320                0.11765703                0.10350188               -0.02070256
               3.00167290                4.00195155               17.03775904                0.01232302                0.03788990               -0.02246353                0.20618607                0.17471074                0.10281828                0.05930203
               4.00155080                4.00279282               17.03866084                0.01000000                0.01731043                0.00954281                0.21413662                0.16687479                0.12053759                0.13160383
               5.00201911                4.00385838               17.04035528                0.01890431                0.00302702                0.04827774                0.16356863                0.14270550                0.07607046                0.14270061
               6.00161134                4.00362489               17.04006025                0.01000000               -0.02856379                0.00593161                0.16215879                0.07071738               -0.01771609                0.13905055
               7.00144784                4.00284212               17.04008801                0.01297475               -0.00551986                0.11731820                0.19031925                0.24028928                0.03754127                0.22155793
               8.00150095                4.00450344               17.04095870                0.01115855                0.02924648                0.17081127                0.22141204                0.46537746                0.22953071                0.34400373
               9.00203277                4.00718756               17.04483346                0.07540375               -0.01377796                0.26380063                0.24819333                0.48161261                0.20042560                0.46830099
              10.00122539                4.00730053               17.04477293                0.56029050               -0.08073790                0.28471439                0.25199432                0.35462869                0.00402128                0.46039217
               0.00041684                4.99795559               17.03531713                0.59651790               -0.06414921               -0.06554382                0.21514557                0.00004940               -0.00001948               -0.00112579
               0.99977535                4.99807917               17.03548430                0.02298625               -0.03748673               -0.06494107                0.21477881                0.02067393                0.00709653               -0.00005424
               1.99966711                4.99861124               17.03579395                0.01000001                0.07218556               -0.11193631                0.21780310                0.07105140                0.11445813               -0.03695948
               3.00121906                5.00127249               17.03804208                0.01000000                0.13606415               -0.05142437                0.20790456                0.22904676                0.20994573                0.05361088
               4.00238839                5.00315703               17.04032368                0.01890565                0.05526934               -0.00311625                0.16273208                0.13823625                0.13043675                0.08503486
               5.00232445                5.00374912               17.04092064                0.01000000                0.00250088               -0.00557265                0.11497698                0.02746664                0.04313752                0.05118246
               6.00243841                5.00369511               17.04157088                0.01335053                0.01973598                0.03659052                0.13713384                0.10336030                0.05467513                0.11311523
               7.00271917                5.00444105               17.04248735                0.01161556                0.01255935                0.12025950                0.21600363                0.21470923                0.14865036                0.22255406
               8.00268960                5.00621296               17.04470381                0.07510124               -0.03864881                0.04920355                0.24661105                0.15113362                0.11867476                0.20187549
               9.00194619                5.00647445               17.04469512                0.15703369               -0.07528128               -0.07345246                0.24940024                0.00866959                0.00411975                0.00828105
              10.00118397                5.00667729               17.04461835                0.60676680               -0.07622219               -0.06778709                0.25307109                0.00804416                0.00081594                0.00960602
               0.00029022                5.99730144               17.03540028                0.66488566               -0.06392609               -0.06512501                0.21403258                0.00001529               -0.00001330                0.00017148
               0.99965095                5.99743220               17.03557231                0.11026011               -0.06347549               -0.06443353                0.21389191                0.00104074               -0.00099265                0.00106592
               1.99902071                5.99757844               17.03572478                0.01162021                0.10285496               -0.08400191                0.21495340                0.13533000                0.14167032               -0.00536464
               3.00170805                6.00092306               17.03874790                0.01872407                0.14090970               -0.07808333                0.19089377                0.19346896                0.20017886                0.01138190
               4.00183890                6.00273049               17.04001555                0.01000000                0.01611567               -0.03431436                0.15949693                0.06118388                0.12159675               -0.01087902
               5.00203037                6.00374693               17.04149155                0.01335220                0.05738611               -0.00117081                0.13897893                0.09759295                0.09695289                0.05592178
               6.00298662                6.00435670               17.04280962                0.01182416                0.05969018                0.03023359                0.22096425                0.14044374                0.13291170                0.13367266
               7.00322417                6.00524731               17.04442695                0.07549866               -0.02482030                0.00388389                0.24610924                0.07172863                0.08951313                0.11014948
               8.00249022                6.00548751               17.04446376                0.15747051               -0.07411722               -0.07378309                0.24840097                0.00290741                0.00770156                0.00088415
               9.00174183                6.00571851               17.04444118                0.26650149               -0.07548093               -0.07572882                0.25128432                0.00162180                0.00285055                0.00152275
              10.00098060                6.00594478               17.04437991                0.67024715               -0.07612289               -0.07456122                0.25482391                0.00116889                0.00097562                0.00419218
               0.00015563                6.99665309               17.03549225                0.75188635               -0.06364605               -0.06446302                0.21266757               -0.00003793               -0.00000336                0.00086660
               0.99951916                6.99679050               17.03566859                0.22578707               -0.06363858               -0.06391807                0.21273791                0.00043066               -0.00024978                0.00171854
               1.99888285                6.99693120               17.03584011                0.01652129                0.02086129               -0.06423731                0.21337699                0.13230537                0.10932089                0.00361881
               2.99993639                6.99971083               17.03820621                0.01000000                0.09526713               -0.11434548                0.20232442                0.20663854                0.19094738               -0.04286083
               4.00078820                7.00247074               17.03994227                0.01297985                0.13568566               -0.02312539                0.19142029                0.21780851                0.18420660                0.03353699
               5.00265010                7.00372570               17.04215849                0.01162096                0.14793526               -0.01985448                0.21760986                0.20393994                0.19397590                0.12849579
               6.00374690                7.00429978               17.04413546                0.07550482                0.01864125               -0.03947314                0.24512520                0.06861375                0.10652539                0.07945361
               7.00302293                7.00451873               17.04418192                0.15767123               -0.07351753               -0.07369685                0.24767580                0.00170981                0.00816159                0.00001708
               8.00227655                7.00473729               17.04418738                0.26671772               -0.07507872               -0.07529154                0.25046030                0.00089009                0.00490722               -0.00121994
               9.00152135                7.00495987               17.04416672                0.41724283               -0.07608784               -0.07617891                0.25355299                0.00052933                0.00223783               -0.00013193
              10.00075479                7.00518606               17.04411747                0.75914988               -0.07665606               -0.07652400                0.25705309                0.00008427                0.00087612                0.00219109
               0.00001464                7.99601218               17.03558606                0.86210344               -0.06331898               -0.06372327                0.21118606               -0.00009419                0.00002098                0.00069811
               0.99938145                7.99615384               17.03576681                0.38023688               -0.06340783               -0.06345159                0.21144088                0.00014706                0.00001160                0.00161154
               1.99874648                7.99629370               17.03594781                0.01000000                0.04599201               -0.06352160                0.21193730                0.11044094                0.09080870                0.00284589
               3.00030129                7.99863615               17.03794343                0.01338015                0.17168550               -0.17735565                0.22362956                0.21802220                0.21329400               -0.09579392
               4.00218019                8.00226799               17.04055953                0.01116985                0.19894202               -0.00787971                0.22231947                0.43627499                0.28132335                0.18645330
               5.00428013                8.00334984               17.04386459                0.07511973                0.06928420               -0.05557214                0.24366311                0.13841504                0.17165539                0.09807209
               6.00356588                8.00356724               17.04390898                0.15750164               -0.07296394               -0.07370513                0.24644097                0.00264085                0.00667601                0.00084958
               7.00282085                8.00377338               17.04391392                0.26675442               -0.07495031               -0.07481710                0.24948692                0.00084269                0.00399272               -0.00103100
               8.00206687                8.00398168               17.04390301                0.41725491               -0.07586031               -0.07586894                0.25272281                0.00049030                0.00259137               -0.00161533
               9.00130364                8.00419493               17.04387816                0.63559934               -0.07684818               -0.07687649                0.25611115                0.00024273                0.00122757               -0.00122344
              10.00052991                8.00441430               17.04383835                0.89074981               -0.07737381               -0.07770686                0.25963274               -0.00020629                0.00056694                0.00091274
              -0.00012958                8.99537862               17.03567324                1.00000000               -0.06298289               -0.06307824                0.20978168               -0.00014650                0.00007750                0.00011188
               0.99924059                8.99552146               17.03585905                0.59104967               -0.06305268               -0.06306331                0.21018890                0.00001869                0.00006097                0.00090864
               1.99860937                8.99566077               17.03604548                0.05884530               -0.04590226               -0.06313729                0.21061011                0.01839143                0.00456966                0.00150530
               2.99832255                8.99616371               17.03632109                0.01444514                0.30953187               -0.16387028                0.21217213                0.20921685                0.35639242               -0.08618075
               4.00480000                9.00231315               17.04354064                0.07549653                0.28983048               -0.03766305                0.24326276                0.43968069                0.36973128                0.16134764
               5.00411916                9.00261426               17.04364945                0.15709933               -0.07119098               -0.07423563                0.24550090                0.00700069                0.00896977                0.00089039
               6.00337618                9.00282567               17.04365918                0.26660932               -0.07469084               -0.07462954                0.24837640                0.00139594                0.00284896               -0.00028859
               7.00262534                9.00302238               17.04364594                0.41740191               -0.07556895               -0.07551440                0.25162300                0.00048699                0.00093862               -0.00069641
               8.00186480                9.00321992               17.04361676                0.63577208               -0.07658771               -0.07655765                0.25514991                0.00023549               -0.00016759               -0.00110050
               9.00109358                9.00342234               17.04358004                0.97505111               -0.07764435               -0.07763665                0.25882615                0.00009822               -0.00017920               -0.00116758
              10.00031192                9.00363193               17.04354890                0.98841734               -0.07816669               -0.07869170                0.26239263               -0.00035108                0.00019916                0.00047259
              -0.00027398                9.99475062               17.03575575                0.99465347               -0.06263527               -0.06280032                0.20860854               -0.00024381               -0.00032767               -0.00020570
               0.99909967                9.99489258               17.03594262                0.86657578               -0.06269811               -0.06288868                0.20905082               -0.00007542               -0.00062324                0.00045627
               1.99847206                9.99503095               17.03612501                0.56128856               -0.06332087               -0.06298216                0.20936342                0.00957774                0.00117215                0.00063691
               2.99783325                9.99535874               17.03634802                0.52618903                0.30255984               -0.08049699                0.21065905                0.27525931                0.34142617               -0.00357827
               4.00452326               10.00151473               17.04333994                0.56038297                0.30371812               -0.07984214                0.24612089                0.29764462                0.35523186                0.00252324
               5.00390761               10.00186513               17.04341079                0.60682122               -0.06687922               -0.07491328                0.24823329                0.00684186                0.00542493               -0.00025877
               6.00318567               10.00207464               17.04340956                0.67033447               -0.07356324               -0.07510306                0.25097431                0.00084680                0.00052152               -0.00027382
               7.00243635               10.00226309               17.04338373                0.75928521               -0.07570266               -0.07592957                0.25417497               -0.00010481               -0.00155719               -0.00037776
               8.00167162               10.00245053               17.04334122                0.89092462               -0.07713760               -0.07693890                0.25771704               -0.00036323               -0.00275498               -0.00050109
               9.00089360               10.00264220               17.04329072                0.98841796               -0.07839484               -0.07801490                0.26143484               -0.00050150               -0.00213940               -0.00063686
              10.00010372               10.00284047               17.04325902                0.99815325               -0.07898757               -0.07914559                0.26500764               -0.00099214               -0.00109868                0.00055944
               0.00095304                0.00112188               18.03716496                0.78576376               -0.06533303               -0.06530847                0.21866401               -0.00028679                0.00065024               -0.00096623
               1.00029971                0.00128266               18.03727643                0.52475200               -0.06485629               -0.06527661                0.21771116                0.00035245                0.00026571                0.00053401
               1.99965591                0.00145484               18.03738068                0.48198936               -0.06454273               -0.06477210                0.21713598                0.00007249               -0.00073768                0.00000902
               2.99900885                0.00164605               18.03747074                0.50443066               -0.06496083               -0.06461870                0.21683018               -0.00000498               -0.00105595               -0.00007415
               3.99835669                0.00184763               18.03756481                0.54346709               -0.06531381               -0.06447412                0.21641863               -0.00000532               -0.00010433               -0.00010595
               4.99770257                0.00205157               18.03766886                0.59619242               -0.06533445               -0.06432155                0.21576015               -0.00000747                0.00120153               -0.00012374
               5.99705000                0.00225285               18.03778392                0.66453170               -0.06504540               -0.06413138                0.21483275               -0.00002854                0.00238844               -0.00014860
               6.99640167                0.00244922               18.03790738                0.75161763               -0.06455261               -0.06389484                0.21369725               -0.00006341                0.00312148               -0.00020867
               7.99575895                0.00264061               18.03803413                0.86206103               -0.06399432               -0.06362007                0.21247719               -0.00009786                0.00322427               -0.00029691
               8.99512178                0.00282844               18.03815829                1.00000000               -0.06350514               -0.06334005                0.21133801               -0.00012814                0.00240853               -0.00039133
               9.99448885                0.00301429               18.03826888                0.99499499               -0.06329307               -0.06305210                0.21037496               -0.00009059                0.00167517                0.00120117
               0.00078939                1.00046879               18.03724121                0.52475950               -0.06526359               -0.06482053                0.21758024                0.00034464               -0.00071109               -0.00191304
               1.00013675                1.00062989               18.03735331                0.01327353               -0.06572251               -0.06568946                0.21661115                0.00145422               -0.00216822                0.00056411
               1.99947494                1.00080711               18.03743730                0.01000000               -0.06621725               -0.04087739                0.21601227                0.02663302               -0.00419499                0.01476668
               2.99881241                1.00099987               18.03750999                0.01000001               -0.06605283               -0.00532100                0.21578180                0.05482135               -0.00462389                0.03477700
               3.99815388                1.00120288               18.03758540                0.01000000               -0.06562585                0.01279349                0.21548166                0.05001810               -0.00397788                0.04357115
               4.99749989                1.00140836               18.03766938                0.02255827               -0.06514926               -0.03634069                0.21495689                0.02154122               -0.00291840                0.00798627
               5.99685090                1.00161153               18.03776330                0.10972888               -0.06463703               -0.06363394                0.21416674                0.00060775               -0.00189826               -0.00350007
               6.99620715                1.00181027               18.03786473                0.22523353               -0.06412648               -0.06378131                0.21315921                0.00022046               -0.00125207               -0.00242903
               7.99556837                1.00200441               18.03796905                0.37977008               -0.06367451               -0.06358766                0.21204834                0.00007490               -0.00115489               -0.00174740
               8.99493366                1.00219504               18.03807088                0.59072202               -0.06331398               -0.06329144                0.21099525                0.00001140               -0.00107407               -0.00088652
               9.99430209                1.00238377               18.03817637                0.86644431               -0.06315724               -0.06300420                0.21005169                0.00004796               -0.00090671                0.00177835
               0.00063773                1.99982547               18.03729902                0.48200392               -0.06472613               -0.06451467                0.21684266                0.00007658               -0.00000528               -0.00308474
               0.99999047                1.99996887               18.03743182                0.01000000               -0.04095672               -0.06607163                0.21591543                0.02669149                0.01121621               -0.00016909
               1.99981860                2.00063729               18.03779018                0.01000001               -0.01404802               -0.01378218                0.21414336                0.12492564                0.02771542                0.03488745
               2.99970951                2.00153963               18.03824713                0.01000000               -0.04350156                0.03565276                0.21326054                0.16208447                0.02266936                0.07037842
               3.99894856                2.00210349               18.03847996                0.01000000               -0.09923791                0.08767331                0.21303796                0.12446652               -0.03196249                0.11195523
               4.99772475                2.00132476               18.03783222                0.01000001               -0.11441598                0.07199285                0.21731964                0.08042039               -0.05191351                0.12419106
               5.99666024                2.00098017               18.03767561                0.01152638               -0.08557777                0.10358709                0.21438759                0.14479027               -0.01646091                0.15146410
               6.99601319                2.00117359               18.03777769                0.01639215               -0.06422793                0.01916799                0.21300710                0.14202843               -0.00365069                0.12454612
               7.99537569                2.00136886               18.03787524                0.01000000               -0.06352736                0.04338547                0.21176601                0.12053411               -0.00373229                0.11814279
               8.99474265                2.00156261               18.03797422                0.05832712               -0.06316760               -0.04572580                0.21064711                0.02013773               -0.00246210                0.00497480
               9.99411233                2.00175421               18.03809643                0.56099478               -0.06303134               -0.06498283                0.20964510                0.01198618               -0.00128683                0.00662726
               0.00050412                2.99917850               18.03735052                0.50445528               -0.06453541               -0.06495819                0.21638288                0.00001961               -0.00001502               -0.00305582
               0.99985876                2.99930846               18.03749527                0.01000001               -0.00507151               -0.06579796                0.21558041                0.05485989                0.03010616               -0.00088181
               2.00040269                3.00053147               18.03824333                0.01000000                0.03645636               -0.04310808                0.21309560                0.16204688                0.06066307                0.03065909
               3.00058789                3.00171292               18.03896089                0.01000000                0.02277000                0.02089141                0.21080594                0.21257044                0.06801611                0.07848080
               4.00085809                3.00295635               18.03982000                0.01220712               -0.01781321                0.03870286                0.20556824                0.18481905                0.04711192                0.10994731
               5.00023162                3.00284822               18.04009565                0.01000000               -0.04801097                0.13207734                0.20435080                0.24641990                0.03837577                0.21892691
               5.99989787                3.00368327               18.04075251                0.01853344               -0.07863004                0.13789754                0.20032088                0.20827027               -0.00356442                0.21877251
               6.99865902                3.00219363               18.04027334                0.01000000               -0.11539157                0.08653297                0.20601185                0.22288251               -0.04161500                0.22440186
               7.99759003                3.00287212               18.04020728                0.01315896               -0.18539802                0.16253673                0.21804460                0.25729984               -0.12742885                0.27348354
               8.99495106                3.00128052               18.03800389                0.01410842               -0.17157148                0.29467540                0.21132389                0.27896592               -0.12079684                0.47532664
               9.99415860                3.00108412               18.03810122                0.52597669               -0.07924584                0.29139098                0.21023246                0.34003075               -0.00567265                0.46998696
               0.00037820                3.99852630               18.03740501                0.54350613               -0.06435062               -0.06530515                0.21581931                0.00002580               -0.00001055               -0.00222674
               0.99973470                3.99865291               18.03755979                0.01000000                0.01384343               -0.06530757                0.21517748                0.04999473                0.03855634               -0.00043737
               2.00065507                3.99977513               18.03848639                0.01000000                0.09006710               -0.09838567                0.21266125                0.12169460                0.10019545               -0.01725594
               3.00153604                4.00195746               18.03982294                0.01220810                0.04272909               -0.02042379                0.20522647                0.18234065                0.09652610                0.05713280
               4.00150965                4.00287755               18.04063882                0.01000000                0.01950930                0.01215923                0.19841069                0.17464325                0.10589019                0.11710202
               5.00192622                4.00396631               18.04205454                0.01864412               -0.00147100                0.04850368                0.17800498                0.14325393                0.05057045                0.12758255
               6.00148023                4.00373812               18.04183918                0.01000000               -0.03221137                0.00487390                0.18509157                0.06535331               -0.01233872                0.13250280
               7.00128200                4.00290425               18.04207212                0.01265906               -0.00227190                0.11632884                0.20236923                0.24038473                0.05159427                0.22567870
               8.00143480                4.00461960               18.04319161                0.01087530                0.04139874                0.17979507                0.22310264                0.48578033                0.25396947                0.35899088
               9.00210997                4.00745612               18.04731274                0.07515914               -0.00645194                0.27305427                0.24784908                0.50112764                0.21078362                0.48490150
              10.00130576                4.00758203               18.04729032                0.56014998               -0.08042154                0.29366281                0.25157160                0.36714451                0.00385977                0.47924711
               0.00025142                4.99787240               18.03746787                0.59625178               -0.06415849               -0.06528531                0.21501042                0.00002440               -0.00000644               -0.00107512
               0.99960983                4.99800231               18.03763085                0.02260780               -0.03596970               -0.06480627                0.21455259                0.02181225                0.00879062                0.00040769
               1.99953202                4.99856376               18.03796996                0.01000001                0.07612209               -0.11332651                0.21698990                0.07486754                0.10945540               -0.03498611
               3.00113228                5.00130445               18.04008294                0.01000000                0.14050405               -0.05229174                0.20350736                0.23681239                0.19415483                0.04612481
               4.00234211                5.00319953               18.04201284                0.01864543                0.05519305               -0.00743246                0.17731628                0.13825553                0.11214074                0.06134285
               5.00223614                5.00381829               18.04240219                0.01000000               -0.00375606               -0.01171573                0.16519845                0.02932962                0.04924603                0.05975953
               6.00226698                5.00378075               18.04316494                0.01294146                0.01745522                0.03107500                0.17390296                0.10111449                0.09527404                0.15884310
               7.00258524                5.00452021               18.04462663                0.01121193                0.02433971                0.12929730                0.21575758                0.23401683                0.18809435                0.24962031
               8.00275378                5.00646802               18.04716847                0.07478847               -0.02870300                0.05615613                0.24645226                0.16643561                0.13271022                0.21209788
               9.00201118                5.00674161               18.04718818                0.15687450               -0.07520558               -0.07351658                0.24931545                0.00866353                0.00364176                0.00755851
              10.00124967                5.00695737               18.04714777                0.60670394               -0.07615139               -0.06787380                0.25287712                0.00794183                0.00067985                0.00861376
               0.00011887                5.99722060               18.03754008                0.66462027               -0.06392864               -0.06492958                0.21393460               -0.00000013               -0.00000019               -0.00005916
               0.99947958                5.99735679               18.03770998                0.10980512               -0.06342918               -0.06429937                0.21366561                0.00103402               -0.00043125                0.00123321
               1.99885028                5.99750860               18.03787133                0.01153104                0.10784640               -0.08506039                0.21440408                0.13648843                0.13260813               -0.00626432
               3.00163651                6.00091163               18.04070028                0.01853733                0.14553187               -0.08145857                0.19897628                0.19535670                0.18752218                0.00577686
               4.00176092                6.00272890               18.04178178                0.01000000                0.01475449               -0.03805983                0.18419586                0.05560705                0.11211573               -0.00435106
               5.00193160                6.00373199               18.04309217                0.01294315                0.05198404               -0.00294108                0.17419732                0.09530806                0.14249012                0.09575123
               6.00280060                6.00435962               18.04484104                0.01137018                0.06717314                0.03756753                0.20829485                0.16377952                0.17536935                0.17602238
               7.00327506                6.00549020               18.04688524                0.07510046               -0.01292459                0.01213889                0.24576875                0.09296449                0.10865392                0.12465149
               8.00254211                6.00574272               18.04694640                0.15724867               -0.07405843               -0.07374536                0.24826727                0.00286849                0.00684230                0.00044588
               9.00179389                6.00598578               18.04695324                0.26654790               -0.07545263               -0.07570182                0.25121496                0.00156727                0.00246638                0.00117007
              10.00103306                6.00622455               18.04692713                0.67031308               -0.07608350               -0.07457009                0.25467157                0.00112498                0.00083970                0.00368020
              -0.00002096                6.99657381               18.03761883                0.75174910               -0.06365259               -0.06435228                0.21265369               -0.00004219                0.00001513                0.00045984
               0.99934252                6.99671632               18.03779500                0.22535188               -0.06360458               -0.06381689                0.21256599                0.00043748                0.00003011                0.00167414
               1.99870695                6.99686255               18.03797160                0.01639904                0.02382933               -0.06413107                0.21296640                0.13368871                0.10482637                0.00347092
               2.99981910                6.99967528               18.04024235                0.01000000                0.09634660               -0.11552981                0.20512556                0.20366419                0.18536676               -0.03255080
               4.00063388                7.00243834               18.04192425                0.01266400                0.13462399               -0.01937846                0.20206416                0.21869569                0.18923721                0.04837201
               5.00251158                7.00375947               18.04430877                0.01121680                0.15752423               -0.00804792                0.21629874                0.22340873                0.21983982                0.16527234
               6.00378437                7.00453210               18.04658419                0.07510635                0.02749243               -0.02795273                0.24483571                0.08971356                0.11954975                0.09855132
               7.00306143                7.00476299               18.04665696                0.15740928               -0.07344013               -0.07360365                0.24749077                0.00163019                0.00749618               -0.00067817
               8.00231556                7.00499312               18.04669071                0.26674252               -0.07503705               -0.07523239                0.25032517                0.00078088                0.00439484               -0.00151144
               9.00156069                7.00522757               18.04670124                0.41761555               -0.07604685               -0.07612664                0.25342762                0.00047111                0.00198968               -0.00023143
              10.00079463                7.00546597               18.04668676                0.75936928               -0.07660627               -0.07648922                0.25684809                0.00005993                0.00077398                0.00203000
              -0.00016701                7.99593355               18.03769847                0.86225740               -0.06334057               -0.06370063                0.21129083               -0.00008892                0.00004368                0.00027482
               0.99919959                7.99608045               18.03788078                0.37995687               -0.06339441               -0.06340095                0.21136719                0.00015641                0.00015005                0.00150652
               1.99856510                7.99622597               18.03806563                0.01000000                0.04672089               -0.06344649                0.21166198                0.11179085                0.09450462                0.00279160
               3.00013400                7.99860103               18.04013416                0.01316722                0.17427697               -0.17846798                0.21767958                0.22167145                0.21976318               -0.09358444
               4.00205064                8.00234133               18.04279697                0.01088614                0.20860020                0.00414174                0.22319038                0.45762997                0.29453538                0.20842875
               5.00430601                8.00357103               18.04630056                0.07480589                0.07703551               -0.04618277                0.24365825                0.15403143                0.17976583                0.11056383
               6.00359135                8.00380056               18.04637256                0.15727789               -0.07296786               -0.07366346                0.24641146                0.00261030                0.00626985               -0.00003226
               7.00284665                8.00401813               18.04640777                0.26677678               -0.07491042               -0.07478703                0.24940305                0.00073603                0.00372746               -0.00156212
               8.00209315                8.00423807               18.04642906                0.41764394               -0.07580955               -0.07581724                0.25257920                0.00040346                0.00242791               -0.00179381
               9.00133046                8.00446325               18.04643796                0.63621409               -0.07678463               -0.07680655                0.25590931                0.00019996                0.00115407               -0.00114690
              10.00055745                8.00469477               18.04643310                0.89097382               -0.07730076               -0.07763270                0.25934454               -0.00021594                0.00052793                0.00099004
              -0.00031653                8.99529979               18.03777229                1.00000000               -0.06302518               -0.06312569                0.21000602               -0.00013654                0.00009264               -0.00016278
               0.99905322                8.99544830               18.03796112                0.59102667               -0.06306454               -0.06305972                0.21022234                0.00002490                0.00009317                0.00086730
               1.99842218                8.99559362               18.03815073                0.05839988               -0.04580248               -0.06309320                0.21045981                0.01855377                0.00514600                0.00151599
               2.99813717                8.99610592               18.03844028                0.01420407                0.31971482               -0.16493153                0.21178106                0.22157419                0.37244176               -0.08917958
               4.00481648                9.00252117               18.04597200                0.07525499                0.29979042               -0.03081548                0.24319117                0.46030810                0.38323432                0.16953912
               5.00413298                9.00283581               18.04610456                0.15693656               -0.07135000               -0.07421857                0.24562229                0.00706976                0.00829093                0.00040455
               6.00338948                9.00305883               18.04614293                0.26664868               -0.07471679               -0.07464525                0.24845910                0.00135400                0.00251970               -0.00067751
               7.00263865                9.00326725               18.04616166                0.41776403               -0.07554853               -0.07550285                0.25159793                0.00043188                0.00085354               -0.00095086
               8.00187851                9.00347677               18.04616721                0.63637509               -0.07653277               -0.07650911                0.25499775                0.00019337               -0.00008370               -0.00117982
               9.00110799                9.00369144               18.04616682                0.97498256               -0.07756181               -0.07755455                0.25855926                0.00007927               -0.00009295               -0.00108369
              10.00032727                9.00391332               18.04617105                0.98841357               -0.07807171               -0.07858714                0.26203188               -0.00034937                0.00022831                0.00057195
              -0.00046676                9.99467104               18.03784353                0.99499878               -0.06269852               -0.06287547                0.20891211               -0.00020165               -0.00041926               -0.00035954
               0.99890626                9.99481925               18.03803375                0.86663915               -0.06273386               -0.06290497                0.20916051               -0.00004282               -0.00076022                0.00046661
               1.99827857                9.99496411               18.03821827                0.56105075               -0.06341612               -0.06295095                0.20929655                0.00979571                0.00149711                0.00066564
               2.99763794                9.99530240               18.03845376                0.52607064                0.31241718               -0.08035149                0.21047061                0.28812197                0.35945165               -0.00370673
               4.00452691               10.00172502               18.04580025                0.56024545                0.31359036               -0.07961487                0.24602179                0.31025609                0.37064596                0.00236648
               5.00390974               10.00208666               18.04589312                0.60675553               -0.06699555               -0.07491493                0.24829493                0.00680790                0.00447269               -0.00039350
               6.00318700               10.00230766               18.04591931                0.67039480               -0.07361959               -0.07511750                0.25102252                0.00082231                0.00002272               -0.00040949
               7.00243735               10.00250807               18.04592500                0.75949542               -0.07570892               -0.07591762                0.25411919               -0.00011796               -0.00171550               -0.00048093
               8.00167282               10.00270789               18.04591732                0.89113654               -0.07709255               -0.07688838                0.25752803               -0.00036433               -0.00268021               -0.00054192
               9.00089550               10.00291216               18.04590353                0.98841418               -0.07830564               -0.07792778                0.26112348               -0.00049205               -0.00204402               -0.00060819
              10.00010671               10.00312303               18.04590726                0.99834543               -0.07887924               -0.07902907                0.26460182               -0.00096992               -0.00105498                0.00060678
               0.00085314                0.00104154               19.03935208                0.78585684               -0.06535239               -0.06532885                0.21874288               -0.00027317                0.00070555               -0.00093900
               1.00019961                0.00121682               19.03945417                0.52487454               -0.06483820               -0.06532049                0.21781984                0.00036532                0.00049553                0.00056901
               1.99955637                0.00140397               19.03955239                0.48200850               -0.06443018               -0.06482308                0.21719561                0.00007243               -0.00024147                0.00001442
               2.99891101                0.00161138               19.03963881                0.50436665               -0.06476017               -0.06465844                0.21678566               -0.00002609               -0.00052303               -0.00006182
               3.99826117                0.00183074               19.03972835                0.54332085               -0.06507773               -0.06449499                0.21629679               -0.00002924                0.00023471               -0.00009538
               4.99760946                0.00205390               19.03982567                0.59598870               -0.06511183               -0.06432769                0.21561336               -0.00002685                0.00127768               -0.00011519
               5.99695893                0.00227539               19.03993161                0.66433225               -0.06487312               -0.06413061                0.21471436               -0.00004023                0.00222675               -0.00013997
               6.99631199                0.00249257               19.04004409                0.75152405               -0.06445144               -0.06389671                0.21365088               -0.00006603                0.00281508               -0.00019691
               7.99566991                0.00270498               19.04015919                0.86220187               -0.06396605               -0.06363355                0.21252841               -0.00009308                0.00291385               -0.00028371
               8.99503267                0.00291372               19.04027247                1.00000000               -0.06353220               -0.06336896                0.21148054               -0.00012029                0.00221942               -0.00038472
               9.99439926                0.00312018               19.04037377                0.99526325               -0.06334112               -0.06309625                0.21057568               -0.00006451                0.00157760                0.00114701
               0.00067513                1.00038825               19.03941767                0.52488183               -0.06530753               -0.06480362                0.21769303                0.00035663               -0.00069356               -0.00172621
               1.00002205                1.00056361               19.03952024                0.01333111               -0.06576558               -0.06573498                0.21675700                0.00148211               -0.00197429                0.00079118
               1.99935982                1.00075573               19.03959795                0.01000000               -0.06623453               -0.04072164                0.21610912                0.02691729               -0.00364915                0.01437465
               2.99869736                1.00096479               19.03966765                0.01000001               -0.06600994               -0.00431841                0.21575370                0.05586199               -0.00393041                0.03398529
               3.99803962                1.00118579               19.03973948                0.01000000               -0.06552513                0.01428250                0.21534887                0.05133437               -0.00342037                0.04279025
               4.99738686                1.00141062               19.03981792                0.02226586               -0.06502127               -0.03472292                0.21476962                0.02255368               -0.00259990                0.00932786
               5.99673919                1.00163408               19.03990393                0.10937683               -0.06451613               -0.06359311                0.21398095                0.00061727               -0.00182263               -0.00309335
               6.99609654                1.00185360               19.03999555                0.22489243               -0.06403970               -0.06375548                0.21302406                0.00023285               -0.00134405               -0.00224189
               7.99545840                1.00206865               19.04008923                0.37953534               -0.06363350               -0.06357916                0.21199660                0.00008527               -0.00128129               -0.00166271
               8.99482387                1.00228003               19.04018101                0.59065012               -0.06331227               -0.06330251                0.21102716                0.00001726               -0.00113142               -0.00087281
               9.99419215                1.00248922               19.04027739                0.86645320               -0.06317140               -0.06303287                0.21013984                0.00006746               -0.00091351                0.00169897
               0.00050955                1.99974547               19.03946785                0.48202275               -0.06477773               -0.06440075                0.21691345                0.00007451               -0.00000053               -0.00264263
               0.99986177                1.99990212               19.03959150                0.01000000               -0.04080057               -0.06609808                0.21601202                0.02697823                0.01077711                0.00042177
               1.99969354                2.00058953               19.03993164                0.01000001               -0.01317876               -0.01290820                0.21413729                0.12726027                0.02733156                0.03455619
               2.99959820                2.00152501               19.04037816                0.01000000               -0.04257530                0.03753858                0.21297480                0.16568179                0.02312279                0.06881626
               3.99884203                2.00211639               19.04060872                0.01000000               -0.09929823                0.09102344                0.21248621                0.12800106               -0.02933151                0.10806755
               4.99761223                2.00135944               19.03999915                0.01000001               -0.11568694                0.07645836                0.21623396                0.08188456               -0.05051355                0.11928463
               5.99652829                2.00100353               19.03981718                0.01146837               -0.08650712                0.10771340                0.21397171                0.14388248               -0.01734480                0.14684593
               6.99588209                2.00121746               19.03990616                0.01630726               -0.06415549                0.02173417                0.21272133                0.14191003               -0.00388406                0.12227842
               7.99524518                2.00143340               19.03999194                0.01000000               -0.06348240                0.04406959                0.21159740                0.12100823               -0.00386441                0.12092848
               8.99461244                2.00164767               19.04008030                0.05792203               -0.06314756               -0.04567917                0.21057847                0.02017036               -0.00250164                0.00551123
               9.99398223                2.00185953               19.04019283                0.56076662               -0.06302097               -0.06501867                0.20963653                0.01203881               -0.00128321                0.00702078
               0.00036332                2.99910024               19.03951421                0.50439074               -0.06457672               -0.06475164                0.21635541               -0.00000512               -0.00000144               -0.00257305
               0.99971755                2.99924165               19.03965091                0.01000001               -0.00405948               -0.06577107                0.21555259                0.05592204                0.02921708               -0.00014646
               2.00028213                3.00049757               19.04037274                0.01000000                0.03832958               -0.04220599                0.21282676                0.16570683                0.05893658                0.03107725
               3.00048414                3.00171556               19.04106264                0.01000000                0.02415408                0.02235701                0.21008138                0.21807401                0.06449769                0.07497328
               4.00076521                3.00300626               19.04186394                0.01212861               -0.01733667                0.04128169                0.20531688                0.19095970                0.04400848                0.10581010
               5.00013741                3.00293979               19.04213080                0.01000000               -0.05031970                0.13720280                0.20462972                0.25000145                0.03629875                0.20434574
               5.99975882                3.00378835               19.04278689                0.01840236               -0.08162705                0.14294918                0.20561965                0.20835977               -0.00276114                0.20714141
               6.99850487                3.00228829               19.04234708                0.01000000               -0.11552314                0.08924740                0.20859239                0.22034442               -0.03549952                0.22054252
               7.99744836                3.00295004               19.04237327                0.01299626               -0.18518614                0.16443310                0.21623878                0.25863483               -0.12548199                0.27931462
               8.99480115                3.00136645               19.04011639                0.01390887               -0.17195673                0.30268092                0.21122254                0.28880470               -0.12299800                0.49434492
               9.99400922                3.00118885               19.04020312                0.52587466               -0.07919264                0.29896948                0.21016121                0.35049947               -0.00578616                0.49127275
               0.00022662                3.99845043               19.03956267                0.54335904               -0.06437414               -0.06506139                0.21572032               -0.00000224                0.00000220               -0.00193771
               0.99958288                3.99858670               19.03971083                0.01000000                0.01535704               -0.06522641                0.21504567                0.05132485                0.03760532                0.00016394
               2.00053376                3.99974541               19.04061149                0.01000000                0.09340568               -0.09854937                0.21216767                0.12537256                0.09587884               -0.01457375
               3.00145099                4.00197215               19.04186357                0.01212953                0.04516223               -0.01989582                0.20507072                0.18858742                0.09196999                0.05394902
               4.00143700                4.00294202               19.04262906                0.01000000                0.01895869                0.01173346                0.20139463                0.18390441                0.09484842                0.10644402
               5.00183017                4.00410349               19.04391538                0.01845868               -0.00450091                0.04834481                0.19256101                0.14701722                0.04662951                0.11648842
               6.00134699                4.00386251               19.04376208                0.01000000               -0.03514355                0.00408796                0.19789510                0.06297749               -0.00211399                0.12427349
               7.00112729                4.00300241               19.04413539                0.01242296               -0.00036332                0.11660265                0.20874848                0.24161010                0.06779398                0.23205588
               8.00133972                4.00472206               19.04542075                0.01065603                0.05112159                0.18750411                0.22334171                0.50163841                0.27309288                0.37302524
               9.00214973                4.00770129               19.04979044                0.07495892                0.00038518                0.28093367                0.24781779                0.51777193                0.22140487                0.50162473
              10.00134742                4.00783892               19.04980436                0.56003347               -0.08023022                0.30119524                0.25134626                0.37722127                0.00376224                0.49814677
               0.00009075                4.99779901               19.03961734                0.59604672               -0.06416824               -0.06505669                0.21489243                0.00000096                0.00000494               -0.00104889
               0.99944907                4.99793712               19.03977535                0.02231473               -0.03433130               -0.06469855                0.21436733                0.02278918                0.01001483                0.00077280
               1.99940413                4.99852658               19.04013375                0.01000001                0.08051067               -0.11469466                0.21595413                0.07646689                0.10404291               -0.03324170
               3.00105928                5.00131765               19.04211223                0.01000000                0.14539147               -0.05464823                0.20421241                0.24056964                0.17865681                0.04420477
               4.00231196                5.00324093               19.04387001                0.01845994                0.05489901               -0.01049830                0.19230429                0.14206767                0.10045260                0.05752884
               5.00215726                5.00390668               19.04422461                0.01000000               -0.00962529               -0.01740609                0.19119551                0.03099690                0.05017288                0.06123312
               6.00211945                5.00387011               19.04504894                0.01263507                0.01601302                0.02976907                0.19610754                0.10338077                0.11510618                0.16935439
               7.00247753                5.00462034               19.04680250                0.01090187                0.03313967                0.13538012                0.22025362                0.24972981                0.21871708                0.27019294
               8.00278224                5.00670012               19.04963285                0.07453603               -0.02188976                0.06260672                0.24655107                0.17920606                0.14511201                0.22249450
               9.00203973                5.00698512               19.04968143                0.15673119               -0.07519252               -0.07362167                0.24942242                0.00866663                0.00328523                0.00695008
              10.00127839                5.00721275               19.04967589                0.60664319               -0.07613359               -0.06797584                0.25281180                0.00787242                0.00057329                0.00779420
              -0.00004959                5.99714930               19.03967897                0.66441881               -0.06393250               -0.06475541                0.21385091               -0.00001547                0.00001195               -0.00026982
               0.99931109                5.99729272               19.03984562                0.10945214               -0.06339198               -0.06419693                0.21348308                0.00100728                0.00003747                0.00135938
               1.99868257                5.99745152               19.04001286                0.01147299                0.11184780               -0.08601297                0.21395103                0.13571794                0.12749954               -0.00682617
               3.00154804                6.00087918               19.04272742                0.01840614                0.15033763               -0.08458570                0.20509458                0.19561612                0.17467897                0.00714325
               4.00168932                6.00273206               19.04369946                0.01000000                0.01364376               -0.04089642                0.19749972                0.05353739                0.10373630                0.00651132
               5.00182092                6.00375537               19.04497549                0.01263672                0.05058095               -0.00419612                0.19601618                0.09777674                0.15229599                0.11653093
               6.00270094                6.00445789               19.04697551                0.01102175                0.07354831                0.04345857                0.21744010                0.18124508                0.20780819                0.20878411
               7.00329188                6.00571001               19.04934232                0.07478408               -0.00709409                0.01811424                0.24582245                0.10525576                0.12274954                0.13729012
               8.00255906                6.00597419               19.04942910                0.15706051               -0.07407287               -0.07378549                0.24838141                0.00283848                0.00618702                0.00004046
               9.00181043                6.00622886               19.04946548                0.26656161               -0.07547249               -0.07572994                0.25130533                0.00152851                0.00217548                0.00082376
              10.00104961                6.00647940               19.04947334                0.67035146               -0.07608146               -0.07460323                0.25461620                0.00109588                0.00073523                0.00320853
              -0.00019640                6.99650390               19.03974532                0.75165249               -0.06365995               -0.06425421                0.21264671               -0.00004786                0.00003165                0.00010611
               0.99916700                6.99665318               19.03991991                0.22500956               -0.06357855               -0.06374391                0.21243439                0.00043141                0.00027121                0.00163696
               1.99853203                6.99680632               19.04009943                0.01631395                0.02620371               -0.06405603                0.21263895                0.13366876                0.10205842                0.00337212
               2.99969107                6.99962593               19.04230872                0.01000000                0.09872464               -0.11563266                0.20801414                0.20169220                0.18082563               -0.02557718
               4.00050652                7.00242300               19.04398355                0.01242780                0.13479449               -0.01716218                0.20837838                0.22059977                0.19534620                0.06528754
               5.00238696                7.00382276               19.04648447                0.01090684                0.16415968                0.00049827                0.22007607                0.23976129                0.23950226                0.19507045
               6.00378971                7.00473928               19.04903217                0.07478953                0.03396895               -0.02250191                0.24493670                0.10214926                0.13131776                0.11261531
               7.00306634                7.00498263               19.04913173                0.15719337               -0.07347706               -0.07362897                0.24758804                0.00160709                0.00695905               -0.00124594
               8.00232017                7.00522441               19.04919388                0.26675041               -0.07506224               -0.07524470                0.25040187                0.00070381                0.00399065               -0.00178402
               9.00156510                7.00547052               19.04923527                0.41789789               -0.07604721               -0.07612277                0.25344025                0.00042650                0.00180134               -0.00035709
              10.00079923                7.00572069               19.04925443                0.75953537               -0.07658689               -0.07647906                0.25672177                0.00004494                0.00069667                0.00185428
              -0.00034911                7.99586422               19.03981187                0.86239384               -0.06335976               -0.06368012                0.21138304               -0.00008626                0.00006401               -0.00008331
               0.99901729                7.99601785               19.03999415                0.37972085               -0.06338459               -0.06336711                0.21131627                0.00016015                0.00027686                0.00143493
               1.99838320                7.99617040               19.04018105                0.01000000                0.04739615               -0.06339359                0.21144796                0.11248947                0.09699677                0.00278067
               2.99996521                7.99856653               19.04229702                0.01300439                0.17606491               -0.17827092                0.21591631                0.22387243                0.22509842               -0.09063817
               4.00190449                8.00238881               19.04502334                0.01066729                0.21673221                0.01388224                0.22292181                0.47463508                0.30699543                0.22592187
               5.00429986                8.00376534               19.04873775                0.07455256                0.08397842               -0.03964837                0.24390632                0.16730662                0.18851678                0.12204075
               6.00358406                8.00400786               19.04883721                0.15708785               -0.07304790               -0.07369556                0.24662628                0.00259292                0.00589574               -0.00070561
               7.00283890                8.00423743               19.04890198                0.26678230               -0.07494106               -0.07482409                0.24952954                0.00066162                0.00347900               -0.00198414
               8.00208524                8.00446930               19.04895460                0.41795122               -0.07581104               -0.07581795                0.25260022                0.00033809                0.00228921               -0.00194671
               9.00132268                8.00470640               19.04899634                0.63671851               -0.07675300               -0.07677122                0.25581215                0.00016557                0.00109984               -0.00109892
              10.00055018                8.00494982               19.04902524                0.89116116               -0.07724974               -0.07757384                0.25910456               -0.00021751                0.00049997                0.00104013
              -0.00050539                8.99523030               19.03987336                1.00000000               -0.06305947               -0.06316378                0.21018936               -0.00012952                0.00010862               -0.00039319
               0.99886402                8.99538584               19.04006350                0.59095354               -0.06307412               -0.06305944                0.21025099                0.00002989                0.00012929                0.00084982
               1.99823313                8.99553845               19.04025468                0.05799769               -0.04569547               -0.06306056                0.21034235                0.01867329                0.00573821                0.00154871
               2.99795011                8.99606052               19.04055672                0.01401009                0.32836428               -0.16544459                0.21156155                0.23186382                0.38877343               -0.09090134
               4.00480041                9.00270064               19.04840447                0.07505824                0.30819712               -0.02416287                0.24342321                0.47807998                0.39707371                0.17846931
               5.00411405                9.00302979               19.04856189                0.15679012               -0.07154704               -0.07426078                0.24592967                0.00714437                0.00771655                0.00004286
               6.00336947                9.00326537               19.04862836                0.26665594               -0.07479608               -0.07470804                0.24869714                0.00132719                0.00219368               -0.00097351
               7.00261813                9.00348614               19.04867790                0.41803629               -0.07557545               -0.07553195                0.25170802                0.00039015                0.00074079               -0.00114570
               8.00185796                9.00370805               19.04871672                0.63686828               -0.07651196               -0.07649209                0.25494882                0.00015958               -0.00002887               -0.00123990
               9.00108789                9.00393510               19.04875123                0.97498417               -0.07749612               -0.07748929                0.25834405                0.00006334               -0.00001972               -0.00101298
              10.00030804                9.00416921               19.04878954                0.98848118               -0.07798465               -0.07848173                0.26166739               -0.00033902                0.00025424                0.00065706
              -0.00066279                9.99460094               19.03993399                0.99526704               -0.06274777               -0.06293566                0.20915313               -0.00016848               -0.00050005               -0.00049034
               0.99870973                9.99475666               19.04012583                0.86664710               -0.06276119               -0.06291835                0.20924416               -0.00001606               -0.00088026                0.00048635
               1.99808199                9.99490919               19.04031094                0.56082531               -0.06347165               -0.06292643                0.20924135                0.00993486                0.00184876                0.00070250
               2.99744030                9.99525764               19.04055743                0.52597424                0.32074150               -0.08028758                0.21028797                0.29883752                0.37765501               -0.00381063
               4.00449682               10.00190555               19.04826037                0.56013234                0.32188574               -0.07950876                0.24610588                0.32076424                0.38634040                0.00227055
               5.00387801               10.00228012               19.04837668                0.60669206               -0.06712812               -0.07496713                0.24847739                0.00680345                0.00368365               -0.00049909
               6.00315425               10.00251369               19.04843002                0.67042755               -0.07369953               -0.07516775                0.25116210                0.00081166               -0.00043863               -0.00051415
               7.00240402               10.00272679               19.04846612                0.75965275               -0.07573878               -0.07593502                0.25413795               -0.00012229               -0.00188930               -0.00055964
               8.00163948               10.00293946               19.04849178                0.89131242               -0.07706194               -0.07685925                0.25738437               -0.00035762               -0.00263287               -0.00057188
               9.00086278               10.00315661               19.04851319                0.98848186               -0.07821513               -0.07784836                0.26080700               -0.00047418               -0.00196279               -0.00058305
              10.00007518               10.00338018               19.04855106                0.99854423               -0.07876090               -0.07890278                0.26413540               -0.00092986               -0.00101817                0.00064702
               0.00076297                0.00097193               20.04153981                0.78592762               -0.06536531               -0.06534269                0.21878918               -0.00026087                0.00075004               -0.00091950
               1.00010931                0.00116191               20.04163283                0.52496686               -0.06482590               -0.06535206                0.21789645                0.00037090                0.00067733                0.00059652
               1.99946645                0.00136400               20.04172459                0.48202068               -0.06434416               -0.06486475                0.21723715                0.00007095                0.00015031                0.00001734
               2.99882243                0.00158713               20.04180645                0.50431572               -0.06459630               -0.06469187                0.21674428               -0.00004418               -0.00010303               -0.00005303
               3.99817452                0.00182345               20.04189075                0.54320840               -0.06487822               -0.06451337                0.21619176               -0.00005019                0.00049883               -0.00008722
               4.99752487                0.00206477               20.04198112                0.59583417               -0.06492018               -0.06433373                0.21548761               -0.00004453                0.00132726               -0.00010797
               5.99687612                0.00230540               20.04207821                0.66418414               -0.06472371               -0.06413075                0.21461404               -0.00005163                0.00208190               -0.00013229
               6.99623039                0.00254236               20.04218039                0.75146153               -0.06436349               -0.06389890                0.21361275               -0.00006984                0.00255572               -0.00018672
               7.99558885                0.00277485               20.04228470                0.86232484               -0.06394038               -0.06364473                0.21256996               -0.00009060                0.00265764               -0.00027197
               8.99495158                0.00300367               20.04238790                1.00000000               -0.06355230               -0.06339148                0.21159229               -0.00011486                0.00206488               -0.00037691
               9.99431780                0.00322999               20.04248040                0.99546693               -0.06337807               -0.06312975                0.21073002               -0.00004452                0.00149677                0.00110059
               0.00057038                1.00031850               20.04159507                0.52497393               -0.06533903               -0.06479242                0.21777322                0.00036148               -0.00068159               -0.00158281
               0.99991699                1.00050839               20.04168845                0.01337364               -0.06579155               -0.06576355                0.21687019                0.00148802               -0.00182552                0.00096931
               1.99925455                1.00071535               20.04175948                0.01000000               -0.06623607               -0.04051886                0.21618771                0.02719721               -0.00322747                0.01390806
               2.99859226                1.00094021               20.04182507                0.01000001               -0.06596721               -0.00330843                0.21573292                0.05677074               -0.00339302                0.03306357
               3.99793520                1.00117831               20.04189238                0.01000000               -0.06544113                0.01584735                0.21524256                0.05238224               -0.00298980                0.04167990
               4.99728344                1.00142143               20.04196478                0.02204177               -0.06491960               -0.03335993                0.21461863                0.02334698               -0.00235928                0.01031013
               5.99663681                1.00166409               20.04204291                0.10910733               -0.06442367               -0.06356367                0.21383313                0.00060802               -0.00177364               -0.00276148
               6.99599497                1.00190337               20.04212521                0.22462794               -0.06397613               -0.06373607                0.21292015                0.00023348               -0.00142137               -0.00208402
               7.99535729                1.00213840               20.04220898                0.37933942               -0.06360512               -0.06357275                0.21195936                0.00008994               -0.00137540               -0.00158563
               8.99472287                1.00236976               20.04229142                0.59054591               -0.06331225               -0.06331090                0.21105229                0.00002134               -0.00116774               -0.00085456
               9.99409104                1.00259869               20.04237917                0.86642340               -0.06318248               -0.06305425                0.21020567                0.00008290               -0.00091209                0.00163183
               0.00039042                1.99967608               20.04163729                0.48203472               -0.06481986               -0.06431371                0.21696520                0.00007129                0.00000187               -0.00229930
               0.99974222                1.99984664               20.04175206                0.01000000               -0.04059276               -0.06610898                0.21609095                0.02725639                0.01026881                0.00088338
               1.99957857                2.00055362               20.04207293                0.01000001               -0.01236691               -0.01210917                0.21417271                0.12947318                0.02665062                0.03393331
               2.99949488                2.00152096               20.04250662                0.01000000               -0.04188092                0.03933835                0.21289778                0.16905765                0.02278171                0.06677923
               3.99874095                2.00214039               20.04272969                0.01000000               -0.09944306                0.09369531                0.21222189                0.13057530               -0.02742500                0.10416075
               4.99750602                2.00139757               20.04215690                0.01000001               -0.11673015                0.07987317                0.21551586                0.08224698               -0.04908514                0.11510060
               5.99640634                2.00103413               20.04195504                0.01143192               -0.08726353                0.11085551                0.21363917                0.14298089               -0.01796231                0.14454579
               6.99576075                2.00126764               20.04203212                0.01624953               -0.06410420                0.02359397                0.21249781                0.14184776               -0.00406285                0.12136474
               7.99512426                2.00150340               20.04210719                0.01000000               -0.06345144                0.04456021                0.21146831                0.12118092               -0.00395172                0.12346499
               8.99449172                2.00173745               20.04218579                0.05756241               -0.06313332               -0.04562413                0.21052505                0.02019462               -0.00251901                0.00610274
               9.99386159                2.00196890               20.04228916                0.56055624               -0.06301295               -0.06503226                0.20962784                0.01206385               -0.00127263                0.00744978
               0.00023068                2.99903223               20.04167763                0.50433925               -0.06461142               -0.06458293                0.21632995               -0.00002643                0.00000857               -0.00219782
               0.99958457                2.99918621               20.04180632                0.01000001               -0.00305018               -0.06574449                0.21553322                0.05683498                0.02821966                0.00042861
               2.00016968                3.00047317               20.04249986                0.01000000                0.04010378               -0.04154912                0.21277762                0.16910557                0.05676812                0.03075661
               3.00038665                3.00172698               20.04316251                0.01000000                0.02502086                0.02329460                0.21039784                0.22210192                0.06151778                0.07207371
               4.00067010                3.00305222               20.04392634                0.01207526               -0.01760001                0.04299821                0.20759856                0.19528892                0.04158803                0.10114287
               5.00003465                3.00301890               20.04418824                0.01000000               -0.05218678                0.14023467                0.20740897                0.25243790                0.03649380                0.19462417
               5.99962636                3.00388120               20.04486490                0.01831102               -0.08359945                0.14637051                0.20964351                0.20839766                0.00003756                0.20058017
               6.99836266                3.00237525               20.04444519                0.01000001               -0.11576373                0.09111566                0.21106119                0.21834278               -0.03031285                0.21911934
               7.99731109                3.00302961               20.04453205                0.01287180               -0.18507028                0.16585582                0.21599540                0.25996847               -0.12415499                0.28557991
               8.99466125                3.00145727               20.04222834                0.01374961               -0.17208343                0.30930554                0.21117875                0.29655863               -0.12487989                0.51353499
               9.99386942                3.00129805               20.04230444                0.52579309               -0.07918316                0.30516435                0.21011718                0.35865546               -0.00589416                0.51258379
               0.00008193                3.99838442               20.04171942                0.54324556               -0.06439485               -0.06485562                0.21563680               -0.00002687                0.00001242               -0.00171768
               0.99943798                3.99853175               20.04186070                0.01000000                0.01689877               -0.06516194                0.21494193                0.05236827                0.03638129                0.00063496
               2.00041990                3.99972264               20.04272974                0.01000000                0.09599462               -0.09878089                0.21198704                0.12807158                0.09172443               -0.01256254
               3.00135787                4.00198686               20.04392436                0.01207619                0.04674529               -0.02011457                0.20747417                0.19301123                0.08710833                0.05161707
               4.00135481                4.00300036               20.04466672                0.01000000                0.01839611                0.01137438                0.20595748                0.18920453                0.09007850                0.10182989
               5.00172579                4.00420227               20.04590576                0.01832768               -0.00684313                0.04819714                0.20339093                0.14936016                0.04577229                0.11061652
               6.00121795                4.00396154               20.04579708                0.01000001               -0.03732945                0.00365999                0.20702353                0.06262681                0.00433134                0.12014220
               7.00097920                4.00308995               20.04624709                0.01224693                0.00118289                0.11709431                0.21305641                0.24359918                0.07877208                0.23766046
               8.00124160                4.00482051               20.04765844                0.01048390                0.05876264                0.19399763                0.22435723                0.51498071                0.29093876                0.38802928
               9.00215446                4.00792356               20.05226910                0.07479655                0.00557783                0.28741453                0.24802009                0.53121367                0.23179321                0.51854843
              10.00135316                4.00807219               20.05231724                0.55993895               -0.08012973                0.30731174                0.25132472                0.38500224                0.00372779                0.51718739
              -0.00006451                4.99773511               20.04176572                0.59589088               -0.06417759               -0.06486009                0.21479346               -0.00002041                0.00001481               -0.00104277
               0.99929372                4.99788297               20.04191820                0.02209016               -0.03297445               -0.06461672                0.21421990                0.02354488                0.01092444                0.00105763
               1.99927600                4.99849755               20.04228905                0.01000001                0.08377181               -0.11581251                0.21528831                0.07701459                0.09960148               -0.03150962
               3.00096915                5.00132469               20.04416719                0.01000000                0.14813880               -0.05644254                0.20722164                0.24338872                0.16860422                0.04456867
               4.00223878                5.00327971               20.04585892                0.01832892                0.05457573               -0.01273831                0.20327967                0.14454592                0.09431704                0.05698752
               5.00206067                5.00398284               20.04622610                0.01000001               -0.01237820               -0.01997574                0.20477944                0.03251866                0.05101250                0.06237889
               6.00199122                5.00395440               20.04708709                0.01240698                0.01575000                0.02952632                0.20820169                0.10531426                0.12742698                0.17751011
               7.00237567                5.00471714               20.04903170                0.01066321                0.03929364                0.14084102                0.22480114                0.26262066                0.24013436                0.28705919
               8.00277709                5.00690956               20.05209949                0.07433222               -0.01709104                0.06809943                0.24688103                0.18947591                0.15515212                0.23263865
               9.00203385                5.00720557               20.05217663                0.15660530               -0.07524375               -0.07375736                0.24969037                0.00867150                0.00303001                0.00645495
              10.00127221                5.00744428               20.05220401                0.60658750               -0.07616335               -0.06810025                0.25286972                0.00781614                0.00049245                0.00713425
              -0.00021419                5.99708722               20.04181710                0.66426864               -0.06393685               -0.06460422                0.21378203               -0.00003026                0.00002283               -0.00045718
               0.99914644                5.99723941               20.04197965                0.10918162               -0.06336673               -0.06412189                0.21333931                0.00096405                0.00042641                0.00145682
               1.99851847                5.99740639               20.04215035                0.01143645                0.11485251               -0.08678701                0.21358631                0.13509510                0.12493563               -0.00718048
               3.00144349                6.00085801               20.04480217                0.01831481                0.15345514               -0.08652797                0.20938531                0.19607755                0.16764885                0.01025337
               4.00158758                6.00274559               20.04573178                0.01000001                0.01289891               -0.04297451                0.20681175                0.05355113                0.09935020                0.01336938
               5.00170147                6.00380275               20.04701250                0.01240850                0.05011802               -0.00421120                0.20809776                0.09994054                0.16024934                0.12910662
               6.00258994                6.00455207               20.04918984                0.01075467                0.07874971                0.04841542                0.22395395                0.19381298                0.22790314                0.22899641
               7.00327646                6.00590677               20.05180169                0.07453303               -0.00236223                0.02306391                0.24615805                0.11468368                0.13313057                0.14742383
               8.00254269                6.00618250               20.05191403                0.15690206               -0.07416472               -0.07388099                0.24868930                0.00281974                0.00567912               -0.00031318
               9.00179317                6.00644842               20.05197934                0.26655650               -0.07553197               -0.07579989                0.25152324                0.00150012                0.00196025                0.00050843
              10.00103205                6.00671019               20.05201945                0.67037276               -0.07611151               -0.07465638                0.25464604                0.00107843                0.00065670                0.00280004
              -0.00036950                6.99644303               20.04187176                0.75158715               -0.06366712               -0.06416859                0.21264344               -0.00005454                0.00004622               -0.00019550
               0.99899383                6.99660053               20.04204368                0.22474366               -0.06355927               -0.06369292                0.21233380                0.00041456                0.00047811                0.00161108
               1.99835931                6.99676181               20.04222438                0.01625616                0.02788375               -0.06400221                0.21237909                0.13386464                0.10083516                0.00331825
               2.99955150                6.99959413               20.04440263                0.01000001                0.10028719               -0.11588687                0.21070843                0.20043000                0.17892798               -0.01993369
               4.00036506                7.00242022               20.04609182                0.01225176                0.13507511               -0.01533683                0.21275100                0.22333664                0.20065824                0.07661998
               5.00225300                7.00389862               20.04871029                0.01066814                0.16992000                0.00658365                0.22442627                0.25317500                0.25558298                0.21585278
               6.00376346                7.00492271               20.05148293                0.07453822                0.03929510               -0.01809019                0.24532171                0.11174519                0.14079023                0.12296791
               7.00303891                7.00517841               20.05160872                0.15701566               -0.07358100               -0.07372444                0.24790355                0.00158035                0.00651493               -0.00171861
               8.00229184                7.00543194               20.05169874                0.26674595               -0.07513706               -0.07531023                0.25064002                0.00065132                0.00367833               -0.00202333
               9.00153616                7.00568957               20.05177004                0.41811164               -0.07607949               -0.07615472                0.25355773                0.00039288                0.00166079               -0.00048519
              10.00077025                7.00595115               20.05182119                0.75966246               -0.07659182               -0.07648609                0.25665837                0.00003864                0.00063918                0.00168868
              -0.00053029                7.99580385               20.04192613                0.86251253               -0.06337633               -0.06366109                0.21146156               -0.00008575                0.00008230               -0.00038403
               0.99883595                7.99596555               20.04210710                0.37952340               -0.06337732               -0.06334527                0.21128017                0.00015816                0.00039214                0.00139060
               1.99820217                7.99612634               20.04229459                0.01000000                0.04788670               -0.06335533                0.21127822                0.11295671                0.09926641                0.00280570
               2.99979368                7.99854027               20.04445248                0.01287983                0.17738281               -0.17833244                0.21565510                0.22619311                0.23073288               -0.08860786
               4.00174982                8.00243885               20.04725540                0.01049491                0.22343935                0.02166525                0.22375024                0.48909398                0.32043449                0.24233115
               5.00426247                8.00393442               20.05117869                0.07434794                0.08976104               -0.03504388                0.24438453                0.17809091                0.19725512                0.13137005
               6.00354504                8.00419026               20.05130508                0.15692766               -0.07318146               -0.07380782                0.24703222                0.00258747                0.00557132               -0.00123057
               7.00279884                8.00443228               20.05139837                0.26677591               -0.07502395               -0.07491097                0.24981579                0.00061169                0.00326156               -0.00231346
               8.00204457                8.00467630               20.05148106                0.41819022               -0.07585141               -0.07585768                0.25274362                0.00029038                0.00217603               -0.00207311
               9.00128181                8.00492532               20.05155420                0.63713020               -0.07674551               -0.07676165                0.25579330                0.00013884                0.00106071               -0.00106843
              10.00050965                8.00518046               20.05161519                0.89131932               -0.07721589               -0.07752562                0.25890290               -0.00021199                0.00048038                0.00107465
              -0.00069463                8.99516981               20.04197608                1.00000000               -0.06308753               -0.06319413                0.21033984               -0.00012476                0.00012516               -0.00058674
               0.99867449                8.99533363               20.04216614                0.59084755               -0.06308170               -0.06306118                0.21027495                0.00003282                0.00016811                0.00084948
               1.99804373                8.99549470               20.04235758                0.05764097               -0.04558184               -0.06303516                0.21024553                0.01878121                0.00637380                0.00159843
               2.99776285                8.99602748               20.04267151                0.01385660                0.33545235               -0.16577559                0.21141402                0.24033667                0.40547080               -0.09234771
               4.00475278                9.00285352               20.05084047                0.07489987                0.31502804               -0.01901177                0.24387895                0.49274500                0.41131485                0.18741452
               5.00406341                9.00319774               20.05102315                0.15666141               -0.07177153               -0.07436649                0.24639177                0.00721693                0.00724692               -0.00021648
               6.00331735                9.00344656               20.05111687                0.26664449               -0.07491551               -0.07480956                0.24905877                0.00131021                0.00189596               -0.00119454
               7.00256510                9.00368019               20.05119582                0.41824028               -0.07563730               -0.07559231                0.25192042                0.00035921                0.00062440               -0.00129311
               8.00180460                9.00391479               20.05126619                0.63726926               -0.07651653               -0.07649884                0.25497701                0.00013336                0.00000805               -0.00128480
               9.00103477                9.00415433               20.05133371                0.97503947               -0.07744384               -0.07743743                0.25817051                0.00005042                0.00004164               -0.00095421
              10.00025573                9.00440064               20.05140439                0.98860254               -0.07790482               -0.07837671                0.26130567               -0.00032218                0.00027668                0.00072919
              -0.00086042                9.99453996               20.04202660                0.99547055               -0.06278708               -0.06298436                0.20934733               -0.00014178               -0.00057087               -0.00060264
               0.99851171                9.99470433               20.04221863                0.86661650               -0.06278231               -0.06292950                0.20930910                0.00000586               -0.00098499                0.00051185
               1.99788394                9.99486564               20.04240309                0.56061759               -0.06350552               -0.06290617                0.20919292                0.01004159                0.00223272                0.00074373
               2.99724160                9.99522476               20.04265952                0.52589868                0.32752656               -0.08027252                0.21015064                0.30752348                0.39609785               -0.00389932
               4.00443447               10.00205862               20.05072237                0.56004163                0.32860869               -0.07949018                0.24638266                0.32928563                0.40239565                0.00223583
               5.00381377               10.00244710               20.05086267                0.60663384               -0.06728364               -0.07506439                0.24877558                0.00680847                0.00304663               -0.00057920
               6.00308879               10.00269407               20.05094255                0.67044390               -0.07379891               -0.07524863                0.25138180                0.00081152               -0.00083907               -0.00059347
               7.00233780               10.00292044               20.05100776                0.75977151               -0.07578506               -0.07597583                0.25421610               -0.00011844               -0.00205353               -0.00061893
               8.00157309               10.00314632               20.05106501                0.89145950               -0.07704133               -0.07684677                0.25727668               -0.00034410               -0.00260120               -0.00059355
               9.00079697               10.00337657               20.05111967                0.98860313               -0.07812464               -0.07777597                0.26049212               -0.00044999               -0.00189446               -0.00056161
              10.00001060               10.00361293               20.05118996                0.99874312               -0.07863696               -0.07877110                0.26363166               -0.00087715               -0.00098780                0.00068063
               0.00068211                0.00091263               21.04372787                0.78598310               -0.06537301               -0.06535118                0.21881056               -0.00025014                0.00078557               -0.00090615
               1.00002838                0.00111750               21.04381210                0.52503837               -0.06481767               -0.06537350                0.21794680                0.00037126                0.00081959                0.00061802
               1.99938576                0.00133454               21.04389713                0.48202954               -0.06427942               -0.06489775                0.21726301                0.00006851                0.00045525                0.00001854
               2.99874279                0.00157308               21.04397369                0.50427653               -0.06446436               -0.06471884                0.21670532               -0.00005949                0.00022188               -0.00004691
               3.99809647                0.00182573               21.04405218                0.54312340               -0.06471262               -0.06452859                0.21610211               -0.00006822                0.00069945               -0.00008099
               4.99744854                0.00208443               21.04413542                0.59571891               -0.06475850               -0.06433898                0.21538178               -0.00006031                0.00135605               -0.00010197
               5.99680130                0.00234333               21.04422389                0.66407634               -0.06459642               -0.06413114                0.21453014               -0.00006248                0.00195539               -0.00012568
               6.99615661                0.00259921               21.04431635                0.75142237               -0.06428774               -0.06390088                0.21358069               -0.00007451                0.00233999               -0.00017805
               7.99551555                0.00285098               21.04441059                0.86242996               -0.06391695               -0.06365372                0.21260259               -0.00008994                0.00244834               -0.00026160
               8.99487827                0.00309915               21.04450432                1.00000000               -0.06356697               -0.06340903                0.21168018               -0.00011127                0.00193921               -0.00036841
               9.99424421                0.00334465               21.04458837                0.99561612               -0.06340664               -0.06315550                0.21085018               -0.00002882                0.00142984                0.00106122
               0.00047474                1.00025912               21.04377313                0.52504543               -0.06536032               -0.06478515                0.21782661                0.00036120               -0.00067397               -0.00147459
               0.99982114                1.00046376               21.04385764                0.01340336               -0.06580446               -0.06577907                0.21695474                0.00147886               -0.00171354                0.00110767
               1.99915865                1.00068556               21.04392170                0.01000000               -0.06622682               -0.04033616                0.21624869                0.02741803               -0.00290755                0.01343050
               2.99849660                1.00092589               21.04398231                0.01000001               -0.06592697               -0.00249667                0.21571641                0.05745800               -0.00298461                0.03218916
               3.99784011                1.00118045               21.04404433                0.01000000               -0.06537319                0.01699557                0.21515821                0.05309644               -0.00266426                0.04073924
               4.99718914                1.00144104               21.04411029                0.02187281               -0.06484125               -0.03232239                0.21449886                0.02391026               -0.00218123                0.01110874
               5.99654329                1.00170202               21.04418059                0.10890385               -0.06435481               -0.06354383                0.21371687                0.00058441               -0.00174299               -0.00249271
               6.99590204                1.00196020               21.04425396                0.22442481               -0.06393055               -0.06372161                0.21283983                0.00022482               -0.00148412               -0.00195249
               7.99526468                1.00221444               21.04432842                0.37917654               -0.06358584               -0.06356765                0.21193141                0.00008960               -0.00144395               -0.00151678
               8.99463033                1.00246506               21.04440205                0.59042225               -0.06331311               -0.06331696                0.21107114                0.00002364               -0.00118890               -0.00083367
               9.99399842                1.00271310               21.04448151                0.86636725               -0.06319105               -0.06307016                0.21025479                0.00009531               -0.00090548                0.00157566
               0.00028005                1.99961693               21.04380716                0.48204326               -0.06485315               -0.06424807                0.21700024                0.00006736                0.00000269               -0.00203721
               0.99963151                1.99980192               21.04391332                0.01000000               -0.04040272               -0.06610894                0.21615255                0.02747331                0.00975391                0.00123944
               1.99947199                2.00052782               21.04421510                0.01000001               -0.01172221               -0.01148389                0.21432218                0.13119373                0.02585560                0.03320454
               2.99939707                2.00152315               21.04463612                0.01000000               -0.04143705                0.04067069                0.21317290                0.17146238                0.02233278                0.06487284
               3.99864325                2.00216564               21.04485316                0.01000000               -0.09959481                0.09558189                0.21267635                0.13229850               -0.02592452                0.10118945
               4.99740517                2.00143798               21.04430947                0.01000001               -0.11747090                0.08211841                0.21511394                0.08231958               -0.04797121                0.11262187
               5.99629383                2.00107246               21.04408996                0.01141003               -0.08782442                0.11279488                0.21337558                0.14230631               -0.01846896                0.14419434
               6.99564869                2.00132478               21.04415611                0.01621185               -0.06406757                0.02477496                0.21232240                0.14182981               -0.00419519                0.12180354
               7.99501248                2.00157963               21.04422131                0.01000000               -0.06342955                0.04479704                0.21136630                0.12127304               -0.00400376                0.12620232
               8.99438009                2.00183281               21.04429080                0.05724816               -0.06312226               -0.04556094                0.21047965                0.02022263               -0.00252041                0.00674326
               9.99375004                2.00208325               21.04438539                0.56036702               -0.06300586               -0.06503297                0.20961741                0.01207964               -0.00125816                0.00791755
               0.00010611                2.99897416               21.04384081                0.50429940               -0.06463950               -0.06444679                0.21630575               -0.00004462                0.00001591               -0.00191227
               0.99945972                2.99914158               21.04396157                0.01000001               -0.00224057               -0.06571997                0.21551885                0.05751950                0.02728863                0.00087172
               2.00006130                3.00045589               21.04462829                0.01000000                0.04141544               -0.04114199                0.21307268                0.17151618                0.05475413                0.03037082
               3.00028802                3.00173931               21.04527060                0.01000000                0.02549741                0.02383358                0.21139812                0.22476574                0.05944480                0.07010190
               4.00057125                3.00309208               21.04601591                0.01203926               -0.01796517                0.04401948                0.21021183                0.19790108                0.04037540                0.09849541
               4.99992872                3.00308341               21.04627898                0.01000000               -0.05343119                0.14199910                0.21047739                0.25379526                0.03753663                0.18973975
               5.99950262                3.00395792               21.04697976                0.01824812               -0.08486271                0.14853564                0.21286938                0.20853692                0.00238742                0.19788487
               6.99823147                3.00245570               21.04656830                0.01000001               -0.11602583                0.09221657                0.21330779                0.21725793               -0.02702212                0.21994421
               7.99718211                3.00311039               21.04669317                0.01277693               -0.18501537                0.16677870                0.21638561                0.26110769               -0.12395087                0.29250628
               8.99453116                3.00155384               21.04433996                0.01362625               -0.17214885                0.31455775                0.21114797                0.30243728               -0.12692501                0.53297652
               9.99373913                3.00141244               21.04440546                0.52573133               -0.07920295                0.30999252                0.21009306                0.36464221               -0.00601817                0.53400683
              -0.00005570                3.99832799               21.04387540                0.54315963               -0.06441224               -0.06468454                0.21556710               -0.00004821                0.00002060               -0.00155566
               0.99930018                3.99848752               21.04400967                0.01000000                0.01801482               -0.06511278                0.21486099                0.05307529                0.03537019                0.00099833
               2.00030459                3.99970498               21.04485123                0.01000000                0.09780051               -0.09900494                0.21249165                0.12990846                0.08860822               -0.01094039
               3.00125619                4.00199982               21.04601305                0.01204021                0.04762867               -0.02040508                0.21013714                0.19572622                0.08432431                0.05053982
               4.00125717                4.00304603               21.04674821                0.01000000                0.01795305                0.01117654                0.20988050                0.19231441                0.08825524                0.10017952
               5.00161525                4.00427797               21.04798320                0.01823558               -0.00824426                0.04820586                0.21047787                0.15088793                0.04638127                0.10896478
               6.00109228                4.00404317               21.04790255                0.01000001               -0.03869347                0.00348205                0.21272638                0.06254547                0.00813882                0.11932222
               7.00084138                4.00316911               21.04839652                0.01211589                0.00221062                0.11756168                0.21635632                0.24541899                0.08670319                0.24423306
               8.00113649                4.00491520               21.04990789                0.01034870                0.06427054                0.19934597                0.22554288                0.52565527                0.30682542                0.40321900
               9.00212679                4.00812396               21.05475084                0.07466765                0.00945942                0.29250659                0.24840927                0.54162781                0.24188970                0.53577758
              10.00132568                4.00828310               21.05483085                0.55986498               -0.08011047                0.31203954                0.25147309                0.39063179                0.00373069                0.53643832
              -0.00021391                4.99768047               21.04391321                0.59577423               -0.06418592               -0.06469391                0.21471217               -0.00003955                0.00002326               -0.00105202
               0.99914423                4.99783933               21.04405975                0.02192034               -0.03194631               -0.06455709                0.21410428                0.02407571                0.01167705                0.00127729
               1.99914717                4.99847579               21.04443952                0.01000001                0.08586289               -0.11662001                0.21491792                0.07730191                0.09697312               -0.03014246
               3.00086149                5.00133120               21.04625666                0.01000000                0.14961100               -0.05755055                0.21036454                0.24516171                0.16351564                0.04580353
               4.00213939                5.00331562               21.04793560                0.01823676                0.05439267               -0.01397449                0.21041072                0.14625811                0.09244849                0.05781333
               5.00194934                5.00404753               21.04832020                0.01000001               -0.01384983               -0.02123287                0.21214428                0.03322707                0.05221341                0.06379244
               6.00186239                5.00402756               21.04921297                0.01223755                0.01592331                0.02994098                0.21518280                0.10684688                0.13585517                0.18463396
               7.00226781                5.00480693               21.05129852                0.01047831                0.04389826                0.14561811                0.22793027                0.27293361                0.25658661                0.30216390
               8.00274036                5.00709730               21.05457047                0.07416731               -0.01359966                0.07267391                0.24739574                0.19777648                0.16369798                0.24250465
               9.00199582                5.00740397               21.05467524                0.15649694               -0.07534305               -0.07391740                0.25008787                0.00866719                0.00285289                0.00606327
              10.00123349                5.00765323               21.05473329                0.60653850               -0.07623237               -0.06824441                0.25303475                0.00776814                0.00043271                0.00661367
              -0.00037422                5.99703411               21.04395461                0.66415888               -0.06394119               -0.06447504                0.21372661               -0.00004424                0.00003237               -0.00062133
               0.99898637                5.99719637               21.04411241                0.10897726               -0.06335115               -0.06406912                0.21322728                0.00090880                0.00074759                0.00153279
               1.99835876                5.99737258               21.04428459                0.01141453                0.11666110               -0.08736674                0.21329392                0.13475216                0.12441264               -0.00746569
               3.00131959                6.00084881               21.04691513                0.01825175                0.15536244               -0.08771271                0.21269457                0.19673315                0.16461126                0.01281060
               4.00146601                6.00276654               21.04783570                0.01000001                0.01241271               -0.04419219                0.21259150                0.05385685                0.09833002                0.01743048
               5.00156784                6.00385331               21.04913745                0.01223923                0.05019044               -0.00369531                0.21509568                0.10168069                0.16716782                0.13765821
               6.00246981                6.00464199               21.05145459                0.01054877                0.08312294                0.05279195                0.22800374                0.20364318                0.24380848                0.24491547
               7.00323030                6.00608147               21.05426548                0.07433353                0.00125856                0.02723216                0.24668609                0.12198526                0.14136360                0.15600037
               8.00249499                6.00636868               21.05440289                0.15676917               -0.07430479               -0.07401965                0.24914590                0.00281035                0.00529575               -0.00060830
               9.00174421                6.00664562               21.05449595                0.26654093               -0.07562274               -0.07590057                0.25183987                0.00147863                0.00180266                0.00023477
              10.00098253                6.00691821               21.05456626                0.67038413               -0.07616766               -0.07472548                0.25474707                0.00106992                0.00059879                0.00245984
              -0.00053932                6.99639096               21.04399819                0.75154522               -0.06367378               -0.06409458                0.21264293               -0.00006186                0.00005896               -0.00044958
               0.99882394                6.99655795               21.04416659                0.22453946               -0.06354521               -0.06365881                0.21225681                0.00038968                0.00065438                0.00159554
               1.99818978                6.99672845               21.04434702                0.01621831                0.02891216               -0.06396308                0.21217078                0.13416953                0.10105853                0.00329999
               2.99940219                6.99957695               21.04652289                0.01000001                0.10111219               -0.11616545                0.21304162                0.20013919                0.17936806               -0.01640782
               4.00021202                7.00243177               21.04823857                0.01212060                0.13526637               -0.01398775                0.21610550                0.22588219                0.20685557                0.08466294
               5.00210752                7.00397362               21.05097299                0.01048312                0.17475351                0.01132879                0.22750644                0.26395314                0.26997315                0.23162831
               6.00370709                7.00508340               21.05393861                0.07433850                0.04366538               -0.01463432                0.24589810                0.11919768                0.14879178                0.13117227
               7.00298082                7.00535158               21.05408980                0.15686916               -0.07373380               -0.07387032                0.24838287                0.00156807                0.00616240               -0.00209800
               8.00223242                7.00561691               21.05420668                0.26673310               -0.07524813               -0.07541426                0.25099665                0.00061604                0.00344099               -0.00222587
               9.00147586                7.00588596               21.05430643                0.41827336               -0.07613569               -0.07621247                0.25375284                0.00036792                0.00155712               -0.00060240
              10.00070970                7.00615872               21.05438760                0.75976122               -0.07661579               -0.07650501                0.25664443                0.00003978                0.00059702                0.00154555
              -0.00070942                7.99575222               21.04404110                0.86261345               -0.06339052               -0.06364355                0.21152830               -0.00008687                0.00009868               -0.00063461
               0.99865667                7.99592320               21.04421976                0.37935876               -0.06337177               -0.06333210                0.21125403                0.00015161                0.00049563                0.00136702
               1.99802314                7.99609332               21.04440661                0.01000000                0.04811896               -0.06332694                0.21114015                0.11338788                0.10176195                0.00285604
               2.99961905                7.99852550               21.04661013                0.01278488                0.17819167               -0.17852135                0.21602438                0.22839591                0.23702373               -0.08787845
               4.00158698                8.00248679               21.04949834                0.01035958                0.22881137                0.02750963                0.22486879                0.50087192                0.33415292                0.25680565
               5.00419528                8.00407988               21.05362544                0.07418231                0.09444178               -0.03160700                0.24504496                0.18687909                0.20585493                0.13929232
               6.00347581                8.00434930               21.05377785                0.15679310               -0.07335652               -0.07396924                0.24758407                0.00259046                0.00530155               -0.00163057
               7.00272815                8.00460406               21.05389829                0.26676088               -0.07514455               -0.07503421                0.25021928                0.00057866                0.00307897               -0.00256705
               8.00197292                8.00486040               21.05400947                0.41837315               -0.07591962               -0.07592539                0.25297506                0.00025633                0.00208707               -0.00217486
               9.00120976                8.00512137               21.05411221                0.63746602               -0.07675573               -0.07677072                0.25583149                0.00011845                0.00103363               -0.00104792
              10.00043781                8.00538811               21.05420330                0.89145418               -0.07719506               -0.07748474                0.25873105               -0.00020063                0.00046721                0.00110117
              -0.00088301                8.99511809               21.04408016                1.00000000               -0.06311066               -0.06321845                0.21046463               -0.00012169                0.00014162               -0.00074882
               0.99848588                8.99529130               21.04426900                0.59072186               -0.06308756               -0.06306413                0.21029449                0.00003403                0.00020771                0.00086075
               1.99785524                8.99546191               21.04445959                0.05732954               -0.04546246               -0.06301445                0.21016236                0.01889111                0.00704686                0.00165832
               2.99757663                8.99600652               21.04478500                0.01373934                0.34099185               -0.16609353                0.21129106                0.24719888                0.42260110               -0.09400111
               4.00467507                9.00298196               21.05328204                0.07477526                0.32029764               -0.01501623                0.24451276                0.50447811                0.42605355                0.19621204
               5.00398259                9.00334148               21.05348973                0.15655016               -0.07201760               -0.07451971                0.24697835                0.00727679                0.00687435               -0.00039885
               6.00323472                9.00360401               21.05360954                0.26662283               -0.07506419               -0.07494168                0.24951584                0.00129929                0.00163781               -0.00135827
               7.00248130                9.00385089               21.05371630                0.41839285               -0.07572412               -0.07567604                0.25220825                0.00033657                0.00051768               -0.00140327
               8.00172024                9.00409840               21.05381626                0.63759479               -0.07653939               -0.07652301                0.25506119                0.00011342                0.00003457               -0.00131754
               9.00095051                9.00435055               21.05391464                0.97513489               -0.07740195               -0.07739594                0.25802974                0.00004022                0.00009281               -0.00090570
              10.00017220                9.00460902               21.05401565                0.98876260               -0.07783130               -0.07827289                0.26095044               -0.00030065                0.00029581                0.00078992
              -0.00105828                9.99448785               21.04412094                0.99561985               -0.06281889               -0.06302418                0.20950644               -0.00011989               -0.00063272               -0.00069877
               0.99831354                9.99466192               21.04431201                0.86655892               -0.06279880               -0.06293877                0.20936011                0.00002415               -0.00107561                0.00054039
               1.99768575                9.99483303               21.04449480                0.56043094               -0.06352778               -0.06288861                0.20914915                0.01013670                0.00265299                0.00078639
               2.99704298                9.99520363               21.04476044                0.52584314                0.33279164               -0.08028949                0.21004584                0.31430663                0.41485764               -0.00399998
               4.00434158               10.00218646               21.05318803                0.55997180                0.33378942               -0.07954998                0.24682065                0.33594386                0.41886936                0.00223567
               5.00371877               10.00258949               21.05335220                0.60658250               -0.06745962               -0.07519910                0.24917505                0.00681845                0.00254302               -0.00063889
               6.00299239               10.00285047               21.05345765                0.67045018               -0.07391384               -0.07535456                0.25166859                0.00081931               -0.00117283               -0.00065256
               7.00224049               10.00309054               21.05355044                0.75986235               -0.07584258               -0.07603487                0.25434050               -0.00010759               -0.00219599               -0.00066289
               8.00147554               10.00332994               21.05363732                0.89158370               -0.07702747               -0.07684682                0.25719670               -0.00032500               -0.00257777               -0.00060877
               9.00069994               10.00357345               21.05372303                0.98876308               -0.07803501               -0.07770974                0.26018274               -0.00042126               -0.00183742               -0.00054366
               9.99991484               10.00382265               21.05382369                0.99893763               -0.07851053               -0.07863709                0.26310721               -0.00081583               -0.00096317                0.00070829
               0.00061021                0.00086327               22.04591603                0.78602858               -0.06537637               -0.06535526                0.21881272               -0.00024103                0.00081392               -0.00089752
               0.99995644                0.00108319               22.04599176                0.52509721               -0.06481208               -0.06538660                0.21797545                0.00036793                0.00092996                0.00063479
               1.99931396                0.00131522               22.04606985                0.48203768               -0.06423138               -0.06492282                0.21727518                0.00006545                0.00068939                0.00001859
               2.99867182                0.00156896               22.04614055                0.50424781               -0.06435927               -0.06473959                0.21666789               -0.00007231                0.00046885               -0.00004274
               3.99802678                0.00183752               22.04621279                0.54306058               -0.06457684               -0.06454046                0.21602558               -0.00008353                0.00084832               -0.00007627
               4.99738028                0.00211299               22.04628876                0.59563501               -0.06462382               -0.06434303                0.21529329               -0.00007422                0.00136935               -0.00009709
               5.99673430                0.00238948               22.04636881                0.66400023               -0.06448912               -0.06413134                0.21446031               -0.00007263                0.00184663               -0.00012014
               6.99609050                0.00266358               22.04645201                0.75140006               -0.06422291               -0.06390238                0.21355362               -0.00007968                0.00216274               -0.00017075
               7.99544984                0.00293395               22.04653675                0.86251753               -0.06389571               -0.06366083                0.21262815               -0.00009059                0.00227930               -0.00025251
               8.99481258                0.00320083               22.04662151                1.00000000               -0.06357765               -0.06342275                0.21175002               -0.00010901                0.00183815               -0.00035992
               9.99417829                0.00346494               22.04669740                0.99572006               -0.06342897               -0.06317548                0.21094512               -0.00001622                0.00137516                0.00102825
               0.00038788                1.00020972               22.04595161                0.52510382               -0.06537326               -0.06478039                0.21785800                0.00035737               -0.00066959               -0.00139428
               0.99973415                1.00042932               22.04602755                0.01342225               -0.06580739               -0.06578454                0.21701439                0.00145971               -0.00163081                0.00121430
               1.99907173                1.00066599               22.04608445                0.01000000               -0.06621021               -0.04020490                0.21629304                0.02755808               -0.00266935                0.01301292
               2.99840994                1.00092157               22.04613940                0.01000001               -0.06589005               -0.00194184                0.21570162                0.05788921               -0.00268024                0.03153152
               3.99775393                1.00119212               22.04619554                0.01000000               -0.06531923                0.01775435                0.21509096                0.05351611               -0.00242329                0.04015948
               4.99710356                1.00146956               22.04625475                0.02174710               -0.06478224               -0.03158346                0.21440422                0.02427835               -0.00205282                0.01182133
               5.99645828                1.00174817               22.04631725                0.10875282               -0.06430473               -0.06353149                0.21362548                0.00055040               -0.00172594               -0.00227705
               6.99581746                1.00202455               22.04638200                0.22427124               -0.06389869               -0.06371079                0.21277712                0.00020931               -0.00153486               -0.00184380
               7.99518031                1.00229735               22.04644761                0.37904131               -0.06357321               -0.06356335                0.21190960                0.00008545               -0.00149329               -0.00145637
               8.99454600                1.00256661               22.04651284                0.59028704               -0.06331444               -0.06332109                0.21108464                0.00002455               -0.00119970               -0.00081223
               9.99391402                1.00283319               22.04658427                0.86629271               -0.06319760               -0.06308195                0.21029132                0.00010552               -0.00089610                0.00152928
               0.00017815                1.99956766               22.04597730                0.48205102               -0.06487849               -0.06419916                0.21702084                0.00006303                0.00000250               -0.00184058
               0.99952936                1.99976750               22.04607511                0.01000000               -0.04026331               -0.06610115                0.21619783                0.02760865                0.00930263                0.00151087
               1.99937288                2.00051112               22.04635937                0.01000001               -0.01129427               -0.01107720                0.21456633                0.13233183                0.02519166                0.03260822
               2.99930348                2.00153013               22.04677008                0.01000000               -0.04118859                0.04152579                0.21367484                0.17297354                0.02205155                0.06350128
               3.99854911                2.00219261               22.04698321                0.01000000               -0.09968396                0.09674816                0.21335558                0.13332470               -0.02474621                0.09958770
               4.99730980                2.00148132               22.04645918                0.01000001               -0.11793932                0.08351982                0.21488418                0.08221051               -0.04728467                0.11168862
               5.99619032                2.00111885               22.04622255                0.01139816               -0.08821461                0.11390753                0.21316649                0.14172691               -0.01894975                0.14530685
               6.99554550                2.00138936               22.04627857                0.01618876               -0.06404095                0.02545869                0.21218268                0.14175869               -0.00429193                0.12331543
               7.99490950                2.00166269               22.04633452                0.01000000               -0.06341356                0.04479012                0.21128308                0.12125758               -0.00403189                0.12927762
               8.99427723                2.00193441               22.04639538                0.05697818               -0.06311299               -0.04549229                0.21043876                0.02025397               -0.00251240                0.00742231
               9.99364724                2.00220330               22.04648151                0.56020058               -0.06299905               -0.06502336                0.20960501                0.01209074               -0.00124249                0.00842322
              -0.00001053                2.99892573               22.04600374                0.50427002               -0.06466130               -0.06433782                0.21628194               -0.00006005                0.00002122               -0.00169962
               0.99934286                2.99910730               22.04611670                0.01000001               -0.00168672               -0.06569794                0.21550657                0.05794548                0.02658551                0.00120842
               1.99995574                3.00044445               22.04676131                0.01000000                0.04225350               -0.04092593                0.21358320                0.17302923                0.05328716                0.03016647
               3.00018793                3.00175208               22.04739048                0.01000000                0.02567458                0.02407313                0.21257100                0.22632693                0.05844291                0.06921276
               4.00046923                3.00312708               22.04813057                0.01201516               -0.01832006                0.04458204                0.21245680                0.19942668                0.04009854                0.09746181
               4.99982153                3.00313996               22.04839779                0.01000000               -0.05422205                0.14295099                0.21291494                0.25442593                0.03887173                0.18828695
               5.99938479                3.00402632               22.04912229                0.01820521               -0.08563630                0.14979601                0.21523246                0.20854263                0.00407664                0.19810356
               6.99810880                3.00253373               22.04871134                0.01000001               -0.11621866                0.09275149                0.21501465                0.21646248               -0.02510070                0.22261243
               7.99706041                3.00319315               22.04885976                0.01270540               -0.18491684                0.16724525                0.21694526                0.26186602               -0.12487895                0.30016804
               8.99441046                3.00165676               22.04645130                0.01353581               -0.17211783                0.31847133                0.21111693                0.30658142               -0.12929275                0.55273000
               9.99361806                3.00153272               22.04650630                0.52568915               -0.07924067                0.31349148                0.21007496                0.36862120               -0.00616375                0.55561302
              -0.00018618                3.99828091               22.04603076                0.54309610               -0.06442610               -0.06454363                0.21550877               -0.00006656                0.00002711               -0.00144060
               0.99916955                3.99845354               22.04615792                0.01000000                0.01874310               -0.06507639                0.21479735                0.05348943                0.03473968                0.00127456
               2.00018868                3.99969261               22.04697958                0.01000000                0.09889139               -0.09915539                0.21318851                0.13104338                0.08689790               -0.00963595
               3.00114738                4.00201159               22.04812710                0.01201606                0.04805440               -0.02066995                0.21239642                0.19735482                0.08315828                0.05040863
               4.00114977                4.00308425               22.04886433                0.01000000                0.01758476                0.01107005                0.21288073                0.19418703                0.08837515                0.10046268
               5.00149908                4.00434034               22.05011532                0.01817138               -0.00911799                0.04822414                0.21494424                0.15182813                0.04754201                0.10942352
               6.00096741                4.00411477               22.05005161                0.01000001               -0.03955771                0.00343613                0.21629212                0.06246260                0.01041155                0.12032991
               7.00070792                4.00324439               22.05057422                0.01201820                0.00281921                0.11788602                0.21880181                0.24669588                0.09258530                0.25145286
               8.00102379                4.00500759               22.05216930                0.01024221                0.06806837                0.20357553                0.22667980                0.53366825                0.32146594                0.41854973
               9.00206929                4.00830384               22.05723728                0.07456855                0.01219793                0.29624827                0.24893829                0.54915833                0.25175934                0.55339560
              10.00126775                4.00847313               22.05734671                0.55980985               -0.08015421                0.31542159                0.25175441                0.39426513                0.00376222                0.55596218
              -0.00035713                4.99763486               22.04605996                0.59568896               -0.06419286               -0.06455489                0.21464603               -0.00005654                0.00003039               -0.00107231
               0.99900095                4.99780577               22.04620028                0.02179398               -0.03121620               -0.06451537                0.21401387                0.02441704                0.01236424                0.00144439
               1.99901855                4.99846134               22.04658740                0.01000001                0.08712163               -0.11715148                0.21470583                0.07741212                0.09592396               -0.02923788
               3.00074338                5.00133869               22.04837448                0.01000000                0.15028319               -0.05817977                0.21281177                0.24621828                0.16188378                0.04730497
               4.00202421                5.00334848               22.05006714                0.01817252                0.05420945               -0.01465072                0.21488549                0.14739239                0.09271658                0.05915924
               5.00182757                5.00410444               22.05046898                0.01000001               -0.01471114               -0.02186118                0.21655853                0.03367054                0.05362784                0.06539572
               6.00172999                5.00409504               22.05139075                0.01211201                0.01611645                0.03049840                0.21939456                0.10788352                0.14259480                0.19148471
               7.00214990                5.00489145               22.05359031                0.01033399                0.04721701                0.14955534                0.23008768                0.28085661                0.27050226                0.31633319
               8.00267433                5.00726466               22.05704741                0.07403397               -0.01109031                0.07632685                0.24804932                0.20423160                0.17145851                0.25217586
               9.00192809                5.00758172               22.05717839                0.15640473               -0.07547795               -0.07409569                0.25058450                0.00865263                0.00273391                0.00576694
              10.00116477                5.00784115               22.05726470                0.60649638               -0.07633180               -0.06840306                0.25328622                0.00772544                0.00038917                0.00621237
              -0.00052913                5.99698981               22.04609163                0.66408102               -0.06394510               -0.06436571                0.21368271               -0.00005726                0.00004060               -0.00076383
               0.99883142                5.99716323               22.04624419                0.10882540               -0.06334305               -0.06403381                0.21314010                0.00084540                0.00101089                0.00159152
               1.99820401                5.99734958               22.04641623                0.01140255                0.11765964               -0.08777764                0.21305812                0.13451985                0.12538928               -0.00776116
               3.00118461                6.00084800               22.04905606                0.01820882                0.15639257               -0.08838544                0.21506693                0.19727959                0.16454618                0.01465773
               4.00133186                6.00279124               22.04998361                0.01000001                0.01206610               -0.04488251                0.21617513                0.05414853                0.09912168                0.01988998
               5.00142593                6.00390312               22.05131441                0.01211348                0.05031071               -0.00306273                0.21931351                0.10291816                0.17381144                0.14445671
               6.00233807                6.00472474               22.05374991                0.01038830                0.08647537                0.05639285                0.23059008                0.21124327                0.25734572                0.25846029
               7.00315544                6.00623550               22.05673541                0.07417505                0.00400368                0.03060982                0.24736029                0.12767867                0.14854064                0.16375363
               8.00241814                6.00653413               22.05689695                0.15665763               -0.07447929               -0.07419085                0.24971073                0.00280624                0.00501359               -0.00084678
               9.00166585                6.00682192               22.05701614                0.26651999               -0.07573688               -0.07602338                0.25223058                0.00146185                0.00168863                0.00000620
              10.00090341                6.00710507               22.05711439                0.67038971               -0.07624445               -0.07480640                0.25490530                0.00106824                0.00055684                0.00218573
              -0.00070512                6.99634755               22.04612462                0.75151984               -0.06367980               -0.06403112                0.21264493               -0.00006944                0.00006997               -0.00066190
               0.99865809                6.99652509               22.04628882                0.22438465               -0.06353508               -0.06363753                0.21219774                0.00035908                0.00080317                0.00158763
               1.99802418                6.99670579               22.04646779                0.01619503                0.02946120               -0.06393412                0.21200147                0.13444555                0.10239990                0.00330702
               2.99924731                6.99957098               22.04866347                0.01000001                0.10139384               -0.11637037                0.21476664                0.20014318                0.18169341               -0.01434660
               4.00005206                7.00245083               22.05041393                0.01202289                0.13525587               -0.01298722                0.21855971                0.22789590                0.21367122                0.09054657
               5.00195243                7.00404319               22.05326042                0.01033873                0.17852099                0.01502085                0.22964780                0.27230962                0.28345367                0.24489048
               6.00362248                7.00522290               22.05640089                0.07417972                0.04708264               -0.01190100                0.24662044                0.12503051                0.15602739                0.13832160
               7.00289408                7.00550364               22.05657638                0.15674768               -0.07392245               -0.07405284                0.24898087                0.00156550                0.00589163               -0.00239375
               8.00214403                7.00578084               22.05671868                0.26671436               -0.07538469               -0.07554547                0.25143750                0.00059300                0.00326360               -0.00239180
               9.00138639                7.00606126               22.05684510                0.41839635               -0.07620924               -0.07628825                0.25400360                0.00034931                0.00148219               -0.00070242
              10.00061985                7.00634502               22.05695408                0.75983912               -0.07665411               -0.07653187                0.25666809                0.00004700                0.00056695                0.00142924
              -0.00088562                7.99570919               22.04615669                0.86269672               -0.06340277               -0.06362775                0.21158588               -0.00008912                0.00011325               -0.00084185
               0.99848036                7.99589048               22.04633219                0.37922203               -0.06336743               -0.06332531                0.21123500                0.00014174                0.00058741                0.00135819
               1.99784703                7.99607089               22.04651739                0.01000000                0.04810369               -0.06330523                0.21102494                0.11372987                0.10461119                0.00292128
               2.99944243                7.99852059               22.04877297                0.01271325                0.17852648               -0.17869175                0.21655183                0.23028538                0.24407012               -0.08839229
               4.00141756                8.00253149               22.05175278                0.01025283                0.23288138                0.03186216                0.22596608                0.51000048                0.34810807                0.27009085
               5.00410006                8.00420354               22.05607959                0.07404836                0.09803306               -0.02900884                0.24583936                0.19381038                0.21437565                0.14648782
               6.00337823                8.00448672               22.05625676                0.15668018               -0.07356266               -0.07416524                0.24824127                0.00259753                0.00508560               -0.00192892
               7.00262880                8.00475444               22.05640275                0.26674024               -0.07529169               -0.07518300                0.25070599                0.00055780                0.00293137               -0.00276001
               8.00187239                8.00502322               22.05654056                0.41851147               -0.07600732               -0.07601266                0.25326809                0.00023249                0.00201950               -0.00225440
               9.00110866                8.00529616               22.05667083                0.63774050               -0.07677868               -0.07679292                0.25591022                0.00010304                0.00101571               -0.00103262
              10.00033682                8.00557443               22.05678982                0.89157056               -0.07718392               -0.07744886                0.25858210               -0.00018477                0.00045878                0.00112401
              -0.00106949                8.99507499               22.04618537                1.00000000               -0.06312998               -0.06323829                0.21056971               -0.00011984                0.00015738               -0.00088359
               0.99829921                8.99525859               22.04637203                0.59058422               -0.06309205               -0.06306785                0.21031037                0.00003399                0.00024607                0.00087921
               1.99766867                8.99543968               22.04656082                0.05706199               -0.04533968               -0.06299693                0.21008889                0.01900380                0.00774836                0.00172204
               2.99739242                8.99599714               22.04689733                0.01365545                0.34502237               -0.16633637                0.21118021                0.25257415                0.44021524               -0.09601100
               4.00456912                9.00308807               22.05573072                0.07468065                0.32404939               -0.01200619                0.24527977                0.51342039                0.44136423                0.20490130
               5.00387341                9.00346301               22.05596272                0.15645501               -0.07227967               -0.07470791                0.24766031                0.00732352                0.00659193               -0.00052411
               6.00312353                9.00373959               22.05610719                0.26659626               -0.07523356               -0.07509631                0.25004364                0.00129204                0.00142272               -0.00147866
               7.00236874                9.00399998               22.05623998                0.41850687               -0.07582820               -0.07577659                0.25254970                0.00032001                0.00042701               -0.00148493
               8.00160696                9.00426059               22.05636741                0.63785931               -0.07657508               -0.07655965                0.25518507                0.00009843                0.00005554               -0.00134101
               9.00083724                9.00452540               22.05649430                0.97526093               -0.07736796               -0.07736235                0.25791420                0.00003225                0.00013556               -0.00086563
              10.00005960                9.00479604               22.05662340                0.98894957               -0.07776314               -0.07817075                0.26060359               -0.00027585                0.00031204                0.00084121
              -0.00125521                9.99444442               22.04621673                0.99572369               -0.06284510               -0.06305728                0.20963910               -0.00010158               -0.00068625               -0.00078036
               0.99811634                9.99462912               22.04640583                0.86648287               -0.06281186               -0.06294656                0.20940072                0.00003974               -0.00115356                0.00056970
               1.99748856                9.99481095               22.04658608                0.56026687               -0.06354109               -0.06287297                0.20910901                0.01022535                0.00310969                0.00082788
               2.99684552                9.99519386               22.04686044                0.52580761                0.33657726               -0.08032814                0.20995881                0.31933082                0.43399619               -0.00412040
               4.00422010               10.00229137               22.05565878                0.55992118                0.33747438               -0.07967073                0.24738494                0.34087420                0.43581411                0.00226191
               5.00359501               10.00270938               22.05584617                0.60653832               -0.06765046               -0.07536318                0.24965664                0.00683142                0.00215304               -0.00068266
               6.00286709               10.00298479               22.05597592                0.67045103               -0.07404005               -0.07547998                0.25200848                0.00083317               -0.00144251               -0.00069585
               7.00211421               10.00323891               22.05609457                0.75993243               -0.07590741               -0.07610748                0.25449952               -0.00009113               -0.00231242               -0.00069497
               8.00134895               10.00349203               22.05620895                0.89169015               -0.07701815               -0.07685619                0.25713783               -0.00030163               -0.00255803               -0.00061925
               9.00057385               10.00374891               22.05632333                0.98894993               -0.07794679               -0.07764872                0.25988084               -0.00038940               -0.00178966               -0.00052870
               9.99979001               10.00401102               22.05645211                0.99912397               -0.07838362               -0.07850276                0.26257345               -0.00074888               -0.00094324                0.00073104
               0.00054692                0.00082352               23.04810412                0.78606832               -0.06537608               -0.06535561                0.21879980               -0.00023346                0.00083644               -0.00089242
               0.99989315                0.00105863               23.04817161                0.52514892               -0.06480798               -0.06539282                0.21798607                0.00036206                0.00101488                0.00064798
               1.99925076                0.00130571               23.04824263                0.48204717               -0.06419607               -0.06494082                0.21727536                0.00006204                0.00086692                0.00001792
               2.99860923                0.00157454               23.04830705                0.50422871               -0.06427608               -0.06475469                0.21663111               -0.00008299                0.00065348               -0.00004004
               3.99796523                0.00185870               23.04837269                0.54301639               -0.06446622               -0.06454902                0.21595949               -0.00009649                0.00095609               -0.00007283
               4.99731991                0.00215050               23.04844129                0.59557588               -0.06451236               -0.06434563                0.21521904               -0.00008639                0.00137131               -0.00009321
               5.99667499                0.00244405               23.04851310                0.66394791               -0.06439921               -0.06413108                0.21440231               -0.00008196                0.00175413               -0.00011557
               6.99603192                0.00273580               23.04858742                0.75138901               -0.06416771               -0.06390340                0.21353105               -0.00008504                0.00201879               -0.00016471
               7.99539163                0.00302422               23.04866315                0.86258830               -0.06387673               -0.06366645                0.21264857               -0.00009211                0.00214460               -0.00024472
               8.99475439                0.00330928               23.04873932                1.00000000               -0.06358551               -0.06343356                0.21180637               -0.00010766                0.00175820               -0.00035195
               9.99411992                0.00359149               23.04880727                0.99578570               -0.06344671               -0.06319122                0.21102153               -0.00000584                0.00133142                0.00100131
               0.00030947                1.00016996               23.04813029                0.52515536               -0.06537934               -0.06477700                0.21787115                0.00035113               -0.00066769               -0.00133573
               0.99965568                1.00040470               23.04819793                0.01343205               -0.06580264               -0.06578219                0.21705250                0.00143415               -0.00157110                0.00129603
               1.99899342                1.00065630               23.04824756                0.01000000               -0.06618847               -0.04012964                0.21632203                0.02762003               -0.00249550                0.01269941
               2.99833191                1.00092700               23.04829634                0.01000001               -0.06585638               -0.00162270                0.21568655                0.05809659               -0.00245810                0.03114684
               3.99767629                1.00121321               23.04834615                0.01000000               -0.06527671                0.01818319                0.21503620                0.05370190               -0.00224943                0.03995326
               4.99702637                1.00150705               23.04839838                0.02165631               -0.06473857               -0.03108908                0.21432879                0.02448765               -0.00196389                0.01248932
               5.99638152                1.00180273               23.04845310                0.10864282               -0.06426931               -0.06352467                0.21355323                0.00050929               -0.00171981               -0.00210597
               6.99574099                1.00209676               23.04850950                0.22415575               -0.06387732               -0.06370268                0.21272777                0.00018898               -0.00157658               -0.00175616
               7.99510397                1.00238755               23.04856661                0.37892859               -0.06356550               -0.06355955                0.21189212                0.00007868               -0.00152882               -0.00140485
               8.99446968                1.00267494               23.04862375                0.59014532               -0.06331607               -0.06332376                0.21109397                0.00002454               -0.00120390               -0.00079182
               9.99383765                1.00295958               23.04868733                0.86620603               -0.06320264               -0.06309075                0.21031864                0.00011409               -0.00088576                0.00149187
               0.00008446                1.99952798               23.04814757                0.48206006               -0.06489682               -0.06416292                0.21702878                0.00005853                0.00000165               -0.00169575
               0.99943549                1.99974298               23.04823728                0.01000000               -0.04018018               -0.06608767                0.21622792                0.02766604                0.00895846                0.00171557
               1.99928086                2.00050312               23.04850642                0.01000001               -0.01106187               -0.01086487                0.21484352                0.13294748                0.02476412                0.03224534
               2.99921426                2.00154209               23.04890962                0.01000000               -0.04108174                0.04197725                0.21421463                0.17374806                0.02200986                0.06275203
               3.99845922                2.00222237               23.04912027                0.01000000               -0.09970583                0.09734977                0.21400420                0.13381228               -0.02386809                0.09911608
               4.99722014                2.00152872               23.04860715                0.01000001               -0.11818851                0.08429827                0.21472439                0.08196241               -0.04701820                0.11193068
               5.99609545                2.00117355               23.04835329                0.01139269               -0.08846275                0.11440997                0.21299944                0.14110532               -0.01943864                0.14745851
               6.99545089                2.00146175               23.04839977                0.01617590               -0.06402119                0.02577640                0.21206976                0.14152342               -0.00436363                0.12559635
               7.99481503                2.00175303               23.04844697                0.01000000               -0.06340140                0.04457051                0.21121308                0.12108290               -0.00404457                0.13268978
               8.99418286                2.00204280               23.04849957                0.05674940               -0.06310490               -0.04542017                0.21040097                0.02028667               -0.00249979                0.00812871
               9.99355293                2.00232968               23.04857749                0.56005700               -0.06299252               -0.06500393                0.20959133                0.01209686               -0.00122741                0.00896114
              -0.00011937                2.99888670               23.04816644                0.50425073               -0.06467734               -0.06425085                0.21625747               -0.00007312                0.00002499               -0.00154494
               0.99923386                2.99908295               23.04827170                0.01000001               -0.00136837               -0.06567808                0.21549393                0.05814799                0.02616121                0.00146062
               1.99985326                3.00043901               23.04889996                0.01000000                0.04268834               -0.04084756                0.21412528                0.17380560                0.05244951                0.03020228
               3.00008762                3.00176654               23.04952202                0.01000000                0.02563221                0.02409495                0.21364662                0.22707730                0.05828181                0.06916374
               4.00036591                3.00316021               23.05026504                0.01199914               -0.01865926                0.04481784                0.21418219                0.20018468                0.04043636                0.09759772
               4.99971444                3.00319301               23.05053728                0.01000000               -0.05476525                0.14332600                0.21468378                0.25446948                0.04030817                0.18901681
               5.99927060                3.00409093               23.05128441                0.01817629               -0.08612282                0.15038784                0.21689759                0.20827204                0.00527064                0.20015931
               6.99799198                3.00261229               23.05086860                0.01000001               -0.11630132                0.09287292                0.21622026                0.21562693               -0.02408460                0.22661501
               7.99694457                3.00327896               23.05103208                0.01265237               -0.18466083                0.16727621                0.21749193                0.26209843               -0.12666454                0.30849868
               8.99429876                3.00176654               23.04856230                0.01347619               -0.17193660                0.32109912                0.21108360                0.30911227               -0.13199417                0.57284360
               9.99350584                3.00165950               23.04860696                0.52566607               -0.07929219                0.31571351                0.21005701                0.37075343               -0.00633026                0.57745239
              -0.00030949                3.99824296               23.04818558                0.54305100               -0.06443651               -0.06442806                0.21545922               -0.00008227                0.00003223               -0.00136259
               0.99904615                3.99842942               23.04830561                0.01000000                0.01914300               -0.06505005                0.21474609                0.05367156                0.03449126                0.00148112
               2.00007337                3.99968617               23.04911500                0.01000000                0.09942261               -0.09923144                0.21384125                0.13163780                0.08633033               -0.00863496
               3.00103460                4.00202399               23.05026098                0.01200016                0.04815371               -0.02091029                0.21411890                0.19821834                0.08316550                0.05088221
               4.00103645                4.00311872               23.05100582                0.01000000                0.01721013                0.01096554                0.21505119                0.19522792                0.08955429                0.10179803
               5.00137880                4.00439524               23.05228209                0.01812673               -0.00974179                0.04816708                0.21781664                0.15232193                0.04893552                0.11098138
               6.00084161                4.00418131               23.05222839                0.01000001               -0.04017051                0.00340079                0.21859823                0.06231642                0.01185564                0.12234969
               7.00057539                4.00331920               23.05277256                0.01194555                0.00305704                0.11800577                0.22058686                0.24732294                0.09734233                0.25911642
               8.00090275                4.00509855               23.05444149                0.01015941                0.07045870                0.20671045                0.22767855                0.53912244                0.33532251                0.43400335
               9.00198457                4.00846478               23.05972961                0.07449604                0.01396623                0.29869550                0.24957058                0.55399168                0.26151930                0.57146754
              10.00118208                4.00864395               23.05986594                0.55977243               -0.08024897                0.31751442                0.25213543                0.39605671                0.00381507                0.57581278
              -0.00049394                4.99759814               23.04820613                0.59562867               -0.06419819               -0.06443920                0.21459222               -0.00007152                0.00003632               -0.00110024
               0.99886408                4.99778194               23.04834002                0.02170268               -0.03073045               -0.06448761                0.21394263                0.02460409                0.01301732                0.00156893
               1.99889145                4.99845438               23.04873363                0.01000001                0.08776780               -0.11746026                0.21454972                0.07738436                0.09606089               -0.02877807
               3.00061943                5.00134834               23.05051290                0.01000000                0.15038809               -0.05855073                0.21456562                0.24668365                0.16243809                0.04888501
               4.00189921                5.00337952               23.05223331                0.01812803                0.05394283               -0.01505874                0.21774791                0.14808317                0.09409241                0.06071743
               5.00169829                5.00415635               23.05265137                0.01000001               -0.01531234               -0.02221182                0.21932128                0.03391979                0.05515388                0.06710100
               6.00159297                5.00415895               23.05360086                0.01201851                0.01614531                0.03098716                0.22209948                0.10850863                0.14849309                0.19817867
               7.00202120                5.00497241               23.05590028                0.01022406                0.04942382                0.15256339                0.23168479                0.28664555                0.28310832                0.32994661
               8.00258144                5.00741317               23.05953146                0.07392592               -0.00939963                0.07909628                0.24880139                0.20899051                0.17882434                0.26177649
               9.00183320                5.00774045               23.05968693                0.15632658               -0.07563941               -0.07428762                0.25115523                0.00862899                0.00265943                0.00555736
              10.00106865                5.00800979               23.05979901                0.60646096               -0.07645502               -0.06857007                0.25360560                0.00768831                0.00035810                0.00591406
              -0.00067852                5.99695418               23.04822827                0.66402674               -0.06394840               -0.06427372                0.21364855               -0.00006920                0.00004764               -0.00088680
               0.99868199                5.99713967               23.04837521                0.10871412               -0.06334041               -0.06401197                0.21307217                0.00077732                0.00122458                0.00163569
               1.99805467                5.99733696               23.04854575                0.01139710                0.11805697               -0.08804743                0.21286818                0.13424919                0.12741749               -0.00808975
               3.00104313                6.00085297               23.05121647                0.01817983                0.15677127               -0.08876130                0.21671245                0.19755352                0.16633655                0.01598777
               4.00119010                6.00281755               23.05215920                0.01000001                0.01173178               -0.04529936                0.21846747                0.05436531                0.10092920                0.02148497
               5.00127777                6.00395100               23.05352372                0.01202005                0.05028172               -0.00250511                0.22200909                0.10374221                0.18029189                0.15040013
               6.00219573                6.00480105               23.05606639                0.01026720                0.08881562                0.05920146                0.23241270                0.21690946                0.26970229                0.27083203
               7.00305408                6.00637047               23.05921269                0.07404883                0.00593971                0.03319753                0.24813863                0.13195487                0.15519245                0.17109078
               8.00231452                6.00668048               23.05939710                0.15656369               -0.07467741               -0.07438563                0.25035129                0.00280431                0.00481390               -0.00103193
               9.00156053                6.00697903               23.05954056                0.26649715               -0.07586794               -0.07616142                0.25267438                0.00144801                0.00160774               -0.00017862
              10.00079717                6.00727254               23.05966436                0.67039173               -0.07633683               -0.07489528                0.25510715                0.00107204                0.00052742                0.00197126
              -0.00086631                6.99631267               23.04825109                0.75150636               -0.06368519               -0.06397708                0.21264933               -0.00007700                0.00007941               -0.00083791
               0.99849684                6.99650170               23.04841054                0.22426784               -0.06352793               -0.06362597                0.21215243                0.00032483                0.00092696                0.00158468
               1.99786313                6.99669343               23.04858705                0.01618222                0.02965412               -0.06391259                0.21186298                0.13456586                0.10453012                0.00332983
               2.99908992                6.99957311               23.05081822                0.01000001                0.10126797               -0.11645939                0.21595500                0.20010181                0.18536736               -0.01323385
               3.99988849                7.00247353               23.05260976                0.01195004                0.13498563               -0.01228669                0.22032252                0.22927836                0.22092751                0.09526279
               5.00178963                7.00410625               23.05556595                0.01022883                0.18115991                0.01781726                0.23122949                0.27852442                0.29642116                0.25688220
               6.00351169                7.00534298               23.05887102                0.07405350                0.04956188               -0.00983137                0.24744400                0.12943713                0.16289636                0.14494659
               7.00278087                7.00563636               23.05906942                0.15664646               -0.07413598               -0.07426078                0.24966029                0.00156898                0.00569145               -0.00261639
               8.00202897                7.00592546               23.05923543                0.26669200               -0.07553856               -0.07569514                0.25193588                0.00057833                0.00313317               -0.00252387
               9.00127010                7.00621722               23.05938650                0.41849020               -0.07629487               -0.07637606                0.25429246                0.00033534                0.00142876               -0.00078339
              10.00050307                7.00651188               23.05952096                0.75990162               -0.07670273               -0.07656362                0.25671908                0.00005902                0.00054596                0.00133950
              -0.00105814                7.99567463               23.04827282                0.86276349               -0.06341342               -0.06361387                0.21163643               -0.00009207                0.00012595               -0.00101183
               0.99830773                7.99586715               23.04844446                0.37910739               -0.06336400               -0.06332324                0.21122121                0.00012962                0.00066690                0.00135908
               1.99767458                7.99605871               23.04862711                0.01000000                0.04786697               -0.06328822                0.21092719                0.11392057                0.10780400                0.00299340
               2.99926507                7.99852379               23.05094116                0.01266000                0.17839700               -0.17871382                0.21705598                0.23171117                0.25180706               -0.08982185
               4.00124252                8.00257182               23.05401766                0.01016989                0.23568716                0.03502263                0.22694110                0.51660243                0.36229464                0.28269066
               5.00397881                8.00430735               23.05854223                0.07393955                0.10059209               -0.02709177                0.24672870                0.19904690                0.22293341                0.15334011
               6.00325436                8.00460442               23.05874268                0.15658448               -0.07379154               -0.07438492                0.24897252                0.00260635                0.00492094               -0.00214553
               7.00250298                8.00488526               23.05891241                0.26671580               -0.07545672               -0.07534903                0.25124926                0.00054504                0.00281662               -0.00290534
               8.00174523                8.00516657               23.05907483                0.41861491               -0.07610803               -0.07611306                0.25360238                0.00021608                0.00197035               -0.00231503
               9.00098082                8.00545151               23.05923041                0.63796664               -0.07681044               -0.07682406                0.25601679                0.00009156                0.00100491               -0.00101949
              10.00020902                8.00574127               23.05937494                0.89167307               -0.07717982               -0.07741636                0.25845046               -0.00016552                0.00045396                0.00114583
              -0.00125318                8.99504039               23.04829155                1.00000000               -0.06314641               -0.06325491                0.21065975               -0.00011883                0.00017194               -0.00099467
               0.99811535                8.99523524               23.04847521                0.59044051               -0.06309553               -0.06307213                0.21032354                0.00003305                0.00028176                0.00090138
               1.99748490                8.99542767               23.04866137                0.05683566               -0.04521564               -0.06298176                0.21002305                0.01911736                0.00846970                0.00178567
               2.99721104                8.99599883               23.04900860                0.01360265                0.34760352               -0.16643922                0.21107772                0.25657250                0.45835250               -0.09837749
               4.00443697                9.00317398               23.05818764                0.07461309                0.32634606               -0.00981175                0.24614379                0.51975952                0.45730274                0.21359134
               5.00373796                9.00356441               23.05844293                0.15637453               -0.07255337               -0.07492135                0.24841161                0.00735887                0.00639142               -0.00060463
               6.00298591                9.00385528               23.05861041                0.26656785               -0.07541699               -0.07526713                0.25062158                0.00128724                0.00124917               -0.00156567
               7.00222962                9.00412938               23.05876730                0.41859231               -0.07594366               -0.07588875                0.25292748                0.00030792                0.00035466               -0.00154470
               8.00146703                9.00440320               23.05891996                0.63807638               -0.07661940               -0.07660482                0.25533579                0.00008727                0.00007402               -0.00135710
               9.00069723                9.00468074               23.05907292                0.97540963               -0.07733981               -0.07733460                0.25781757                0.00002609                0.00017132               -0.00083245
               9.99992024                9.00496355               23.05922773                0.98915375               -0.07769939               -0.07807053                0.26026583               -0.00024887                0.00032571                0.00088457
              -0.00145022                9.99440954               23.04831372                0.99578960               -0.06286714               -0.06308537                0.20975195               -0.00008594               -0.00073191               -0.00084883
               0.99792111                9.99460571               23.04850002                0.86639458               -0.06282244               -0.06295328                0.20943384                0.00005321               -0.00121965                0.00059815
               1.99729334                9.99479908               23.04867698                0.56012560               -0.06354578               -0.06285888                0.20907210                0.01030782                0.00359877                0.00086677
               2.99665020                9.99519500               23.04895962                0.52579147                0.33893977               -0.08038317                0.20988122                0.32274109                0.45355419               -0.00426051
               4.00407213               10.00237558               23.05813573                0.55988871                0.33972472               -0.07984046                0.24804218                0.34421160                0.45327490                0.00230824
               5.00344469               10.00280892               23.05834533                0.60650084               -0.06784927               -0.07554931                0.25020052                0.00684833                0.00186052               -0.00071370
               6.00271515               10.00309908               23.05849782                0.67044860               -0.07417363               -0.07561986                0.25238801                0.00085175               -0.00165483               -0.00072663
               7.00196122               10.00336748               23.05864043                0.75998761               -0.07597657               -0.07618973                0.25468319               -0.00007024               -0.00240268               -0.00071786
               8.00119561               10.00363448               23.05878008                0.89178277               -0.07701170               -0.07687212                0.25709432               -0.00027508               -0.00253937               -0.00062598
               9.00042099               10.00390482               23.05892065                0.98915389               -0.07786020               -0.07759196                0.25958711               -0.00035551               -0.00174977               -0.00051633
               9.99963841               10.00417986               23.05907516                0.99929988               -0.07825750               -0.07836938                0.26203810               -0.00067854               -0.00092735                0.00074958
               0.00049195                0.00079308               24.05029202                0.78610568               -0.06537260               -0.06535268                0.21877456               -0.00022725                0.00085437               -0.00088997
               0.99983823                0.00104351               24.05035148                0.52519802               -0.06480445               -0.06539333                0.21798154                0.00035454                0.00107989                0.00065837
               1.99919587                0.00130572               24.05041536                0.48205968               -0.06417023               -0.06495268                0.21726504                0.00005844                0.00099990                0.00001685
               2.99855482                0.00158958               24.05047318                0.50421887               -0.06421022               -0.06476462                0.21659387               -0.00009193                0.00078903               -0.00003844
               3.99791166                0.00188915               24.05053198                0.54298767               -0.06437613               -0.06455430                0.21590107               -0.00010738                0.00103181               -0.00007038
               4.99726730                0.00219695               24.05059314                0.59553589               -0.06442029               -0.06434673                0.21515622               -0.00009691                0.00136552               -0.00009022
               5.99662326                0.00250715               24.05065686                0.66391385               -0.06432410               -0.06413035                0.21435417               -0.00009042                0.00167636               -0.00011192
               6.99598082                0.00281612               24.05072263                0.75138532               -0.06412088               -0.06390401                0.21351250               -0.00009039                0.00190319               -0.00015982
               7.99534084                0.00312214               24.05078973                0.86264322               -0.06385998               -0.06367092                0.21266536               -0.00009419                0.00203891               -0.00023825
               8.99470362                0.00342494               24.05085763                1.00000000               -0.06359147               -0.06344224                0.21185282               -0.00010695                0.00169642               -0.00034489
               9.99406901                0.00372485               24.05091783                0.99582009               -0.06346115               -0.06320392                0.21108452                0.00000292                0.00129753                0.00098007
               0.00023925                1.00013955               24.05030903                0.52520455               -0.06537970               -0.06477402                0.21786888                0.00034327               -0.00066751               -0.00129386
               0.99958545                1.00038958               24.05036860                0.01343431               -0.06579191               -0.06577365                0.21707205                0.00140465               -0.00152907                0.00135838
               1.99892341                1.00065619               24.05041089                0.01000000               -0.06616314               -0.04010395                0.21633718                0.02761599               -0.00237159                0.01249831
               2.99826219                1.00094194               24.05045313                0.01000001               -0.06582547               -0.00150482                0.21566946                0.05812055               -0.00230024                0.03101866
               3.99760690                1.00124360               24.05049627                0.01000000               -0.06524310                0.01834475                0.21498979                0.05370481               -0.00212837                0.04006299
               4.99695733                1.00155349               24.05054133                0.02159279               -0.06470682               -0.03079579                0.21426773                0.02456785               -0.00190617                0.01311699
               5.99631277                1.00186585               24.05058832                0.10856475               -0.06424520               -0.06352190                0.21349570                0.00046378               -0.00172261               -0.00197255
               6.99567242                1.00217708               24.05063656                0.22406991               -0.06386391               -0.06369659                0.21268863                0.00016559               -0.00161216               -0.00168671
               7.99503549                1.00248543               24.05068545                0.37883336               -0.06356144               -0.06355614                0.21187788                0.00007006               -0.00155510               -0.00136236
               8.99440120                1.00279052               24.05073472                0.59000109               -0.06331791               -0.06332535                0.21110026                0.00002376               -0.00120437               -0.00077345
               9.99376913                1.00309281               24.05079064                0.86611142               -0.06320657               -0.06309738                0.21033941                0.00012144               -0.00087577                0.00146288
              -0.00000123                1.99949760               24.05031787                0.48207235               -0.06490892               -0.06413596                0.21702534                0.00005397                0.00000045               -0.00159128
               0.99934968                1.99972804               24.05039967                0.01000000               -0.04014733               -0.06606990                0.21624393                0.02765795                0.00872938                0.00186811
               1.99919582                2.00050364               24.05065624                0.01000001               -0.01099287               -0.01081371                0.21510015                0.13312244                0.02457749                0.03211846
               2.99912982                2.00155949               24.05105437                0.01000000               -0.04108067                0.04210276                0.21469023                0.17393440                0.02216487                0.06254593
               3.99837421                2.00225604               24.05126330                0.01000000               -0.09967058                0.09749416                0.21453464                0.13386717               -0.02327481                0.09949895
               4.99713641                2.00158104               24.05075367                0.01000001               -0.11826376                0.08459378                0.21459094                0.08158349               -0.04710766                0.11301851
               5.99600893                2.00123672               24.05048254                0.01139146               -0.08859283                0.11442780                0.21286451                0.14036336               -0.01993325                0.15034104
               6.99536456                2.00154219               24.05051996                0.01617032               -0.06400642                0.02580781                0.21197805                0.14106550               -0.00441900                0.12841726
               7.99472881                2.00185101               24.05055878                0.01000000               -0.06339196                0.04415871                0.21115322                0.12070855               -0.00404966                0.13640295
               8.99409672                2.00215843               24.05060340                0.05655859               -0.06309751               -0.04534601                0.21036537                0.02031935               -0.00248612                0.00885605
               9.99346686                2.00246290               24.05067333                0.55993542               -0.06298601               -0.06497464                0.20957659                0.01209674               -0.00121405                0.00952792
              -0.00022055                2.99885683               24.05032889                0.50424018               -0.06468820               -0.06418125                0.21623147               -0.00008417                0.00002763               -0.00143555
               0.99913257                2.99906818               24.05042658                0.01000001               -0.00125214               -0.06565985                0.21547919                0.05816813                0.02599704                0.00164639
               1.99975441                3.00043992               24.05104382                0.01000000                0.04279533               -0.04087058                0.21460090                0.17399529                0.05216155                0.03043030
               2.99998848                3.00178399               24.05166341                0.01000000                0.02541437                0.02394347                0.21452449                0.22718096                0.05871094                0.06969500
               4.00026270                3.00319349               24.05241422                0.01198877               -0.01900764                0.04479491                0.21545073                0.20034530                0.04112947                0.09850017
               4.99960832                3.00324536               24.05269146                0.01000000               -0.05519082                0.14324224                0.21593831                0.25398636                0.04176259                0.19117970
               5.99915888                3.00415441               24.05346024                0.01815700               -0.08644431                0.15042969                0.21807943                0.20764970                0.00614072                0.20341653
               6.99787944                3.00269324               24.05303575                0.01000001               -0.11627306                0.09264237                0.21706993                0.21456554               -0.02361116                0.23157503
               7.99683342                3.00336860               24.05320960                0.01261384               -0.18418696                0.16686317                0.21799064                0.26173696               -0.12905409                0.31739252
               8.99419570                3.00188360               24.05067297                0.01344513               -0.17156440                0.32250634                0.21105073                0.31016101               -0.13499954                0.59335206
               9.99340213                3.00179331               24.05070744                0.52566197               -0.07935673                0.31672184                0.21003965                0.37119802               -0.00651457                0.59955964
              -0.00042561                3.99821397               24.05033994                0.54302135               -0.06444364               -0.06433319                0.21541607               -0.00009566                0.00003624               -0.00131305
               0.99892996                3.99841484               24.05045284                0.01000000                0.01927599               -0.06503133                0.21470323                0.05367357                0.03456352                0.00163243
               1.99995991                3.99968623               24.05125640                0.01000000                0.09949579               -0.09924440                0.21436985                0.13180023                0.08662040               -0.00792521
               3.00091987                4.00203836               24.05240948                0.01198961                0.04799171               -0.02115463                0.21538168                0.19848482                0.08394402                0.05169518
               4.00091975                4.00315194               24.05316535                0.01000000                0.01676730                0.01079824                0.21659764                0.19562106                0.09134244                0.10372381
               5.00125522                4.00444588               24.05447165                0.01809601               -0.01028483                0.04797343                0.21974216                0.15240716                0.05041460                0.11313897
               6.00071405                4.00424531               24.05442357                0.01000001               -0.04067738                0.00331020                0.22016388                0.06206095                0.01285716                0.12497089
               7.00044167                4.00339504               24.05498596                0.01189073                0.00295688                0.11785029                0.22192158                0.24724974                0.10148404                0.26709462
               8.00077319                4.00518828               24.05672287                0.01009488                0.07167763                0.20879865                0.22856891                0.54221334                0.34876824                0.44962342
               9.00187522                4.00860856               24.06222869                0.07444777                0.01490956                0.29991625                0.25027629                0.55635438                0.27129205                0.59003727
              10.00107138                4.00879733               24.06238941                0.55975178               -0.08038441                0.31838480                0.25258828                0.39615973                0.00388589                0.59603050
              -0.00062420                4.99757017               24.05035181                0.59558756               -0.06420195               -0.06434304                0.21454822               -0.00008460                0.00004121               -0.00113271
               0.99873379                4.99776755               24.05047914                0.02163844               -0.03044546               -0.06447049                0.21388576                0.02466637                0.01363485                0.00165929
               1.99876690                4.99845503               24.05087840                0.01000001                0.08793378               -0.11759296                0.21441677                0.07722672                0.09704535               -0.02869234
               3.00049246                5.00136090               24.05266579                0.01000000                0.15003487               -0.05879632                0.21580154                0.24662210                0.16442184                0.05046548
               4.00176759                5.00340945               24.05442210                0.01809724                0.05353177               -0.01537269                0.21965852                0.14836858                0.09607879                0.06234532
               5.00156310                5.00420483               24.05485541                0.01000001               -0.01583249               -0.02246700                0.22115033                0.03402575                0.05676657                0.06887222
               6.00145094                5.00422061               24.05583274                0.01194872                0.01591846                0.03129580                0.22396586                0.10872550                0.15397327                0.20481808
               7.00188147                5.00505024               24.05822400                0.01013794                0.05066116                0.15465655                0.23297719                0.29054346                0.29503048                0.34325463
               8.00246417                5.00754457               24.06202344                0.07383806               -0.00838688                0.08106215                0.24962071                0.21225211                0.18605317                0.27143102
               9.00171373                5.00788192               24.06220149                0.15626137               -0.07581971               -0.07448891                0.25177764                0.00859785                0.00262029                0.00542542
              10.00094777                5.00816101               24.06233681                0.60643194               -0.07659562               -0.06873952                0.25397467                0.00765719                0.00033724                0.00570476
              -0.00082207                5.99692711               24.05036461                0.66399083               -0.06395116               -0.06419654                0.21362255               -0.00008005                0.00005356               -0.00099224
               0.99853842                5.99712543               24.05050564                0.10863506               -0.06334182               -0.06400037                0.21301914                0.00070699                0.00139745                0.00166736
               1.99791110                5.99733437               24.05067359                0.01139576                0.11797348               -0.08820002                0.21271389                0.13386070                0.13017885               -0.00844248
               3.00089789                6.00086243               24.05339031                0.01816055                0.15660459               -0.08896481                0.21786424                0.19747986                0.16933499                0.01697993
               4.00104319                6.00284449               24.05435296                0.01000001                0.01133413               -0.04559130                0.22000690                0.05446989                0.10333870                0.02261960
               5.00112457                6.00399654               24.05575459                0.01195012                0.04999784               -0.00212551                0.22385968                0.10416210                0.18672426                0.15591544
               6.00204315                6.00487123               24.05839817                0.01017334                0.09020011                0.06124667                0.23381082                0.22088087                0.28142288                0.28257091
               7.00292858                6.00648817               24.06169818                0.07394695                0.00717041                0.03506740                0.24899121                0.13501619                0.16165237                0.17827934
               8.00218655                6.00680952               24.06190397                0.15648371               -0.07489156               -0.07459699                0.25104361                0.00280293                0.00468151               -0.00116882
               9.00143075                6.00711878               24.06206963                0.26647424               -0.07601047               -0.07630929                0.25315375                0.00143634                0.00155200               -0.00032451
              10.00066635                6.00742254               24.06221654                0.67039240               -0.07644005               -0.07498876                0.25533986                0.00108011                0.00050770                0.00180773
              -0.00102243                6.99628624               24.05037761                0.75150011               -0.06369004               -0.06393128                0.21265598               -0.00008433                0.00008741               -0.00098299
               0.99834067                6.99648754               24.05053187                0.22418075               -0.06352300               -0.06362172                0.21211776                0.00028875                0.00102914                0.00158398
               1.99770711                6.99669103               24.05070505                0.01617659                0.02956368               -0.06389638                0.21174865                0.13446849                0.10720456                0.00335927
               2.99893194                6.99958160               24.05298257                0.01000001                0.10078857               -0.11643313                0.21677377                0.19983616                0.19000678               -0.01268738
               3.99972288                7.00249763               24.05482038                0.01189529                0.13438285               -0.01185292                0.22161994                0.22999571                0.22850796                0.09935538
               5.00161960                7.00416232               24.05788501                0.01014238                0.18270271                0.01984067                0.23250484                0.28285261                0.30912575                0.26824959
               6.00337693                7.00544554               24.06134977                0.07395113                0.05119488               -0.00834064                0.24834153                0.13262943                0.16967108                0.15138124
               7.00264350                7.00575159               24.06156958                0.15656106               -0.07436596               -0.07448558                0.25039347                0.00157478                0.00555480               -0.00277559
               8.00188961                7.00605263               24.06175739                0.26666749               -0.07570325               -0.07585663                0.25247102                0.00056932                0.00304012               -0.00262582
               9.00112943                7.00635573               24.06193095                0.41856203               -0.07638848               -0.07647144                0.25460606                0.00032502                0.00139170               -0.00084583
              10.00036184                7.00666123               24.06208846                0.75995250               -0.07675859               -0.07659804                0.25678946                0.00007477                0.00053187                0.00127409
              -0.00122637                7.99564849               24.05038942                0.86281411               -0.06342283               -0.06360198                0.21168174               -0.00009542                0.00013690               -0.00114995
               0.99813941                7.99585299               24.05055661                0.37900979               -0.06336135               -0.06332468                0.21121160                0.00011611                0.00073473                0.00136558
               1.99750641                7.99605644               24.05073593                0.01000000                0.04743067               -0.06327488                0.21084409                0.11391694                0.11129688                0.00306507
               2.99908802                7.99853377               24.05311409                0.01262143                0.17779911               -0.17852349                0.21750719                0.23261212                0.26014200               -0.09188286
               4.00106239                8.00260743               24.05629160                0.01010560                0.23728450                0.03721059                0.22780849                0.52087755                0.37675530                0.29498742
               5.00383371                8.00439336               24.06101416                0.07385103                0.10220367               -0.02572489                0.24768227                0.20279265                0.23164064                0.16011133
               6.00310646                8.00470441               24.06123621                0.15650327               -0.07403632               -0.07462038                0.24975328                0.00261566                0.00480233               -0.00229259
               7.00235298                8.00499846               24.06142774                0.26668948               -0.07563315               -0.07552589                0.25182855                0.00053790                0.00273024               -0.00301255
               8.00159380                8.00529239               24.06161261                0.41869226               -0.07621679               -0.07622157                0.25396206                0.00020503                0.00193626               -0.00235984
               9.00082865                8.00558935               24.06179117                0.63815535               -0.07684790               -0.07686092                0.25614114                0.00008309                0.00099929               -0.00100679
              10.00005684                8.00589058               24.06195882                0.89176435               -0.07718052               -0.07738596                0.25833141               -0.00014375                0.00045171                0.00116802
              -0.00143336                8.99501420               24.05039857                1.00000000               -0.06316069               -0.06326929                0.21073847               -0.00011839                0.00018495               -0.00108495
               0.99793503                8.99522105               24.05057850                0.59029342               -0.06309839               -0.06307689                0.21033504                0.00003136                0.00031372                0.00092473
               1.99730467                8.99542553               24.05076128                0.05664720               -0.04509186               -0.06296852                0.20996382                0.01923060                0.00920507                0.00184552
               2.99703320                8.99601113               24.05111889                0.01357865                0.34880849               -0.16635792                0.21098408                0.25930721                0.47704011               -0.10106128
               4.00428084                9.00324184               24.06065360                0.07457029                0.32726342               -0.00830334                0.24707375                0.52370959                0.47390520                0.22239188
               5.00357847                9.00364782               24.06093095                0.15630708               -0.07283493               -0.07515208                0.24920964                0.00738574                0.00626486               -0.00065085
               6.00282414                9.00395314               24.06111962                0.26653961               -0.07560928               -0.07544867                0.25123241                0.00128433                0.00111360               -0.00162798
               7.00206628                9.00424107               24.06129853                0.41865613               -0.07606613               -0.07600838                0.25332817                0.00029927                0.00029987               -0.00158813
               8.00130282                9.00452820               24.06147413                0.63825598               -0.07666916               -0.07665545                0.25550346                0.00007912                0.00009167               -0.00136791
               9.00053290                9.00481852               24.06165065                0.97557503               -0.07731590               -0.07731105                0.25773477                0.00002144                0.00020160               -0.00080483
               9.99975650                9.00511352               24.06182872                0.98936751               -0.07763923               -0.07797235                0.25993732               -0.00022057                0.00033727                0.00092154
              -0.00164244                9.99438310               24.05041177                0.99582358               -0.06288617               -0.06310975                0.20985007               -0.00007237               -0.00077027               -0.00090528
               0.99772870                9.99459146               24.05059451                0.86629830               -0.06283130               -0.06295931                0.20946189                0.00006497               -0.00127506                0.00062457
               1.99710093                9.99479707               24.05076752                0.56000633               -0.06354209               -0.06284606                0.20903826                0.01038371                0.00411621                0.00090172
               2.99645786                9.99520661               24.05105806                0.52579450                0.33994797               -0.08045249                0.20981144                0.32468046                0.47355769               -0.00441823
               4.00389989               10.00244136               24.06061963                0.55987309                0.34061341               -0.08004769                0.24876340                0.34609023                0.47128477                0.00237156
               5.00327012               10.00289031               24.06085018                0.60646967               -0.06804985               -0.07575080                0.25078815                0.00686990                0.00165231               -0.00073489
               6.00253890               10.00319544               24.06102368                0.67044496               -0.07431118               -0.07576964                0.25279500                0.00087397               -0.00181716               -0.00074804
               7.00178390               10.00347829               24.06118823                0.76003177               -0.07604781               -0.07627847                0.25488350               -0.00004594               -0.00246911               -0.00073394
               8.00101794               10.00375928               24.06135083                0.89186506               -0.07700690               -0.07689246                0.25706170               -0.00024621               -0.00252032               -0.00063017
               9.00024376               10.00404313               24.06151507                0.98936772               -0.07777541               -0.07753865                0.25930183               -0.00032043               -0.00171595               -0.00050618
               9.99946243               10.00433114               24.06169287                0.99946391               -0.07813311               -0.07823786                0.26150672               -0.00060653               -0.00091463                0.00076470
               0.00044508                0.00077170               25.05247961                0.78614290               -0.06536625               -0.06534683                0.21873888               -0.00022214                0.00086871               -0.00088942
               0.99979141                0.00103757               25.05253124                0.52524780               -0.06480074               -0.06538910                0.21796406                0.00034594                0.00112949                0.00066660
               1.99914906                0.00131498               25.05258793                0.48207622               -0.06415104               -0.06495927                0.21724530                0.00005478                0.00109822                0.00001553
               2.99850839                0.00161388               25.05263893                0.50421644               -0.06415772               -0.06477013                0.21655551               -0.00009938                0.00088646               -0.00003761
               3.99786591                0.00192872               25.05269071                0.54297126               -0.06430251               -0.06455680                0.21584852               -0.00011656                0.00108336               -0.00006870
               4.99722234                0.00225232               25.05274441                0.59551170               -0.06434405               -0.06434640                0.21510228               -0.00010605                0.00135509               -0.00008799
               5.99657903                0.00257889               25.05280018                0.66389364               -0.06426117               -0.06412901                0.21431375               -0.00009805                0.00161171               -0.00010910
               6.99593712                0.00290474               25.05285767                0.75138600               -0.06408111               -0.06390416                0.21349726               -0.00009553                0.00181156               -0.00015600
               7.99529740                0.00322800               25.05291646                0.86268286               -0.06384539               -0.06367450                0.21267972               -0.00009655                0.00195779               -0.00023305
               8.99466021                0.00354820               25.05297637                1.00000000               -0.06359627               -0.06344939                0.21189216               -0.00010664                0.00165038               -0.00033904
               9.99402548                0.00386548               25.05302896                0.99582826               -0.06347329               -0.06321450                0.21113798                0.00001050                0.00127257                0.00096403
               0.00017699                1.00011823               25.05248767                0.52525431               -0.06537536               -0.06477072                0.21785352                0.00033440               -0.00066851               -0.00126468
               0.99952323                1.00038368               25.05253937                0.01343036               -0.06577647               -0.06576020                0.21707570                0.00137284               -0.00150040                0.00140564
               1.99886146                1.00066539               25.05257431                0.01000000               -0.06613515               -0.04012104                0.21633988                0.02755707               -0.00228608                0.01239848
               2.99820053                1.00096617               25.05260973                0.01000001               -0.06579682               -0.00155758                0.21564951                0.05799335               -0.00219226                0.03110334
               3.99754552                1.00128316               25.05264595                0.01000000               -0.06521645                0.01828360                0.21494913                0.05356015               -0.00204827                0.04041919
               4.99689620                1.00160886               25.05268373                0.02155098               -0.06468420               -0.03066824                0.21421718                0.02454203               -0.00187286                0.01370910
               5.99625184                1.00193760               25.05272302                0.10851098               -0.06422961               -0.06352206                0.21344904                0.00041563               -0.00173306               -0.00187107
               6.99561161                1.00226570               25.05276327                0.22400676               -0.06385646               -0.06369191                0.21265713                0.00014037               -0.00164404               -0.00163334
               7.99497471                1.00259125               25.05280417                0.37875086               -0.06356016               -0.06355308                0.21186628                0.00006029               -0.00157570               -0.00132863
               8.99434041                1.00291371               25.05284575                0.58985455               -0.06332002               -0.06332627                0.21110469                0.00002244               -0.00120336               -0.00075816
               9.99370831                1.00323333               25.05289412                0.86601072               -0.06320985               -0.06310258                0.21035589                0.00012779               -0.00086710                0.00144122
              -0.00007913                1.99947629               25.05248808                0.48208825               -0.06491582               -0.06411558                0.21701197                0.00004950               -0.00000094               -0.00151772
               0.99927171                1.99972237               25.05256216                0.01000000               -0.04015820               -0.06604884                0.21624747                0.02759564                0.00860410                0.00198025
               1.99911771                2.00051256               25.05280843                0.01000001               -0.01106090               -0.01089696                0.21531228                0.13292799                0.02459407                0.03218930
               2.99905050                2.00158272               25.05320342                0.01000000               -0.04116389                0.04195814                0.21507135                0.17363730                0.02245880                0.06276819
               3.99829443                2.00229440               25.05341097                0.01000000               -0.09958771                0.09725023                0.21494168                0.13355747               -0.02292972                0.10049929
               4.99705874                2.00163895               25.05289897                0.01000001               -0.11819663                0.08448832                0.21447283                0.08107567               -0.04747890                0.11471283
               5.99593050                2.00130845               25.05261058                0.01139283               -0.08862357                0.11403186                0.21275547                0.13946201               -0.02043359                0.15375353
               6.99528627                2.00163090               25.05263933                0.01616970               -0.06399491                0.02560497                0.21190191                0.14036409               -0.00446485                0.13162815
               7.99465060                2.00195694               25.05267003                0.01000000               -0.06338450                0.04357347                0.21110177                0.12011707               -0.00405301                0.14038771
               8.99401858                2.00228168               25.05270688                0.05640162               -0.06309084               -0.04527113                0.21033214                0.02035084               -0.00247451                0.00959993
               9.99338878                2.00260343               25.05276902                0.55983439               -0.06297977               -0.06493617                0.20956177                0.01208988               -0.00120354                0.01012018
              -0.00031418                2.99883592               25.05249107                0.50423750               -0.06469473               -0.06412509                0.21620357               -0.00009355                0.00002940               -0.00136074
               0.99903887                2.99906270               25.05258129                0.01000001               -0.00130795               -0.06564283                0.21546163                0.05803876                0.02604845                0.00178049
               1.99965966                3.00044745               25.05319197                0.01000000                0.04262864               -0.04097382                0.21498138                0.17370376                0.05230822                0.03078951
               2.99989144                3.00180534               25.05381251                0.01000000                0.02503908                0.02363930                0.21520343                0.22673729                0.05953621                0.07061508
               4.00016044                3.00322816               25.05457406                0.01198192               -0.01938900                0.04454635                0.21637758                0.19999872                0.04202332                0.09991575
               4.99950366                3.00329862               25.05485604                0.01000000               -0.05556548                0.14275596                0.21683862                0.25301028                0.04321702                0.19432010
               5.99904913                3.00421823               25.05564600                0.01814443               -0.08666319                0.14998929                0.21894983                0.20665643                0.00681702                0.20750686
               6.99777040                3.00277780               25.05521000                0.01000001               -0.11614291                0.09209716                0.21768618                0.21319989               -0.02345309                0.23726065
               7.99672627                3.00346272               25.05539189                0.01258727               -0.18347337                0.16601241                0.21846566                0.26076369               -0.13186172                0.32683098
               8.99410093                3.00200829               25.05278331                0.01344029               -0.17098351                0.32276642                0.21102173                0.30985858               -0.13828240                0.61428006
               9.99330660                3.00193461               25.05280775                0.52567602               -0.07943296                0.31658791                0.21002477                0.37011103               -0.00671468                0.62195811
              -0.00053456                3.99819379               25.05249390                0.54300433               -0.06444794               -0.06425493                0.21537754               -0.00010712                0.00003932               -0.00128469
               0.99882096                3.99840951               25.05259968                0.01000000                0.01918547               -0.06501830                0.21466597                0.05353072                0.03488357                0.00174034
               1.99984915                3.99969309               25.05340240                0.01000000                0.09917869               -0.09920543                0.21477352                0.13160223                0.08753353               -0.00746895
               3.00080453                4.00205551               25.05456862                0.01198288                0.04759862               -0.02142650                0.21630247                0.19824831                0.08524487                0.05269684
               4.00080112                4.00318532               25.05533777                0.01000000                0.01621695                0.01053297                0.21771476                0.19546460                0.09350083                0.10600950
               5.00112887                4.00449407               25.05667693                0.01807497               -0.01083346                0.04761186                0.22110480                0.15211129                0.05194668                0.11567014
               6.00058445                4.00430823               25.05663167                0.01000001               -0.04115467                0.00312425                0.22128294                0.06167402                0.01363909                0.12799276
               7.00030578                4.00347284               25.05721099                0.01184984                0.00254664                0.11737402                0.22299459                0.24648313                0.10536189                0.27542164
               8.00063538                4.00527719               25.05901287                0.01004429                0.07190427                0.20989835                0.22944306                0.54314512                0.36202990                0.46545812
               9.00174386                4.00873701               25.06473513                0.07442175                0.01514842                0.29998664                0.25102977                0.55646512                0.28113488                0.60913176
              10.00093835                4.00893519               25.06491771                0.55974691               -0.08055119                0.31810744                0.25308956                0.39472598                0.00397165                0.61664328
              -0.00074777                4.99755082               25.05249709                0.59556218               -0.06420422               -0.06426282                0.21451175               -0.00009607                0.00004515               -0.00116720
               0.99861018                4.99776234               25.05261774                0.02159594               -0.03032619               -0.06446127                0.21383943                0.02462590                0.01422262                0.00172227
               1.99864570                4.99846334               25.05302197                0.01000001                0.08769946               -0.11758140                0.21429995                0.07694456                0.09863927               -0.02890319
               3.00036417                5.00137681               25.05482893                0.01000000                0.14927333               -0.05898565                0.21668380                0.24607051                0.16738309                0.05202470
               4.00163117                5.00343882               25.05662648                0.01807587                0.05294029               -0.01568340                0.22101344                0.14827615                0.09844792                0.06400904
               5.00142298                5.00425086               25.05707437                0.01000001               -0.01636642               -0.02271820                0.22244187                0.03400367                0.05846589                0.07071574
               6.00130384                5.00428072               25.05808018                0.01189593                0.01540645                0.03136036                0.22536472                0.10852820                0.15933614                0.21151452
               7.00173111                5.00512528               25.06055982                0.01006988                0.05105864                0.15588165                0.23418030                0.29277572                0.30664792                0.35644423
               8.00232501                5.00766069               25.06452387                0.07376566               -0.00794371                0.08229789                0.25048763                0.21420315                0.19324895                0.28119680
               9.00157223                5.00800802               25.06472248                0.15620753               -0.07601266               -0.07469583                0.25243226                0.00856072                0.00260908                0.00536236
              10.00080476                5.00829676               25.06487850                0.60640830               -0.07674736               -0.06890696                0.25437629                0.00763180                0.00032451                0.00557312
              -0.00095951                5.99690853               25.05250072                0.66396890               -0.06395321               -0.06413165                0.21360281               -0.00008984                0.00005843               -0.00108210
               0.99840096                5.99712028               25.05263559                0.10858068               -0.06334608               -0.06399635                0.21297720                0.00063597                0.00153483                0.00168808
               1.99777357                5.99734146               25.05280003                0.01139690                0.11747546               -0.08825350                0.21258577                0.13331669                0.13346827               -0.00881937
               3.00075047                6.00087580               25.05557375                0.01814790                0.15595119               -0.08906115                0.21870542                0.19703746                0.17316805                0.01776141
               4.00089259                6.00287165               25.05655934                0.01000001                0.01082891               -0.04584114                0.22110553                0.05444720                0.10616441                0.02350994
               5.00096705                6.00403971               25.05800091                0.01189741                0.04940024               -0.00195946                0.22524524                0.10417826                0.19322828                0.16130117
               6.00188060                6.00493544               25.06074261                0.01009884                0.09071385                0.06259188                0.23505665                0.22337334                0.29288037                0.29404950
               7.00278132                6.00659048               25.06419251                0.07386348                0.00780541                0.03630074                0.24989811                0.13704684                0.16807580                0.18543076
               8.00203671                6.00692314               25.06441798                0.15641609               -0.07511565               -0.07481914                0.25176678                0.00280024                0.00460060               -0.00126321
               9.00127901                6.00724309               25.06460363                0.26645214               -0.07615998               -0.07646277                0.25365451                0.00142655                0.00151385               -0.00043601
              10.00051351                6.00755705               25.06477116                0.67039228               -0.07655037               -0.07508421                0.25559324                0.00109139                0.00049485                0.00168783
              -0.00117308                6.99626819               25.05250421                0.75149784               -0.06369441               -0.06389257                0.21266464               -0.00009125                0.00009406               -0.00110161
               0.99818997                6.99648241               25.05265290                0.22411587               -0.06351978               -0.06362288                0.21209138                0.00025184                0.00111165                0.00158357
               1.99755652                6.99669827               25.05282202                0.01617577                0.02923758               -0.06388379                0.21165333                0.13413222                0.11027022                0.00339016
               2.99877473                6.99959558               25.05515369                0.01000001                0.09998390               -0.11629942                0.21736485                0.19927482                0.19537237               -0.01247319
               3.99955620                7.00252200               25.05704216                0.01185424                0.13340165               -0.01166534                0.22264294                0.23005246                0.23644945                0.10316299
               5.00144276                7.00421167               25.06021605                0.01007434                0.18321696                0.02119659                0.23368706                0.28552632                0.32177923                0.27937319
               6.00322054                7.00553256               25.06383785                0.07386745                0.05207907               -0.00733579                0.24929402                0.13479315                0.17645789                0.15778023
               7.00248434                7.00585129               25.06407729                0.15648836               -0.07460670               -0.07472119                0.25116009                0.00158083                0.00546561               -0.00288407
               8.00172841                7.00616431               25.06428485                0.26664200               -0.07587396               -0.07602485                0.25302724                0.00056435                0.00297524               -0.00270371
               9.00096686                7.00647876               25.06447862                0.41861795               -0.07648673               -0.07657098                0.25493368                0.00031740                0.00136676               -0.00089175
              10.00019867                7.00679508               25.06465675                0.75999510               -0.07681897               -0.07663348                0.25687236                0.00009325                0.00052303                0.00123002
              -0.00138977                7.99563068               25.05250646                0.86285011               -0.06343136               -0.06359210                0.21172334               -0.00009889                0.00014617               -0.00126081
               0.99797591                7.99584783               25.05266869                0.37892588               -0.06335939               -0.06332878                0.21120554                0.00010192                0.00079156                0.00137458
               1.99734304                7.99606378               25.05284399                0.01000000                0.04681638               -0.06326418                0.21077244                0.11370412                0.11505725                0.00313183
               2.99891224                7.99854981               25.05529131                0.01259487                0.17672593               -0.17809750                0.21793003                0.23296829                0.26902157               -0.09438350
               4.00087756                8.00263835               25.05857383                0.01005553                0.23773855                0.03858995                0.22863516                0.52303244                0.39153151                0.30721475
               5.00366701                8.00446364               25.06349588                0.07377798                0.10296406               -0.02481461                0.24867921                0.20524270                0.24056182                0.16690054
               6.00293684                8.00478872               25.06373774                0.15643421               -0.07429113               -0.07486523                0.25056247                0.00262326                0.00472472               -0.00238952
               7.00218119                8.00509605               25.06394898                0.26666257               -0.07581583               -0.07570851                0.25242737                0.00053469                0.00266738               -0.00309090
               8.00142052                8.00540265               25.06415407                0.41874965               -0.07632995               -0.07633447                0.25433526                0.00019798                0.00191413               -0.00239206
               9.00065459                8.00571167               25.06435324                0.63831462               -0.07688879               -0.07690111                0.25627586                0.00007698                0.00099772               -0.00099396
               9.99988275                8.00602438               25.06454157                0.89184729               -0.07718440               -0.07735684                0.25822145               -0.00012028                0.00045142                0.00119094
              -0.00160936                8.99499635               25.05250632                1.00000000               -0.06317343               -0.06328217                0.21080871               -0.00011827                0.00019621               -0.00115714
               0.99775891                8.99521583               25.05268191                0.59014383               -0.06310096               -0.06308214                0.21034585                0.00002931                0.00034136                0.00094723
               1.99712862                8.99543299               25.05286064                0.05649260               -0.04496905               -0.06295705                0.20991096                0.01934340                0.00995106                0.00189893
               2.99685953                8.99603363               25.05322828                0.01358134                0.34871973               -0.16607646                0.21090169                0.26089049                0.49629392               -0.10403101
               4.00410302                9.00329380               25.06312911                0.07454978                0.32688550               -0.00736969                0.24804612                0.52549472                0.49119167                0.23136661
               5.00339724                9.00371538               25.06342713                0.15625089               -0.07312121               -0.07539443                0.25003670                0.00740653                0.00620519               -0.00066942
               6.00264059                9.00403525               25.06363506                0.26651256               -0.07580628               -0.07563638                0.25186187                0.00128315                0.00101158               -0.00167202
               7.00188111                9.00433712               25.06383386                0.41870406               -0.07619219               -0.07613213                0.25374116                0.00029322                0.00026105               -0.00161927
               8.00111675                9.00463762               25.06403003                0.63840675               -0.07672205               -0.07670926                0.25568082                0.00007327                0.00010926               -0.00137441
               9.00034667                9.00494074               25.06422761                0.97575237               -0.07729501               -0.07729053                0.25766199                0.00001794                0.00022747               -0.00078149
               9.99957085                9.00524794               25.06442647                0.98958575               -0.07758206               -0.07787632                0.25961801               -0.00019163                0.00034711                0.00095342
              -0.00183111                9.99436503               25.05251072                0.99583152               -0.06290310               -0.06313142                0.20993734               -0.00006039               -0.00080188               -0.00095091
               0.99753986                9.99458618               25.05268926                0.86619583               -0.06283915               -0.06296504                0.20948700                0.00007532               -0.00132077                0.00064806
               1.99691211                9.99480464               25.05285774                0.55990757               -0.06353071               -0.06283477                0.20900839                0.01045304                0.00465894                0.00093186
               2.99626924                9.99522828               25.05315585                0.52581629                0.33968013               -0.08053547                0.20975135                0.32528726                0.49402091               -0.00459196
               4.00370571               10.00249095               25.06311099                0.55987363                0.34022205               -0.08028418                0.24952703                0.34664267                0.48986436                0.00244915
               5.00307368               10.00295575               25.06336109                0.60644446               -0.06824757               -0.07596249                0.25140442                0.00689687                0.00151877               -0.00074843
               6.00234076               10.00327600               25.06355372                0.67044055               -0.07444987               -0.07592565                0.25321923                0.00089919               -0.00193668               -0.00076225
               7.00158469               10.00357341               25.06373810                0.76006765               -0.07611946               -0.07637113                0.25509405               -0.00001915               -0.00251459               -0.00074479
               8.00081837               10.00386846               25.06392131                0.89193940               -0.07700298               -0.07691568                0.25703677               -0.00021582               -0.00250036               -0.00063229
               9.00004463               10.00416586               25.06410668                0.98958621               -0.07769254               -0.07748824                0.25902502               -0.00028481               -0.00168709               -0.00049769
               9.99926452               10.00446685               25.06430530                0.99961536               -0.07801108               -0.07810881                0.26098305               -0.00053407               -0.00090441                0.00077716
               0.00040607                0.00075917               26.05466680                0.78618208               -0.06535721               -0.06533829                0.21869397               -0.00021791                0.00088031               -0.00089017
               0.99975250                0.00104058               26.05471077                0.52530159               -0.06479617               -0.06538082                0.21793513                0.00033671                0.00116732                0.00067314
               1.99911015                0.00133328               26.05476027                0.48209702               -0.06413624               -0.06496128                0.21721692                0.00005118                0.00117015                0.00001407
               2.99846977                0.00164723               26.05480429                0.50422227               -0.06411522               -0.06477189                0.21651544               -0.00010562                0.00095520               -0.00003746
               3.99782784                0.00197730               26.05484895                0.54296556               -0.06424170               -0.06455680                0.21579987               -0.00012433                0.00111691               -0.00006777
               4.99718494                0.00231656               26.05489519                0.59549940               -0.06428039               -0.06434473                0.21505501               -0.00011397                0.00134197               -0.00008646
               5.99654223                0.00265930               26.05494313                0.66388319               -0.06420816               -0.06412710                0.21427939               -0.00010487                0.00155885               -0.00010700
               6.99590078                0.00300180               26.05499257                0.75138834               -0.06404727               -0.06390400                0.21348489               -0.00010036                0.00174040               -0.00015313
               7.99526129                0.00334205               26.05504332                0.86270824               -0.06383282               -0.06367754                0.21269265               -0.00009900                0.00189752               -0.00022907
               8.99462412                0.00367940               26.05509548                1.00000000               -0.06360043               -0.06345557                0.21192657               -0.00010658                0.00161794               -0.00033451
               9.99398928                0.00401381               26.05514059                0.99581400               -0.06348388               -0.06322371                0.21118484                0.00001718                0.00125562                0.00095296
               0.00012248                1.00010579               26.05466610                0.52530760               -0.06536703               -0.06476656                0.21782680                0.00032501               -0.00067027               -0.00124480
               0.99946881                1.00038677               26.05471011                0.01342132               -0.06575726               -0.06574283                0.21706558                0.00133999               -0.00148176                0.00144141
               1.99880733                1.00068367               26.05473769                0.01000000               -0.06610524               -0.04017610                0.21633143                0.02745149               -0.00222967                0.01238252
               2.99814670                1.00099951               26.05476612                0.01000001               -0.06577001               -0.00175793                0.21562620                0.05773779               -0.00212227                0.03135519
               3.99749193                1.00133174               26.05479525                0.01000000               -0.06519510                0.01803072                0.21491193                0.05329117               -0.00200000                0.04096261
               4.99684280                1.00167311               26.05482567                0.02152556               -0.06466846               -0.03067877                0.21417416                0.02442831               -0.00185909                0.01426420
               5.99619857                1.00201803               26.05485730                0.10847606               -0.06422043               -0.06352445                0.21341055                0.00036602               -0.00175004               -0.00179535
               6.99555839                1.00236276               26.05488970                0.22396018               -0.06385349               -0.06368834                0.21263162                0.00011415               -0.00167394               -0.00159445
               7.99492150                1.00270528               26.05492278                0.37867829               -0.06356102               -0.06355040                0.21185706                0.00004986               -0.00159324               -0.00130307
               8.99428717                1.00304485               26.05495682                0.58970716               -0.06332249               -0.06332688                0.21110830                0.00002078               -0.00120249               -0.00074609
               9.99365505                1.00338157               26.05499776                0.86590592               -0.06321283               -0.06310696                0.21036996                0.00013340               -0.00086047                0.00142657
              -0.00014940                1.99946384               26.05465811                0.48210950               -0.06491818               -0.06409956                0.21698960                0.00004519               -0.00000247               -0.00146730
               0.99920142                1.99972573               26.05472462                0.01000000               -0.04020794               -0.06602530                0.21623990                0.02748745                0.00856483                0.00206140
               1.99904644                2.00052976               26.05496249                0.01000001               -0.01124784               -0.01109666                0.21547730                0.13241806                0.02477000                0.03241422
               2.99897646                2.00161207               26.05535580                0.01000000               -0.04131874                0.04157949                0.21536469                0.17292862                0.02284734                0.06331595
               3.99822007                2.00233792               26.05556213                0.01000000               -0.09946223                0.09666283                0.21524783                0.13293030               -0.02279651                0.10195138
               4.99698722                2.00170298               26.05504313                0.01000001               -0.11800792                0.08403474                0.21437267                0.08044051               -0.04806893                0.11685503
               5.99585991                2.00138881               26.05473765                0.01139534               -0.08857039                0.11327169                0.21266619                0.13838767               -0.02093376                0.15756717
               6.99521581                2.00172803               26.05475800                0.01617240               -0.06398560                0.02520176                0.21183803                0.13941614               -0.00450745                0.13512872
               7.99458019                2.00207104               26.05478081                0.01000000               -0.06337851                0.04285555                0.21105697                0.11931030               -0.00405826                0.14463692
               8.99394824                2.00241287               26.05481004                0.05627430               -0.06308484               -0.04519530                0.21030144                0.02038212               -0.00246688                0.01035978
               9.99331850                2.00275167               26.05486457                0.55975169               -0.06297395               -0.06488916                0.20954786                0.01207623               -0.00119648                0.01073726
              -0.00040039                2.99882380               26.05465297                0.50424273               -0.06469739               -0.06407899                0.21617303               -0.00010154                0.00003041               -0.00131195
               0.99895264                2.99906627               26.05473581                0.01000001               -0.00151310               -0.06562665                0.21544045                0.05778257                0.02626919                0.00187452
               1.99956935                3.00046174               26.05534345                0.01000000                0.04222391               -0.04114533                0.21527445                0.17300177                0.05278618                0.03123654
               2.99979712                3.00183110               26.05596748                0.01000000                0.02451389                0.02319024                0.21572182                0.22580962                0.06063681                0.07179855
               4.00005963                3.00326499               26.05674177                0.01197768               -0.01981965                0.04408918                0.21706775                0.19920451                0.04304194                0.10168993
               4.99940072                3.00335380               26.05702824                0.01000000               -0.05591797                0.14189867                0.21750436                0.25157546                0.04467245                0.19817663
               5.99894127                3.00428346               26.05783924                0.01813630               -0.08681215                0.14910873                0.21961865                0.20529288                0.00736490                0.21220099
               6.99766448                3.00286679               26.05738947                0.01000001               -0.11592021                0.09128072                0.21816725                0.21154147               -0.02345165                0.24355131
               7.99662287                3.00356239               26.05757892                0.01257029               -0.18251463                0.16472064                0.21888437                0.25917977               -0.13498351                0.33682174
               8.99401419                3.00214094               26.05489340                0.01345996               -0.17019525                0.32195793                0.21100174                0.30831232               -0.14183358                0.63564181
               9.99321896                3.00208379               26.05490794                0.52570779               -0.07952283                0.31538887                0.21001791                0.36764301               -0.00692943                0.64466166
              -0.00063637                3.99818226               26.05464749                0.54299792               -0.06444967               -0.06418966                0.21534193               -0.00011695                0.00004160               -0.00127179
               0.99871913                3.99841319               26.05474616                0.01000000                0.01890084               -0.06500943                0.21463213                0.05326565                0.03539306                0.00181408
               1.99974164                3.99970685               26.05555187                0.01000000                0.09851323               -0.09912010                0.21507782                0.13109121                0.08890030               -0.00723050
               3.00068939                4.00207588               26.05673553                0.01197854                0.04699033               -0.02174207                0.21698554                0.19756705                0.08690895                0.05380610
               4.00068145                4.00321970               26.05751965                0.01000000                0.01554319                0.01015376                0.21854646                0.19482784                0.09591817                0.10854148
               5.00100026                4.00454095               26.05889375                0.01806018               -0.01143370                0.04706787                0.22213056                0.15146369                0.05352057                0.11845732
               6.00045278                4.00437098               26.05884923                0.01000001               -0.04162746                0.00282499                0.22214092                0.06118194                0.01434436                0.13134573
               7.00016771                4.00355364               26.05944585                0.01181900                0.00184321                0.11654045                0.22385416                0.24503611                0.10919781                0.28415489
               8.00048964                4.00536546               26.06131173                0.01000535                0.07126858                0.21005077                0.23053156                0.54209995                0.37546768                0.48178882
               9.00159308                4.00885202               26.06724929                0.07441617                0.01480110                0.29898623                0.25181041                0.55455414                0.29105227                0.62876296
              10.00078566                4.00905945               26.06745120                0.55975673               -0.08074185                0.31676145                0.25362115                0.39190524                0.00407066                0.63766420
              -0.00086459                4.99754000               26.05464204                0.59554902               -0.06420505               -0.06419539                0.21448073               -0.00010610                0.00004829               -0.00120191
               0.99849336                4.99776608               26.05475592                0.02156981               -0.03034587               -0.06445786                0.21380062                0.02450036                0.01477751                0.00176312
               1.99852849                4.99847933               26.05516440                0.01000001                0.08711244               -0.11744607                0.21420046                0.07654194                0.10067980               -0.02934817
               3.00023561                5.00139626               26.05699947                0.01000000                0.14813066               -0.05914904                0.21733414                0.24506431                0.17106215                0.05357089
               4.00149111                5.00346807               26.05884236                0.01806128                0.05215551               -0.01603480                0.22203082                0.14783856                0.10108914                0.06570647
               5.00127872                5.00429516               26.05930425                0.01000001               -0.01694437               -0.02300302                0.22341991                0.03387504                0.06027744                0.07265722
               6.00115222                5.00433996               26.06034003                0.01185616                0.01460055                0.03117835                0.22648335                0.10794078                0.16479988                0.21840926
               7.00157073                5.00519760               26.06290761                0.01001529                0.05071329                0.15628351                0.23557345                0.29352306                0.31834250                0.36986354
               8.00216648                5.00776340               26.06703319                0.07370641               -0.00797250                0.08289118                0.25138233                0.21504362                0.20042888                0.29107611
               9.00141128                5.00812067               26.06725014                0.15616339               -0.07621331               -0.07490527                0.25310396                0.00851861                0.00261489                0.00536067
              10.00064222                5.00841902               26.06742434                0.60639008               -0.07690613               -0.06906967                0.25479814                0.00761145                0.00031712                0.00551015
              -0.00109065                5.99689835               26.05463666                0.66395656               -0.06395463               -0.06407683                0.21358795               -0.00009859                0.00006244               -0.00115791
               0.99826981                5.99712404               26.05476518                0.10854458               -0.06335253               -0.06399792                0.21294371                0.00056541                0.00164170                0.00169932
               1.99764230                5.99735793               26.05492531                0.01139961                0.11660690               -0.08822312                0.21248055                0.13260405                0.13715817               -0.00921130
               3.00060195                6.00089289               26.05776442                0.01813964                0.15485070               -0.08908359                0.21935267                0.19623565                0.17761852                0.01841141
               4.00073932                6.00289901               26.05877507                0.01000001                0.01019614               -0.04608383                0.22194592                0.05432053                0.10933225                0.02429511
               5.00080587                6.00408089               26.06025950                0.01185748                0.04849173               -0.00201712                0.22635332                0.10381610                0.19994485                0.16676426
               6.00170915                6.00499455               26.06309930                0.01004011                0.09044294                0.06330277                0.23632094                0.22455237                0.30431325                0.30550076
               7.00261473                6.00667931               26.06669614                0.07379507                0.00791476                0.03699198                0.25083554                0.13819025                0.17449476                0.19256631
               8.00186745                6.00702328               26.06693931                0.15635823               -0.07534453               -0.07504702                0.25250357                0.00279541                0.00455496               -0.00132550
               9.00110784                6.00735392               26.06714272                0.26643159               -0.07631302               -0.07661847                0.25416536                0.00141806                0.00148939               -0.00051828
              10.00034119                6.00767806               26.06732840                0.67039174               -0.07666495               -0.07517963                0.25585899                0.00110510                0.00048769                0.00160479
              -0.00131793                6.99625847               26.05463090                0.75149757               -0.06369842               -0.06385985                0.21267505               -0.00009768                0.00009951               -0.00119753
               0.99804509                6.99648612               26.05477370                0.22406777               -0.06351793               -0.06362808                0.21207161                0.00021484                0.00117716                0.00158200
               1.99741171                6.99671487               26.05493812                0.01617833                0.02870785               -0.06387389                0.21157356                0.13355468                0.11363111                0.00341801
               2.99861925                6.99961459               26.05732986                0.01000001                0.09889009               -0.11606926                0.21782132                0.19840925                0.20133519               -0.01244006
               3.99938952                7.00254639               26.05927324                0.01182344                0.13201259               -0.01171187                0.22348076                0.22946823                0.24481021                0.10689717
               5.00125950                7.00425482               26.06255875                0.01002028                0.18276645                0.02196958                0.23501196                0.28673935                0.33468787                0.29058549
               6.00304485                7.00560601               26.06633565                0.07379890                0.05231531               -0.00675695                0.25027345                0.13606590                0.18328476                0.16417598
               7.00230580                7.00593744               26.06659278                0.15642605               -0.07485289               -0.07496229                0.25194234                0.00158600                0.00541172               -0.00295638
               8.00154779                7.00626246               26.06681794                0.26661709               -0.07604693               -0.07619568                0.25359139                0.00056196                0.00293110               -0.00276115
               9.00078487                7.00658830               26.06702962                0.41866201               -0.07658693               -0.07667200                0.25526664                0.00031158                0.00135048               -0.00092343
              10.00001605                7.00691543               26.06722591                0.76003096               -0.07688163               -0.07666873                0.25696217                0.00011363                0.00051797                0.00120366
              -0.00154791                7.99562116               26.05462389                0.86287156               -0.06343927               -0.06358411                0.21176229               -0.00010233                0.00015377               -0.00134845
               0.99781770                7.99585147               26.05478072                0.37885112               -0.06335810               -0.06333492                0.21120263                0.00008742                0.00083755                0.00138362
               1.99718493                7.99608045               26.05495138                0.01000000                0.04604545               -0.06325555                0.21071044                0.11328206                0.11907111                0.00318976
               2.99873861                7.99857151               26.05747269                0.01257772                0.17517588               -0.17743071                0.21832337                0.23278365                0.27843072               -0.09721556
               4.00068845                8.00266477               26.06086430                0.01001668                0.23712114                0.03928079                0.22957042                0.52325468                0.40679311                0.31961537
               5.00348103                8.00452029               26.06598775                0.07371789                0.10296999               -0.02428001                0.24970065                0.20658840                0.24971260                0.17373195
               6.00274785                8.00485941               26.06624746                0.15637456               -0.07455164               -0.07511480                0.25138514                0.00262889                0.00467809               -0.00245029
               7.00199000                8.00518007               26.06647628                0.26663570               -0.07600093               -0.07589330                0.25303378                0.00053407                0.00262396               -0.00314780
               8.00122783                8.00549937               26.06669931                0.41879212               -0.07644478               -0.07644915                0.25471358                0.00019383                0.00190160               -0.00241452
               9.00046110                8.00582048               26.06691669                0.63845138               -0.07693142               -0.07694292                0.25641563                0.00007260                0.00099908               -0.00098042
               9.99968920                8.00614468               26.06712325                0.89192387               -0.07719023               -0.07732849                0.25811800               -0.00009584                0.00045252                0.00121501
              -0.00178061                8.99498679               26.05461474                1.00000000               -0.06318515               -0.06329412                0.21087277               -0.00011832                0.00020565               -0.00121350
               0.99758754                8.99521942               26.05478542                0.58999304               -0.06310352               -0.06308793                0.21035684                0.00002700                0.00036450                0.00096759
               1.99695732                8.99544976               26.05495950                0.05636769               -0.04484680               -0.06294713                0.20986404                0.01945702                0.01070737                0.00194495
               2.99669060                8.99606597               26.05533692                0.01360901                0.34742564               -0.16559368                0.21083432                0.26143301                0.51612176               -0.10727104
               4.00390583                9.00333201               26.06561452                0.07455012                0.32530107               -0.00690916                0.24904106                0.52533686                0.50916849                0.24053437
               5.00319662                9.00376922               26.06593168                0.15620436               -0.07340966               -0.07564360                0.25087848                0.00742255                0.00620427               -0.00067018
               6.00243764                9.00410372               26.06615686                0.26648750               -0.07600477               -0.07582697                0.25249890                0.00128305                0.00093769               -0.00170214
               7.00167653                9.00441958               26.06637336                0.41874039               -0.07631931               -0.07625751                0.25415832                0.00028907                0.00023590               -0.00164097
               8.00091125                9.00473348               26.06658774                0.63853562               -0.07677631               -0.07676458                0.25586237                0.00006909                0.00012728               -0.00137771
               9.00014100                9.00504944               26.06680389                0.97593929               -0.07727617               -0.07727206                0.25759610                0.00001532                0.00024997               -0.00076144
               9.99936573                9.00536886               26.06702108                0.98980481               -0.07752727               -0.07778245                0.25930746               -0.00016249                0.00035563                0.00098135
              -0.00201555                9.99435527               26.05461051                0.99581733               -0.06291865               -0.06315119                0.21001682               -0.00004964               -0.00082713               -0.00098664
               0.99735527                9.99458972               26.05478425                0.86608929               -0.06284652               -0.06297075                0.20951082                0.00008458               -0.00135735                0.00066830
               1.99672752                9.99482151               26.05494769                0.55982737               -0.06351220               -0.06282489                0.20898279                0.01051623                0.00522641                0.00095711
               2.99608502                9.99525964               26.05525309                0.52585584                0.33822083               -0.08063367                0.20970468                0.32469565                0.51495123               -0.00478002
               4.00349194               10.00252659               26.06561017                0.55988952                0.33863753               -0.08054215                0.25031489                0.34599951                0.50902111                0.00253951
               5.00285777               10.00300741               26.06587827                0.60642447               -0.06843922               -0.07618056                0.25203761                0.00692905                0.00145037               -0.00075633
               6.00212315               10.00334287               26.06608807                0.67043649               -0.07458759               -0.07608477                0.25365203                0.00092671               -0.00202028               -0.00077088
               7.00136602               10.00365492               26.06629011                0.76009733               -0.07619031               -0.07646562                0.25530944                0.00000934               -0.00254251               -0.00075154
               8.00059935               10.00396407               26.06649157                0.89200737               -0.07699937               -0.07694044                0.25701666               -0.00018457               -0.00247925               -0.00063284
               8.99982603               10.00427504               26.06669557                0.98980524               -0.07761156               -0.07744005                0.25875614               -0.00024914               -0.00166198               -0.00049049
               9.99904712               10.00458903               26.06691253                0.99975429               -0.07789162               -0.07798250                0.26046926               -0.00046201               -0.00089609                0.00078753
               0.00037475                0.00075530               27.05685349                0.78622472               -0.06534556               -0.06532712                0.21864034               -0.00021429                0.00088956               -0.00089187
               0.99972129                0.00105234               27.05688995                0.52535971               -0.06479029               -0.06536908                0.21789599                0.00032723                0.00119616                0.00067840
               1.99907894                0.00136042               27.05693227                0.48212372               -0.06412407               -0.06495940                0.21718078                0.00004765                0.00122233                0.00001251
               2.99843881                0.00168947               27.05696924                0.50423490               -0.06407982               -0.06477014                0.21647263               -0.00011094                0.00100248               -0.00003785
               3.99779735                0.00203477               27.05700671                0.54296884               -0.06419054               -0.06455441                0.21575334               -0.00013088                0.00113771               -0.00006739
               4.99715500                0.00238962               27.05704551                0.59549719               -0.06422656               -0.06434178                0.21501245               -0.00012080                0.00132841               -0.00008553
               5.99651282                0.00274842               27.05708577                0.66388005               -0.06416310               -0.06412468                0.21424964               -0.00011092                0.00151660               -0.00010557
               6.99587174                0.00310742               27.05712737                0.75139108               -0.06401831               -0.06390361                0.21347489               -0.00010484                0.00168664               -0.00015116
               7.99523245                0.00346450               27.05717031                0.86272080               -0.06382203               -0.06368019                0.21270468               -0.00010143                0.00185490               -0.00022630
               8.99459530                0.00381883               27.05721491                1.00000000               -0.06360427               -0.06346112                0.21195756               -0.00010660                0.00159724               -0.00033151
               9.99396036                0.00417021               27.05725266                0.99578176               -0.06349346               -0.06323213                0.21122733                0.00002320                0.00124587                0.00094632
               0.00007556                1.00010203               27.05684421                0.52536555               -0.06535527               -0.06476102                0.21778991                0.00031544               -0.00067265               -0.00123196
               0.99942201                1.00039865               27.05688068                0.01340815               -0.06573509               -0.06572233                0.21704358                0.00130689               -0.00147062                0.00146826
               1.99876086                1.00071082               27.05690094                0.01000000               -0.06607407               -0.04026624                0.21631324                0.02730503               -0.00219514                0.01243469
               2.99810053                1.00104177               27.05692225                0.01000001               -0.06574467               -0.00208932                0.21559879                0.05736946               -0.00208134                0.03173759
               3.99744596                1.00138923               27.05694419                0.01000000               -0.06517773                0.01760663                0.21487635                0.05291284               -0.00197610                0.04164887
               4.99679697                1.00174620               27.05696721                0.02151342               -0.06465793               -0.03080630                0.21413636                0.02423917               -0.00186034                0.01479341
               5.99615281                1.00210717               27.05699123                0.10845507               -0.06421611               -0.06352845                0.21337819                0.00031585               -0.00177268               -0.00174201
               6.99551265                1.00246838               27.05701590                0.22392531               -0.06385392               -0.06368569                0.21261090                0.00008753               -0.00170337               -0.00156834
               7.99487573                1.00282770               27.05704131                0.37861193               -0.06356353               -0.06354808                0.21184996                0.00003913               -0.00160989               -0.00128562
               8.99424138                1.00318422               27.05706792                0.58955671               -0.06332538               -0.06332742                0.21111194                0.00001897               -0.00120305               -0.00073795
               9.99360922                1.00353789               27.05710152                0.86579758               -0.06321582               -0.06311103                0.21038325                0.00013838               -0.00085637                0.00141794
              -0.00021220                1.99946008               27.05682787                0.48213525               -0.06491673               -0.06408618                0.21695931                0.00004109               -0.00000402               -0.00143424
               0.99913864                1.99973790               27.05688696                0.01000000               -0.04029366               -0.06599999                0.21622271                0.02733897                0.00859579                0.00211865
               1.99898193                2.00055509               27.05711797                0.01000001               -0.01154197               -0.01140128                0.21560242                0.13163196                0.02506998                0.03275869
               2.99890780                2.00164768               27.05751072                0.01000000               -0.04153788                0.04099077                0.21559068                0.17185721                0.02330082                0.06411334
               3.99815117                2.00238690               27.05771592                0.01000000               -0.09929772                0.09576091                0.21548254                0.13201822               -0.02283100                0.10374213
               4.99692184                2.00177349               27.05718643                0.01000001               -0.11771115                0.08326666                0.21429367                0.07968070               -0.04883199                0.11933319
               5.99579695                2.00147785               27.05686391                0.01139874               -0.08844409                0.11217525                0.21259151                0.13713005               -0.02144096                0.16169605
               6.99515296                2.00183370               27.05687609                0.01617677               -0.06397789                0.02462952                0.21178478                0.13823673               -0.00455028                0.13887152
               7.99451739                2.00219354               27.05689117                0.01000000               -0.06337361                0.04202712                0.21101755                0.11827624               -0.00406886                0.14909136
               8.99388549                2.00255229               27.05691291                0.05617232               -0.06307961               -0.04511736                0.21027381                0.02041544               -0.00246471                0.01113764
               9.99325580                2.00290799               27.05695998                0.55968543               -0.06296887               -0.06483408                0.20953618                0.01205658               -0.00119329                0.01138153
              -0.00047926                2.99882030               27.05681453                0.50425467               -0.06469675               -0.06404017                0.21613946               -0.00010839                0.00003088               -0.00128209
               0.99887377                2.99907865               27.05689010                0.01000001               -0.00185137               -0.06561109                0.21541543                0.05741494                0.02662309                0.00193777
               1.99948371                3.00048280               27.05749746                0.01000000                0.04160426               -0.04137821                0.21550072                0.17193947                0.05351989                0.03174293
               2.99970586                3.00186158               27.05812695                0.01000000                0.02384041                0.02259810                0.21612504                0.22443957                0.06193611                0.07317316
               3.99996052                3.00330444               27.05891541                0.01197499               -0.02031080                0.04343270                0.21759951                0.19800189                0.04413971                0.10372690
               4.99929964                3.00341153               27.05920613                0.01000000               -0.05626637                0.14068592                0.21802034                0.24970422                0.04613553                0.20257639
               5.99883519                3.00435067               27.06003837                0.01813118               -0.08689750                0.14782537                0.22015566                0.20358645                0.00783656                0.21736472
               6.99756169                3.00296097               27.05957334                0.01000001               -0.11562609                0.09020514                0.21856934                0.20959220               -0.02356904                0.25029271
               7.99652267                3.00366824               27.05976958                0.01256103               -0.18132274                0.16325745                0.21925089                0.25724056               -0.13834138                0.34749338
               8.99393524                3.00228188               27.05700335                0.01350297               -0.16918640                0.32016220                0.21099485                0.30564568               -0.14559059                0.65744185
               9.99313894                3.00224121               27.05700811                0.52575638               -0.07962931                0.31320402                0.21002422                0.36393975               -0.00715677                0.66767653
              -0.00073107                3.99817927               27.05680074                0.54300012               -0.06444921               -0.06413431                0.21530791               -0.00012536                0.00004318               -0.00126938
               0.99862444                3.99842567               27.05689232                0.01000000                0.01844286               -0.06500358                0.21460017                0.05289305                0.03604738                0.00186132
               1.99963779                3.99972753               27.05770396                0.01000000                0.09752490               -0.09899250                0.21531151                0.13030063                0.09061096               -0.00716461
               3.00057494                4.00209964               27.05890833                0.01197555                0.04617353               -0.02211268                0.21751908                0.19648113                0.08884721                0.05498703
               4.00056126                4.00325556               27.05970870                0.01000000                0.01473789                0.00965411                0.21920081                0.19376078                0.09853591                0.11126059
               5.00086970                4.00458721               27.06111954                0.01805002               -0.01210115                0.04633623                0.22294803                0.15050078                0.05514411                0.12144787
               6.00031924                4.00443435               27.06107449                0.01000001               -0.04212297                0.00240821                0.22284603                0.06059423                0.01498443                0.13496032
               7.00002724                4.00363781               27.06168807                0.01179582                0.00110308                0.11556407                0.22454889                0.24337222                0.11326695                0.29348873
               8.00034130                4.00545869               27.06362350                0.01000000                0.06990991                0.20931969                0.23152144                0.53930554                0.38909233                0.49852770
               9.00142544                4.00895553               27.06977134                0.07443009                0.01373157                0.29699618                0.25259664                0.55057640                0.30084500                0.64893084
              10.00061593                4.00917207               27.06999013                0.55978100               -0.08095046                0.31442795                0.25416702                0.38784203                0.00417889                0.65909484
              -0.00097457                4.99753762               27.05678671                0.59554489               -0.06420478               -0.06413809                0.21445383               -0.00011485                0.00005069               -0.00123509
               0.99838338                4.99777858               27.05689375                0.02155731               -0.03048356               -0.06445878                0.21376747                0.02430185                0.01531053                0.00178639
               1.99841576                4.99850295               27.05730598                0.01000001                0.08620348               -0.11720088                0.21411641                0.07602230                0.10306083               -0.02997783
               3.00010745                5.00141933               27.05917561                0.01000000                0.14662075               -0.05930071                0.21784620                0.24363590                0.17528876                0.05511591
               4.00134817                5.00349753               27.06106710                0.01805117                0.05117052               -0.01644387                0.22284166                0.14709156                0.10394348                0.06744117
               5.00113086                5.00433826               27.06154277                0.01000001               -0.01758458               -0.02333605                0.22421903                0.03366633                0.06219664                0.07469296
               6.00099648                5.00439884               27.06260985                0.01182563                0.01369711                0.03077416                0.22738900                0.10724871                0.17063032                0.22561570
               7.00140480                5.00527225               27.06527129                0.01000000                0.04972901                0.15594094                0.23690318                0.29298839                0.33020779                0.38360502
               8.00199106                5.00785464               27.06955152                0.07365806               -0.00857097                0.08265980                0.25227645                0.21447369                0.20739624                0.30086992
               9.00123338                5.00822180               27.06978456                0.15612816               -0.07641785               -0.07511439                0.25377923                0.00847000                0.00263287                0.00541400
              10.00046270                5.00852977               27.06997447                0.60637636               -0.07706795               -0.06922502                0.25522943                0.00759503                0.00031405                0.00550758
              -0.00121530                5.99689651               27.05677248                0.66395160               -0.06395563               -0.06403018                0.21357695               -0.00010643                0.00006559               -0.00122097
               0.99814515                5.99713650               27.05689447                0.10852268               -0.06336076               -0.06400365                0.21291687                0.00049587                0.00172408                0.00170230
               1.99751749                5.99738351               27.05704964                0.01140274                0.11539642               -0.08811943                0.21239356                0.13171761                0.14116594               -0.00962445
               3.00045308                6.00091363               27.05996081                0.01813456                0.15333375               -0.08904076                0.21987669                0.19510158                0.18254873                0.01897718
               4.00058416                6.00292668               27.06099826                0.01000001                0.00943175               -0.04634115                0.22263394                0.05411005                0.11277628                0.02502490
               5.00064171                6.00412049               27.06252798                0.01182709                0.04730252               -0.00215643                0.22725031                0.10332032                0.20699330                0.17254396
               6.00153021                6.00504984               27.06546903                0.01000000                0.08947486                0.06345374                0.23774237                0.22459324                0.31601765                0.31721492
               7.00243121                6.00675663               27.06920923                0.07373814                0.00755067                0.03698851                0.25178222                0.13837655                0.18087130                0.19949261
               8.00168123                6.00711188               27.06946805                0.15630829               -0.07557521               -0.07527782                0.25324309                0.00278746                0.00453602               -0.00136180
               9.00091970                6.00745324               27.06968694                0.26641354               -0.07646653               -0.07677358                0.25467664                0.00141008                0.00147492               -0.00057600
              10.00015190                6.00778757               27.06988834                0.67039165               -0.07678070               -0.07527349                0.25612898                0.00112005                0.00048482                0.00155189
              -0.00145668                6.99625701               27.05675771                0.75149756               -0.06370220               -0.06383206                0.21268683               -0.00010362                0.00010380               -0.00127396
               0.99790630                6.99649851               27.05689433                0.22403180               -0.06351716               -0.06363622                0.21205710                0.00017841                0.00122735                0.00157814
               1.99727298                6.99674056               27.05705349                0.01618282                0.02800052               -0.06386572                0.21150582                0.13275025                0.11723217                0.00343815
               2.99846631                6.99963851               27.05951012                0.01000001                0.09752678               -0.11575944                0.21820140                0.19725014                0.20777519               -0.01251472
               3.99922351                7.00257070               27.06151178                0.01180010                0.13038992               -0.01186524                0.22416642                0.22854070                0.25374815                0.11076895
               5.00107411                7.00429513               27.06491628                0.01000000                0.18143462                0.02224327                0.23632382                0.28668015                0.34797688                0.30202103
               6.00285221                7.00566791               27.06884332                0.07374199                0.05180891               -0.00656631                0.25126042                0.13642727                0.18999756                0.17053124
               7.00211029                7.00601202               27.06911614                0.15637269               -0.07510067               -0.07520508                0.25272576                0.00158865                0.00538560               -0.00300005
               8.00135019                7.00634908               27.06935668                0.26659273               -0.07621940               -0.07636653                0.25415462                0.00056129                0.00290216               -0.00280211
               9.00058590                7.00668633               27.06958396                0.41869708               -0.07668726               -0.07677265                0.25559904                0.00030728                0.00134098               -0.00094331
               9.99981645                7.00702430               27.06979599                0.76006248               -0.07694505               -0.07670299                0.25705493                0.00013516                0.00051589                0.00119169
              -0.00170036                7.99561987               27.05674170                0.86288029               -0.06344678               -0.06357781                0.21179932               -0.00010563                0.00015980               -0.00141613
               0.99766517                7.99586377               27.05689274                0.37878244               -0.06335749               -0.06334260                0.21120259                0.00007303                0.00087350                0.00139097
               1.99703249                7.99610619               27.05705820                0.01000000                0.04513807               -0.06324872                0.21065719                0.11264793                0.12330825                0.00323646
               2.99856793                7.99859844               27.05965777                0.01256799                0.17329373               -0.17653498                0.21868295                0.23219081                0.28846310               -0.10030141
               4.00049836                8.00268937               27.06316524                0.01000000                0.23550860                0.03939573                0.23054920                0.52175122                0.42262424                0.33234397
               5.00327810                8.00456535               27.06848989                0.07366845                0.10217500               -0.02418392                0.25072382                0.20670078                0.25898456                0.18044885
               6.00254186                8.00491851               27.06876545                0.15632352               -0.07481443               -0.07536538                0.25220813                0.00263185                0.00465711               -0.00248311
               7.00178182                8.00525252               27.06900966                0.26660980               -0.07618568               -0.07607745                0.25363860                0.00053502                0.00259520               -0.00318864
               8.00101815                8.00558455               27.06924834                0.41882449               -0.07655920               -0.07656340                0.25509009                0.00019162                0.00189622               -0.00242886
               9.00025063                8.00591779               27.06948155                0.63857151               -0.07697437               -0.07698498                0.25655595                0.00006953                0.00100252               -0.00096603
               9.99947866                8.00625351               27.06970393                0.89199543               -0.07719693               -0.07730045                0.25801870               -0.00007086                0.00045465                0.00124005
              -0.00194660                8.99498546               27.05672378                1.00000000               -0.06319623               -0.06330550                0.21093238               -0.00011842                0.00021314               -0.00125606
               0.99742143                8.99523166               27.05688905                0.58983948               -0.06310635               -0.06309430                0.21036880                0.00002455                0.00038272                0.00098471
               1.99679127                8.99547558               27.05705792                0.05626843               -0.04472451               -0.06293887                0.20982329                0.01957305                0.01147635                0.00198205
               2.99652694                8.99610781               27.05744497                0.01365998                0.34501776               -0.16490528                0.21078491                0.26104452                0.53652201               -0.11074672
               4.00369163                9.00335862               27.06810994                0.07456956                0.32260210               -0.00694627                0.25004100                0.52331112                0.52783049                0.24978599
               5.00297899                9.00381145               27.06844470                0.15616719               -0.07369768               -0.07589537                0.25172063                0.00743385                0.00625679               -0.00065731
               6.00221767                9.00416061               27.06868504                0.26646414               -0.07620214               -0.07601763                0.25313477                0.00128373                0.00088705               -0.00172316
               7.00145494                9.00449048               27.06891703                0.41876877               -0.07644558               -0.07638258                0.25457328                0.00028626                0.00022215               -0.00165592
               8.00068876                9.00481781               27.06914728                0.63864748               -0.07683060               -0.07682002                0.25604382                0.00006627                0.00014567               -0.00137875
               8.99991833                9.00514663               27.06937954                0.97613202               -0.07725864               -0.07725489                0.25753467                0.00001341                0.00026969               -0.00074417
               9.99914359                9.00547829               27.06961262                0.99002122               -0.07747443               -0.07769070                0.25900526               -0.00013356                0.00036305                0.00100593
              -0.00219513                9.99435376               27.05671106                0.99578511               -0.06293339               -0.06316963                0.21009084               -0.00003990               -0.00084662               -0.00101356
               0.99717553                9.99460189               27.05687948                0.86597883               -0.06285383               -0.06297674                0.20953475                0.00009286               -0.00138586                0.00068478
               1.99654779                9.99484742               27.05703740                0.55976342               -0.06348740               -0.06281660                0.20896209                0.01057450                0.00582033                0.00097696
               2.99590579                9.99530034               27.05734994                0.52591273                0.33565791               -0.08074785                0.20967390                0.32303586                0.53634639               -0.00498095
               4.00326095               10.00255045               27.06811729                0.55991984                0.33595034               -0.08081688                0.25111337                0.34428799                0.52875287                0.00263985
               5.00262479               10.00304745               27.06840184                0.60640893               -0.06862190               -0.07640036                0.25267565                0.00696616                0.00144063               -0.00075936
               6.00188851               10.00339816               27.06862676                0.67043251               -0.07472291               -0.07624470                0.25408692                0.00095538               -0.00207476               -0.00077569
               7.00113034               10.00372487               27.06884429                0.76012263               -0.07625951               -0.07656025                0.25552528                0.00003888               -0.00255572               -0.00075526
               8.00036332               10.00404815               27.06906164                0.89207115               -0.07699564               -0.07696579                0.25699930               -0.00015290               -0.00245712               -0.00063235
               8.99959042               10.00437269               27.06928181                0.99002173               -0.07753250               -0.07739372                0.25849497               -0.00021376               -0.00163991               -0.00048448
               9.99881267               10.00469970               27.06951468                0.99988085               -0.07777506               -0.07785918                0.25996712               -0.00039105               -0.00088928                0.00079611
               0.00035096                0.00075990               28.05903961                0.78627082               -0.06533147               -0.06531348                0.21857882               -0.00021106                0.00089750               -0.00089392
               0.99969764                0.00107267               28.05906869                0.52542555               -0.06478265               -0.06535441                0.21784776                0.00031779                0.00121859                0.00068272
               1.99905530                0.00139620               28.05910388                0.48215515               -0.06411291               -0.06495414                0.21713728                0.00004432                0.00125970                0.00001078
               2.99841538                0.00174044               28.05913374                0.50425345               -0.06404924               -0.06476561                0.21642714               -0.00011542                0.00103416               -0.00003857
               3.99777432                0.00210101               28.05916402                0.54297956               -0.06414656               -0.06455022                0.21570814               -0.00013649                0.00114996               -0.00006751
               4.99713245                0.00247144               28.05919543                0.59550199               -0.06418024               -0.06433775                0.21497321               -0.00012678                0.00131571               -0.00008512
               5.99649071                0.00284626               28.05922812                0.66388202               -0.06412421               -0.06412175                0.21422332               -0.00011630                0.00148412               -0.00010472
               6.99584997                0.00322170               28.05926207                0.75139294               -0.06399325               -0.06390302                0.21346668               -0.00010892                0.00164779               -0.00015000
               7.99521085                0.00359553               28.05929741                0.86272108               -0.06381279               -0.06368262                0.21271615               -0.00010370                0.00182730               -0.00022471
               8.99457371                0.00396675               28.05933463                1.00000000               -0.06360805               -0.06346637                0.21198634               -0.00010662                0.00158681               -0.00032995
               9.99393869                0.00433502               28.05936514                0.99573347               -0.06350245               -0.06324019                0.21126716                0.00002867                0.00124262                0.00094395
               0.00003607                1.00010677               28.05902190                0.52543049               -0.06534066               -0.06475372                0.21774399                0.00030602               -0.00067517               -0.00122374
               0.99938267                1.00041913               28.05905098                0.01339165               -0.06571058               -0.06569935                0.21701122                0.00127434               -0.00146479                0.00148851
               1.99872186                1.00074666               28.05906396                0.01000000               -0.06604207               -0.04038983                0.21628625                0.02712150               -0.00217720                0.01254280
               2.99806183                1.00109278               28.05907809                0.01000001               -0.06572068               -0.00253973                0.21556766                0.05689933               -0.00206239                0.03222549
               3.99740745                1.00145550               28.05909278                0.01000000               -0.06516359                0.01702654                0.21484168                0.05243513               -0.00197075                0.04244997
               4.99675855                1.00182807               28.05910840                0.02151190               -0.06465138               -0.03103575                0.21410226                0.02398406               -0.00187348                0.01530112
               5.99611442                1.00220505               28.05912486                0.10844402               -0.06421541               -0.06353379                0.21335044                0.00026572               -0.00180011               -0.00170741
               6.99547425                1.00258267               28.05914192                0.22389870               -0.06385686               -0.06368372                0.21259391                0.00006114               -0.00173336               -0.00155307
               7.99483728                1.00295870               28.05915978                0.37854771               -0.06356734               -0.06354623                0.21184494                0.00002845               -0.00162716               -0.00127596
               8.99420290                1.00333209               28.05917906                0.58940361               -0.06332880               -0.06332821                0.21111644                0.00001702               -0.00120571               -0.00073342
               9.99357071                1.00370261               28.05920542                0.86568578               -0.06321910               -0.06311517                0.21039699                0.00014269               -0.00085490                0.00141533
              -0.00026765                1.99946483               28.05899730                0.48216668               -0.06491211               -0.06407393                0.21692171                0.00003731               -0.00000582               -0.00141352
               0.99908323                1.99975869               28.05904908                0.01000000               -0.04041375               -0.06597350                0.21619702                0.02715413                0.00868449                0.00215774
               1.99892408                2.00058841               28.05927453                0.01000001               -0.01193532               -0.01180253                0.21569695                0.13059966                0.02547034                0.03319936
               2.99884453                2.00168964               28.05966761                0.01000000               -0.04181720                0.04020844                0.21577111                0.17045968                0.02380598                0.06511103
               3.99808774                2.00244154               28.05987178                0.01000000               -0.09909682                0.09456231                0.21567284                0.13084371               -0.02300270                0.10580300
               4.99686259                2.00185073               28.05932900                0.01000001               -0.11731555                0.08220747                0.21422750                0.07879863               -0.04973663                0.12208288
               5.99574142                2.00157559               28.05898948                0.01140217               -0.08825271                0.11075644                0.21253069                0.13568328               -0.02195601                0.16608433
               6.99509754                2.00194803               28.05899369                0.01618229               -0.06397130                0.02389978                0.21173998                0.13683290               -0.00459672                0.14281541
               7.99446200                2.00232460               28.05900116                0.01000000               -0.06336996                0.04106150                0.21098452                0.11704530               -0.00408718                0.15374985
               8.99383014                2.00270019               28.05901552                0.05609195               -0.06307552               -0.04503710                0.21025024                0.02045281               -0.00246830                0.01193765
               9.99320049                2.00307271               28.05905529                0.55963360               -0.06296490               -0.06477223                0.20952765                0.01203215               -0.00119371                0.01205723
              -0.00055089                2.99882529               28.05897575                0.50427290               -0.06469342               -0.06400639                0.21610284               -0.00011433                0.00003084               -0.00126590
               0.99880217                2.99909966               28.05904412                0.01000001               -0.00231039               -0.06559618                0.21538682                0.05694749                0.02708451                0.00197725
               1.99940290                3.00051061               28.05965346                0.01000000                0.04078588               -0.04166813                0.21568138                0.17055333                0.05445916                0.03229579
               2.99961789                3.00189695               28.06028998                0.01000000                0.02301695                0.02186535                0.21645491                0.22266012                0.06339312                0.07470246
               3.99986324                3.00334675               28.06109376                0.01197308               -0.02087065                0.04258446                0.21804046                0.19642422                0.04530544                0.10598124
               4.99920048                3.00347222               28.06138864                0.01000000               -0.05662232                0.13912711                0.21845259                0.24740957                0.04761472                0.20741917
               5.99873079                3.00442017               28.06224235                0.01812812               -0.08692928                0.14615622                0.22062172                0.20154805                0.00825897                0.22291583
               6.99746189                3.00306066               28.06176086                0.01000001               -0.11523814                0.08887221                0.21891522                0.20731271               -0.02375851                0.25740674
               7.99642603                3.00377993               28.06196393                0.01255813               -0.17990234                0.16147337                0.21961305                0.25484493               -0.14185331                0.35851657
               8.99386384                3.00243135               28.05911330                0.01356731               -0.16798638                0.31746210                0.21100436                0.30202258               -0.14954834                0.67967195
               9.99306630                3.00240717               28.05910842                0.52582118               -0.07975434                0.31011384                0.21004777                0.35914098               -0.00739521                0.69100082
              -0.00081867                3.99818470               28.05895365                0.54301055               -0.06444680               -0.06408636                0.21527438               -0.00013270                0.00004414               -0.00127361
               0.99853686                3.99844676               28.05903816                0.01000000                0.01782627               -0.06500004                0.21456900                0.05242340                0.03681857                0.00188803
               1.99953785                3.99975504               28.05985810                0.01000000                0.09623647               -0.09882606                0.21550180                0.12925696                0.09260021               -0.00724543
               3.00046159                4.00212695               28.06108591                0.01197405                0.04515499               -0.02254267                0.21795756                0.19502768                0.09101264                0.05623160
               4.00044095                4.00329323               28.06190366                0.01000000                0.01378835                0.00902943                0.21974844                0.19229488                0.10131912                0.11414227
               5.00073736                4.00463327               28.06335271                0.01804305               -0.01285090                0.04541835                0.22364762                0.14924567                0.05681785                0.12461963
               6.00018394                4.00449871               28.06330615                0.01000001               -0.04266607                0.00187781                0.22344750                0.05988564                0.01558990                0.13876679
               6.99988404                4.00372547               28.06393683                0.01177818                0.00021399                0.11439408                0.22516913                0.24133378                0.11736161                0.30319220
               8.00018822                4.00555407               28.06594216                0.01000000                0.06796564                0.20781620                0.23213146                0.53495342                0.40260283                0.51526417
               9.00124335                4.00904943               28.07230122                0.07446173                0.01217222                0.29410007                0.25337609                0.54490333                0.31080932                0.66962531
              10.00043166                4.00927499               28.07253455                0.55981843               -0.08116883                0.31118957                0.25471365                0.38267536                0.00429888                0.68092709
              -0.00107767                4.99754356               28.05893112                0.59554906               -0.06420331               -0.06408854                0.21442940               -0.00012256                0.00005239               -0.00126545
               0.99828030                4.99779966               28.05903127                0.02155494               -0.03072399               -0.06446283                0.21373808                0.02403963                0.01581909                0.00179557
               1.99830785                4.99853409               28.05944673                0.01000001                0.08499823               -0.11685569                0.21404618                0.07539338                0.10572345               -0.03075858
               2.99998026                5.00144610               28.06135639                0.01000000                0.14474821               -0.05945104                0.21827254                0.24179818                0.17997146                0.05666441
               4.00120281                5.00352734               28.06329920                0.01804427                0.04998215               -0.01691992                0.22353357                0.14606009                0.10697975                0.06921499
               5.00097991                5.00438058               28.06378863                0.01000001               -0.01832540               -0.02375049                0.22490698                0.03339984                0.06419723                0.07679727
               6.00083631                5.00445773               28.06488781                0.01180214                0.01266530                0.03033335                0.22817392                0.10661434                0.17664829                0.23329899
               7.00123321                5.00534855               28.06764567                0.01000000                0.04824155                0.15494253                0.23782841                0.29138106                0.34203067                0.39731251
               8.00180114                5.00793625               28.07207872                0.07361771               -0.00961102                0.08184093                0.25316354                0.21285185                0.21440401                0.31087688
               9.00104099                5.00831335               28.07232572                0.15610005               -0.07662246               -0.07532114                0.25444950                0.00841998                0.00266580                0.00552222
              10.00026869                5.00863096               28.07252893                0.60636618               -0.07723022               -0.06937114                0.25566192                0.00758252                0.00031449                0.00555955
              -0.00133331                5.99690293               28.05890820                0.66395221               -0.06395604               -0.06398990                0.21356844               -0.00011343                0.00006796               -0.00127261
               0.99802713                5.99715751               28.05902352                0.10851102               -0.06337015               -0.06401235                0.21289483                0.00042786                0.00178494                0.00169781
               1.99739928                5.99741793               28.05917318                0.01140613                0.11385898               -0.08795075                0.21231998                0.13065698                0.14543836               -0.01005234
               3.00030431                6.00093793               28.06216196                0.01813125                0.15141934               -0.08893867                0.22033489                0.19365493                0.18787855                0.01948447
               4.00042767                6.00295483               28.06322775                0.01000001                0.00853282               -0.04662757                0.22322732                0.05379159                0.11642585                0.02570613
               5.00047496                6.00415826               28.06480450                0.01180368                0.04602947               -0.00236266                0.22802576                0.10290715                0.21452770                0.17854178
               6.00134826                6.00510538               28.06785415                0.01000000                0.08790865                0.06312453                0.23890572                0.22373474                0.32789912                0.32909421
               7.00223314                6.00682432               28.07173179                0.07369157                0.00660966                0.03642293                0.25271780                0.13762251                0.18708080                0.20646530
               8.00148045                6.00719089               28.07200417                0.15626588               -0.07580471               -0.07550657                0.25397437                0.00277810                0.00453574               -0.00136902
               9.00071704                6.00754301               28.07223625                0.26639736               -0.07661845               -0.07692618                0.25518143                0.00140290                0.00146646               -0.00061188
               9.99994808                6.00788757               28.07245098                0.67039160               -0.07689573               -0.07536447                0.25639797                0.00113607                0.00048442                0.00152441
              -0.00158909                6.99626376               28.05888464                0.75149710               -0.06370568               -0.06380826                0.21269942               -0.00010902                0.00010703               -0.00133364
               0.99777385                6.99651941               28.05901484                0.22400354               -0.06351724               -0.06364651                0.21204667                0.00014285                0.00126363                0.00157108
               1.99714057                6.99677508               28.05916824                0.01618801                0.02713045               -0.06385907                0.21144921                0.13173453                0.12103891                0.00344873
               2.99831646                6.99966732               28.06169389                0.01000001                0.09588742               -0.11536489                0.21853951                0.19581192                0.21460282               -0.01266345
               3.99905831                7.00259479               28.06375657                0.01178245                0.12855168               -0.01206692                0.22477571                0.22735773                0.26310968                0.11478188
               5.00088750                7.00433333               28.06728523                0.01000000                0.17933143                0.02212953                0.23728666                0.28554947                0.36134506                0.31352354
               6.00264494                7.00572022               28.07136086                0.07369485                0.05063282               -0.00686761                0.25223796                0.13583183                0.19676071                0.17672080
               7.00190015                7.00607701               28.07164730                0.15632648               -0.07534649               -0.07544567                0.25350072                0.00158851                0.00538068               -0.00302237
               8.00113801                7.00642612               28.07190103                0.26657033               -0.07638921               -0.07653485                0.25470947                0.00056161                0.00288501               -0.00283089
               9.00037237                7.00677482               28.07214160                0.41872612               -0.07678618               -0.07687143                0.25592600                0.00030392                0.00133585               -0.00095314
               9.99960229                7.00712367               28.07236701                0.76009034               -0.07700796               -0.07673562                0.25714740                0.00015726                0.00051578                0.00119193
              -0.00184679                7.99562677               28.05885988                0.86287654               -0.06345403               -0.06357300                0.21183495               -0.00010868                0.00016434               -0.00146669
               0.99751867                7.99588458               28.05900477                0.37871669               -0.06335755               -0.06335153                0.21120523                0.00005883                0.00089997                0.00139534
               1.99688606                7.99614075               28.05916453                0.01000000                0.04410799               -0.06324356                0.21061209                0.11182068                0.12775276                0.00327079
               2.99840083                7.99863063               28.06184635                0.01256529                0.17113784               -0.17542271                0.21903192                0.23126543                0.29900728               -0.10356616
               4.00030882                8.00271349               28.06547529                0.01000000                0.23298425                0.03904444                0.23127699                0.51873112                0.43872242                0.34522475
               5.00306052                8.00460085               28.07100222                0.07362763                0.10062011               -0.02446049                0.25173562                0.20568499                0.26843961                0.18721282
               6.00232122                8.00496803               28.07129162                0.15627977               -0.07507559               -0.07561405                0.25302064                0.00263297                0.00465988               -0.00249520
               7.00155901                8.00531541               28.07154906                0.26658554               -0.07636772               -0.07625879                0.25423431                0.00053709                0.00257841               -0.00321691
               8.00079387                8.00566019               28.07180112                0.41884898               -0.07667177               -0.07667574                0.25546010                0.00019082                0.00189610               -0.00243759
               9.00002557                8.00600558               28.07204781                0.63867868               -0.07701668               -0.07702628                0.25669364                0.00006738                0.00100752               -0.00095102
               9.99925353                8.00635285               28.07228363                0.89206310               -0.07720369               -0.07727241                0.25792178               -0.00004579                0.00045752                0.00126594
              -0.00210688                8.99499230               28.05883339                1.00000000               -0.06320699               -0.06331664                0.21098887               -0.00011849                0.00021879               -0.00128643
               0.99726105                8.99525238               28.05899280                0.58968335               -0.06310963               -0.06310136                0.21038234                0.00002202                0.00039637                0.00099805
               1.99663092                8.99551020               28.05915597                0.05619062               -0.04460075               -0.06293228                0.20978882                0.01969441                0.01226197                0.00201004
               2.99636903                8.99615887               28.05955262                0.01373250                0.34158963               -0.16402825                0.21075674                0.25983477                0.55748729               -0.11443635
               4.00346272                9.00337568               28.07061534                0.07460763                0.31888141               -0.00744086                0.25102895                0.51957641                0.54716246                0.25918440
               5.00274666                9.00384412               28.07096609                0.15613731               -0.07398341               -0.07614612                0.25255360                0.00744313                0.00635857               -0.00063317
               6.00198305                9.00420794               28.07121955                0.26644385               -0.07639638               -0.07620592                0.25376181                0.00128515                0.00085728               -0.00173648
               7.00121873                9.00455183               28.07146482                0.41879144               -0.07656949               -0.07650564                0.25498087                0.00028432                0.00021742               -0.00166586
               8.00045166                9.00489261               28.07170862                0.63874699               -0.07688396               -0.07687459                0.25622202                0.00006446                0.00016456               -0.00137786
               8.99968105                9.00523430               28.07195459                0.97633028               -0.07724185               -0.07723842                0.25747579                0.00001208                0.00028739               -0.00072870
               9.99890682                9.00557822               28.07220118                0.99023400               -0.07742315               -0.07760102                0.25871092               -0.00010511                0.00036964                0.00102817
              -0.00236931                9.99436043               28.05881233                0.99573665               -0.06294774               -0.06318722                0.21016122               -0.00003097               -0.00086069               -0.00103238
               0.99700121                9.99462255               28.05897495                0.86586477               -0.06286145               -0.06298324                0.20955987                0.00010025               -0.00140666                0.00069752
               1.99637346                9.99488210               28.05912693                0.55971395               -0.06345788               -0.06281004                0.20894683                0.01062971                0.00644313                0.00099158
               2.99573206                9.99535007               28.05944657                0.52598589                0.33208173               -0.08088026                0.20966402                0.32043087                0.55820216               -0.00519512
               4.00301510               10.00256467               28.07063244                0.55996345                0.33225298               -0.08110036                0.25190828                0.34163115                0.54904744                0.00275061
               5.00237712               10.00307793               28.07093178                0.60639775               -0.06879407               -0.07661902                0.25331011                0.00700735                0.00148176               -0.00075944
               6.00163922               10.00344391               28.07116980                0.67042891               -0.07485448               -0.07640325                0.25451788                0.00098485               -0.00210393               -0.00077707
               7.00088003               10.00378529               28.07140062                0.76014471               -0.07632637               -0.07665356                0.25573807                0.00006887               -0.00255740               -0.00075680
               8.00011269               10.00412270               28.07163155                0.89213152               -0.07699150               -0.07699087                0.25698297               -0.00012131               -0.00243374               -0.00063091
               8.99934020               10.00446081               28.07186547                0.99023427               -0.07745534               -0.07734884                0.25824105               -0.00017895               -0.00161996               -0.00047909
               9.99856358               10.00480083               28.07211187                0.99999550               -0.07766151               -0.07773895                0.25947761               -0.00032166               -0.00088351                0.00080352
               0.00033454                0.00077283               29.06122507                0.78632195               -0.06531499               -0.06529748                0.21850990               -0.00020818                0.00090391               -0.00089634
               0.99968139                0.00110140               29.06124690                0.52549873               -0.06477282               -0.06533711                0.21779111                0.00030875                0.00123590                0.00068629
               1.99903908                0.00144048               29.06127502                0.48219215               -0.06410154               -0.06494580                0.21708681                0.00004139                0.00128662                0.00000898
               2.99839936                0.00179999               29.06129778                0.50427814               -0.06402161               -0.06475882                0.21637890               -0.00011925                0.00105512               -0.00003975
               3.99775865                0.00217590               29.06132087                0.54299735               -0.06410753               -0.06454420                0.21566292               -0.00014136                0.00115672               -0.00006810
               4.99711721                0.00256198               29.06134498                0.59551248               -0.06413947               -0.06433281                0.21493621               -0.00013194                0.00130504               -0.00008518
               5.99647586                0.00295285               29.06137023                0.66388747               -0.06409011               -0.06411858                0.21419970               -0.00012110                0.00146046               -0.00010443
               6.99583541                0.00334472               29.06139670                0.75139318               -0.06397123               -0.06390231                0.21345982               -0.00011266                0.00162177               -0.00014959
               7.99519644                0.00373528               29.06142463                0.86271040               -0.06380482               -0.06368499                0.21272744               -0.00010580                0.00181265               -0.00022411
               8.99455931                0.00412338               29.06145463                1.00000000               -0.06361195               -0.06347158                0.21201390               -0.00010661                0.00158537               -0.00032983
               9.99392420                0.00450852               29.06147800                0.99567259               -0.06351117               -0.06324826                0.21130566                0.00003371                0.00124522                0.00094541
               0.00000389                1.00011986               29.06119909                0.52550391               -0.06532341               -0.06474423                0.21768966                0.00029700               -0.00067804               -0.00121905
               0.99935065                1.00044803               29.06122091                0.01337242               -0.06568418               -0.06567437                0.21696946                0.00124321               -0.00146308                0.00150368
               1.99869020                1.00079102               29.06122666                0.01000000               -0.06600983               -0.04054555                0.21625134                0.02690429               -0.00217121                0.01269890
               2.99803046                1.00115240               29.06123361                0.01000001               -0.06569810               -0.00309883                0.21553312                0.05633720               -0.00205962                0.03280346
               3.99737624                1.00153046               29.06124102                0.01000000               -0.06515202                0.01630386                0.21480680                0.05186659               -0.00197960                0.04334920
               4.99672742                1.00191866               29.06124926                0.02151906               -0.06464794               -0.03135401                0.21407080                0.02367013               -0.00189595                0.01579180
               5.99608328                1.00231166               29.06125824                0.10844089               -0.06421757               -0.06354036                0.21332644                0.00021565               -0.00183191               -0.00168703
               6.99544307                1.00270570               29.06126778                0.22387740               -0.06386173               -0.06368234                0.21257992                0.00003517               -0.00176473               -0.00154771
               7.99480605                1.00309843               29.06127821                0.37848565               -0.06357221               -0.06354488                0.21184194                0.00001783               -0.00164611               -0.00127249
               8.99417162                1.00348867               29.06129025                0.58924657               -0.06333280               -0.06332939                0.21112227                0.00001491               -0.00121118               -0.00073243
               9.99353939                1.00387604               29.06130946                0.86557006               -0.06322283               -0.06311965                0.21041200                0.00014654               -0.00085635                0.00141791
              -0.00031587                1.99947795               29.06116631                0.48220369               -0.06490422               -0.06406144                0.21687660                0.00003396               -0.00000764               -0.00140165
               0.99903509                1.99978792               29.06121090                0.01000000               -0.04056659               -0.06594626                0.21616313                0.02693616                0.00882274                0.00218308
               1.99887280                2.00062957               29.06143191                0.01000001               -0.01242109               -0.01229408                0.21577028                0.12934635                0.02595838                0.03372373
               2.99878667                2.00173802               29.06182614                0.01000000               -0.04215340                0.03924666                0.21592334                0.16876866                0.02435952                0.06628286
               3.99802973                2.00250198               29.06202938                0.01000000               -0.09886290                0.09308648                0.21583878                0.12943055               -0.02328493                0.10810169
               4.99680941                2.00193490               29.06147098                0.01000001               -0.11682986                0.08087748                0.21416761                0.07779933               -0.05075759                0.12507075
               5.99569313                2.00168204               29.06111452                0.01140541               -0.08800326                0.10903289                0.21248010                0.13405213               -0.02248132                0.17070961
               6.99504934                2.00207107               29.06111089                0.01618774               -0.06396546                0.02301390                0.21170199                0.13521078               -0.00465024                0.14693751
               7.99441383                2.00246438               29.06111086                0.01000000               -0.06336746                0.03995747                0.21095702                0.11564179               -0.00411446                0.15860221
               8.99378199                2.00285679               29.06111791                0.05603001               -0.06307241               -0.04495268                0.21023039                0.02049545               -0.00247945                0.01276557
               9.99315238                2.00324613               29.06115053                0.55959395               -0.06296180               -0.06470358                0.20952233                0.01200382               -0.00119843                0.01277036
              -0.00061537                2.99883863               29.06113659                0.50429705               -0.06468762               -0.06397568                0.21606277               -0.00011939                0.00003032               -0.00125901
               0.99873775                2.99912911               29.06119783                0.01000001               -0.00287990               -0.06558194                0.21535450                0.05638919                0.02763794                0.00199858
               1.99932703                3.00054514               29.06181109                0.01000000                0.03978336               -0.04201088                0.21583405                0.16887405                0.05557728                0.03289179
               2.99953342                3.00193734               29.06245604                0.01000000                0.02204658                0.02099243                0.21674134                0.22050063                0.06499494                0.07636399
               3.99976796                3.00339219               29.06327622                0.01197168               -0.02150401                0.04154922                0.21843651                0.19449889                0.04654429                0.10843475
               4.99910334                3.00353621               29.06357518                0.01000000               -0.05699040                0.13723564                0.21884589                0.24471416                0.04912899                0.21266125
               5.99862816                3.00449232               29.06445080                0.01812615               -0.08692002                0.14410947                0.22106474                0.19917765                0.00865981                0.22881592
               6.99736494                3.00316597               29.06395164                0.01000001               -0.11474963                0.08728833                0.21924130                0.20471882               -0.02399241                0.26486024
               7.99633316                3.00389758               29.06416184                0.01256066               -0.17825811                0.15924028                0.21997888                0.25193877               -0.14550314                0.36984397
               8.99379978                3.00258961               29.06122344                0.01365229               -0.16661851                0.31394096                0.21103063                0.29758169               -0.15369111                0.70232327
               9.99300079                3.00258197               29.06120907                0.52590161               -0.07989854                0.30619883                0.21008852                0.35337991               -0.00764270                0.71462745
              -0.00089921                3.99819844               29.06110623                0.54302656               -0.06444272               -0.06404372                0.21524060               -0.00013906                0.00004456               -0.00128180
               0.99845636                3.99847628               29.06118370                0.01000000                0.01706321               -0.06499839                0.21453799                0.05186589                0.03769029                0.00189852
               1.99944205                3.99978935               29.06201399                0.01000000                0.09466361               -0.09862218                0.21566742                0.12798301                0.09482690               -0.00744139
               3.00034963                4.00215786               29.06326748                0.01197265                0.04393945               -0.02303845                0.21834713                0.19322972                0.09337826                0.05753299
               4.00032084                4.00333296               29.06410367                0.01000000                0.01269647                0.00827757                0.22024452                0.19046582                0.10427457                0.11717653
               5.00060356                4.00467962               29.06559249                0.01803848               -0.01369614                0.04431020                0.22428674                0.14770568                0.05856121                0.12795915
               6.00004692                4.00456423               29.06554344                0.01000001               -0.04325494                0.00122524                0.22399306                0.05907348                0.01618255                0.14275914
               6.99973846                4.00381684               29.06619145                0.01176506               -0.00089774                0.11287845                0.22574199                0.23872619                0.12148539                0.31315306
               8.00002896                4.00564919               29.06826613                0.01000000                0.06553864                0.20562923                0.23263801                0.52923483                0.41619014                0.53218874
               9.00104924                4.00913561               29.07483886                0.07450958                0.01031477                0.29037996                0.25414619                0.53788159                0.32101729                0.69083008
              10.00023526                4.00937011               29.07508440                0.55986914               -0.08139775                0.30712758                0.25525518                0.37653904                0.00442588                0.70314748
              -0.00117384                4.99755776               29.06107529                0.59555811               -0.06420098               -0.06404487                0.21440664               -0.00012935                0.00005351               -0.00129209
               0.99818415                4.99782914               29.06116851                0.02156084               -0.03105283               -0.06446933                0.21371155                0.02372265                0.01631463                0.00179340
               1.99820511                4.99857270               29.06158690                0.01000001                0.08351256               -0.11642019                0.21399310                0.07465962                0.10862448               -0.03166902
               2.99985441                5.00147657               29.06354106                0.01000000                0.14252103               -0.05960224                0.21865746                0.23957438                0.18505046                0.05824132
               4.00105553                5.00355774               29.06553777                0.01803940                0.04858915               -0.01747669                0.22417162                0.14475680                0.11020300                0.07105073
               5.00082619                5.00442241               29.06604091                0.01000001               -0.01915627               -0.02424479                0.22552795                0.03306935                0.06629578                0.07897994
               6.00067240                5.00451683               29.06717332                0.01178418                0.01141603                0.02972226                0.22888198                0.10575637                0.18280568                0.24113471
               7.00105451                5.00542354               29.07002786                0.01000000                0.04633421                0.15337317                0.23858566                0.28888373                0.35388069                0.41106019
               8.00159909                5.00801016               29.07461479                0.07358478               -0.01090102                0.08065022                0.25404135                0.21060910                0.22158743                0.32116803
               9.00083649                5.00839721               29.07487355                0.15607893               -0.07682513               -0.07552433                0.25510751                0.00836729                0.00270578                0.00568023
              10.00006258                5.00872452               29.07508771                0.60635999               -0.07739045               -0.06950665                0.25608873                0.00757460                0.00031685                0.00566277
              -0.00144457                5.99691754               29.06104385                0.66395601               -0.06395613               -0.06395461                0.21356184               -0.00011971                0.00006964               -0.00131355
               0.99791587                5.99718689               29.06115236                0.10850647               -0.06338073               -0.06402332                0.21287671                0.00036152                0.00182770                0.00168694
               1.99728782                5.99746095               29.06129604                0.01140928                0.11201039               -0.08772581                0.21226032                0.12942610                0.14995294               -0.01050199
               3.00015608                6.00096582               29.06436750                0.01812942                0.14911592               -0.08878593                0.22076800                0.19190540                0.19356867                0.01996480
               4.00027014                6.00298343               29.06546280                0.01000001                0.00748936               -0.04694709                0.22377051                0.05338703                0.12027079                0.02637449
               5.00030587                6.00419472               29.06708849                0.01178540                0.04453879               -0.00272664                0.22873825                0.10228885                0.22223102                0.18467073
               6.00116091                6.00515868               29.07024714                0.01000000                0.08584677                0.06240127                0.23969873                0.22212656                0.33972428                0.34093346
               7.00202280                6.00688430               29.07426358                0.07365272                0.00532832                0.03553826                0.25363586                0.13633660                0.19348779                0.21362062
               8.00126748                6.00726219               29.07454753                0.15622972               -0.07602892               -0.07573238                0.25468889                0.00276641                0.00455568               -0.00135735
               9.00050222                6.00762513               29.07479057                0.26638302               -0.07676741               -0.07707498                0.25567528                0.00139657                0.00146319               -0.00063052
               9.99973213                6.00797998               29.07501630                0.67039264               -0.07700929               -0.07545167                0.25666294                0.00115284                0.00048618                0.00151737
              -0.00171494                6.99627866               29.06101170                0.75149464               -0.06370900               -0.06378764                0.21271265               -0.00011393                0.00010936               -0.00137854
               0.99764797                6.99654867               29.06113526                0.22398080               -0.06351805               -0.06365841                0.21203970                0.00010847                0.00128849                0.00156051
               1.99701470                6.99681818               29.06128247                0.01619327                0.02610300               -0.06385365                0.21140195                0.13051620                0.12503299                0.00344795
               2.99817003                6.99970085               29.06388091                0.01000001                0.09398323               -0.11487141                0.21886181                0.19409273                0.22178653               -0.01286766
               3.99889437                7.00261880               29.06600729                0.01176938                0.12633433               -0.01241662                0.22534302                0.22569156                0.27274079                0.11881615
               5.00069672                7.00436788               29.06966202                0.01000000                0.17654923                0.02170129                0.23806369                0.28353725                0.37475543                0.32509568
               6.00242535                7.00576485               29.07388807                0.07365546                0.04905033               -0.00743812                0.25319963                0.13468754                0.20374421                0.18310929
               7.00167773                7.00613431               29.07418615                0.15628732               -0.07558801               -0.07568201                0.25425889                0.00158783                0.00539570               -0.00302149
               8.00091359                7.00649552               29.07445087                0.26654991               -0.07655453               -0.07669879                0.25524997                0.00056235                0.00287580               -0.00284877
               9.00014664                7.00685571               29.07470248                0.41875143               -0.07688238               -0.07696714                0.25624327                0.00030110                0.00133452               -0.00095496
               9.99937594                7.00721549               29.07493894                0.76011542               -0.07706917               -0.07676603                0.25723652                0.00017969                0.00051752                0.00120145
              -0.00198687                7.99564179               29.06097840                0.86286204               -0.06346118               -0.06356948                0.21186962               -0.00011146                0.00016753               -0.00150215
               0.99737852                7.99591372               29.06111684                0.37865138               -0.06335834               -0.06336149                0.21121054                0.00004497                0.00091800                0.00139601
               1.99674597                7.99618388               29.06127044                0.01000000                0.04293976               -0.06324015                0.21057536                0.11083262                0.13239927                0.00329067
               2.99823732                7.99866839               29.06403841                0.01256781                0.16854869               -0.17409908                0.21938796                0.22992534                0.30985701               -0.10698761
               4.00011694                8.00273510               29.06779078                0.01000000                0.22966218                0.03831792                0.23181848                0.51436936                0.45499758                0.35820438
               5.00283056                8.00462875               29.07352460                0.07359404                0.09856450               -0.02493259                0.25273119                0.20400216                0.27825166                0.19419248
               6.00208823                8.00500991               29.07382586                0.15624218               -0.07533332               -0.07585771                0.25381683                0.00263269                0.00468307               -0.00248766
               7.00132389                8.00537066               29.07409435                0.26656363               -0.07654539               -0.07643558                0.25481533                0.00054006                0.00257135               -0.00323647
               8.00055732                8.00572822               29.07435755                0.41886947               -0.07678113               -0.07678493                0.25581936                0.00019092                0.00189991               -0.00244127
               8.99978827                8.00608578               29.07461542                0.63877553               -0.07705760               -0.07706610                0.25682651                0.00006585                0.00101316               -0.00093540
               9.99901617                8.00644465               29.07486237                0.89212832               -0.07721010               -0.07724422                0.25782636               -0.00002102                0.00046071                0.00129224
              -0.00226104                8.99500727               29.06094355                1.00000000               -0.06321769               -0.06332771                0.21104329               -0.00011851                0.00022256               -0.00130602
               0.99710678                8.99528144               29.06109669                0.58952295               -0.06311354               -0.06310915                0.21039795                0.00001933                0.00040532                0.00100710
               1.99647669                8.99555338               29.06125370                0.05613092               -0.04447311               -0.06292739                0.20976062                0.01982440                0.01307081                0.00202810
               2.99621732                8.99621887               29.06166010                0.01382604                0.33723555               -0.16299308                0.21075119                0.25793931                0.57899809               -0.11832764
               4.00322140                9.00338516               29.07313052                0.07466214                0.31423141               -0.00819129                0.25199825                0.51450511                0.56714342                0.26890055
               5.00250195                9.00386922               29.07349577                0.15611437               -0.07426546               -0.07639352                0.25337121                0.00745197                0.00651015               -0.00059919
               6.00173609                9.00424770               29.07376027                0.26642602               -0.07658606               -0.07639009                0.25437436                0.00128729                0.00084433               -0.00174449
               7.00097023                9.00460560               29.07401665                0.41880968               -0.07669002               -0.07662565                0.25537776                0.00028329                0.00022050               -0.00167228
               8.00020229                9.00495982               29.07427172                0.63883697               -0.07693565               -0.07692754                0.25639458                0.00006322                0.00018398               -0.00137600
               8.99943151                9.00531439               29.07452905                0.97653180               -0.07722534               -0.07722223                0.25741800                0.00001101                0.00030331               -0.00071484
               9.99865778                9.00567060               29.07478684                0.99044184               -0.07737311               -0.07751342                0.25842406               -0.00007735                0.00037546                0.00104843
              -0.00253758                9.99437523               29.06091429                0.99567621               -0.06296205               -0.06320429                0.21022938               -0.00002274               -0.00086984               -0.00104398
               0.99683280                9.99465154               29.06107067                0.86574632               -0.06286959               -0.06299039                0.20958695                0.00010688               -0.00142065                0.00070629
               1.99620503                9.99492533               29.06121633                0.55967648               -0.06342388               -0.06280507                0.20893697                0.01068369                0.00710181                0.00100084
               2.99556432                9.99540853               29.06154322                0.52607510                0.32758271               -0.08103386                0.20967788                0.31699760                0.58050378               -0.00541978
               4.00275668               10.00257127               29.07315546                0.56002070                0.32763682               -0.08138860                0.25268991                0.33814592                0.56988477                0.00287015
               5.00211706               10.00310088               29.07346805                0.60639016               -0.06895409               -0.07683486                0.25393558                0.00705325                0.00157230               -0.00075729
               6.00137760               10.00348211               29.07371712                0.67042624               -0.07498106               -0.07655848                0.25493994                0.00101501               -0.00211299               -0.00077634
               7.00061744               10.00383815               29.07395905                0.76016458               -0.07639047               -0.07674475                0.25594572                0.00009888               -0.00254938               -0.00075679
               7.99984979               10.00418966               29.07420130                0.89218960               -0.07698682               -0.07701521                0.25696658               -0.00009011               -0.00240925               -0.00062909
               8.99907770               10.00454134               29.07444663                0.99044192               -0.07737998               -0.07730506                0.25799376               -0.00014498               -0.00160169               -0.00047436
               9.99830219               10.00489439               29.07470423                1.00000000               -0.07755088               -0.07762180                0.25900112               -0.00025416               -0.00087856                0.00080991
               0.00032537                0.00079394               30.06340980                0.78637823               -0.06529610               -0.06527898                0.21843329               -0.00020528                0.00090915               -0.00089927
               0.99967241                0.00113838               30.06342451                0.52557858               -0.06476067               -0.06531761                0.21772682                0.00030024                0.00124948                0.00068905
               1.99903016                0.00149310               30.06344562                0.48223548               -0.06408907               -0.06493498                0.21703033                0.00003870                0.00130615                0.00000718
               2.99839063                0.00186799               30.06346132                0.50430842               -0.06399523               -0.06474965                0.21632691               -0.00012255                0.00106863               -0.00004134
               3.99775025                0.00225935               30.06347728                0.54301905               -0.06407174               -0.06453679                0.21561738               -0.00014552                0.00116043               -0.00006906
               4.99710919                0.00266118               30.06349416                0.59552846               -0.06410264               -0.06432708                0.21490055               -0.00013654                0.00129767               -0.00008573
               5.99646820                0.00306817               30.06351212                0.66389581               -0.06405942               -0.06411499                0.21417757               -0.00012540                0.00144497               -0.00010472
               6.99582800                0.00347654               30.06353127                0.75139068               -0.06395152               -0.06390158                0.21345406               -0.00011605                0.00160676               -0.00014992
               7.99518917                0.00388389               30.06355196                0.86268974               -0.06379792               -0.06368741                0.21273883               -0.00010772                0.00180928               -0.00022451
               8.99455205                0.00428893               30.06357491                1.00000000               -0.06361606               -0.06347690                0.21204091               -0.00010646                0.00159196               -0.00033116
               9.99391685                0.00469101               30.06359125                0.99560083               -0.06351984               -0.06325660                0.21134384                0.00003849                0.00125320                0.00095044
              -0.00002113                1.00014115               30.06337569                0.52558331               -0.06530401               -0.06473232                0.21762757                0.00028858               -0.00068101               -0.00121707
               0.99932583                1.00048521               30.06339037                0.01335104               -0.06565657               -0.06564801                0.21691978                0.00121362               -0.00146412                0.00151464
               1.99866574                1.00084375               30.06338898                0.01000000               -0.06597792               -0.04073218                0.21620985                0.02665662               -0.00217382                0.01289872
               2.99800627                1.00122049               30.06338875                0.01000001               -0.06567693               -0.00375631                0.21549450                0.05569298               -0.00206917                0.03346316
               3.99735220                1.00161398               30.06338891                0.01000000               -0.06514275                0.01545094                0.21477162                0.05121803               -0.00199932                0.04433944
               4.99670342                1.00201791               30.06338982                0.02153174               -0.06464707               -0.03174774                0.21404113                0.02330689               -0.00192540                0.01626438
               5.99605926                1.00242702               30.06339139                0.10844366               -0.06422187               -0.06354775                0.21330488                0.00016543               -0.00186759               -0.00167975
               6.99541898                1.00283753               30.06339352                0.22385944               -0.06386811               -0.06368153                0.21256849                0.00000920               -0.00179828               -0.00155089
               7.99478190                1.00324702               30.06339662                0.37842423               -0.06357798               -0.06354396                0.21184085                0.00000736               -0.00166757               -0.00127528
               8.99414742                1.00365416               30.06340150                0.58908358               -0.06333743               -0.06333102                0.21112982                0.00001297               -0.00121979               -0.00073514
               9.99351515                1.00405844               30.06341366                0.86544978               -0.06322717               -0.06312478                0.21042914                0.00015005               -0.00086080                0.00142531
              -0.00035697                1.99949929               30.06333483                0.48224583               -0.06489412               -0.06404792                0.21682551                0.00003097               -0.00000950               -0.00139561
               0.99899408                1.99982542               30.06337234                0.01000000               -0.04075100               -0.06591901                0.21612292                0.02668802                0.00900647                0.00219814
               1.99882801                2.00067845               30.06358994                0.01000001               -0.01299169               -0.01286895                0.21582853                0.12789650                0.02652839                0.03432630
               2.99873425                2.00179286               30.06398608                0.01000000               -0.04254030                0.03811989                0.21605926                0.16681506                0.02496370                0.06761439
               3.99797720                2.00256837               30.06418856                0.01000000               -0.09859767                0.09135840                0.21599073                0.12780706               -0.02366445                0.11062289
               4.99676230                2.00202622               30.06361235                0.01000001               -0.11626569                0.07930083                0.21412796                0.07669484               -0.05188282                0.12828542
               5.99565189                2.00179721               30.06323908                0.01140831               -0.08770538                0.10702799                0.21243491                0.13224781               -0.02301253                0.17556560
               6.99500819                2.00220291               30.06322773                0.01619328               -0.06396003                0.02198884                0.21166988                0.13339125               -0.00471159                0.15123451
               7.99437268                2.00261301               30.06322031                0.01000000               -0.06336549                0.03872633                0.21093241                0.11408349               -0.00415205                0.16365610
               8.99374088                2.00302231               30.06322013                0.05598324               -0.06307027               -0.04486494                0.21021439                0.02054376               -0.00249804                0.01362609
               9.99311128                2.00342851               30.06324574                0.55956450               -0.06295999               -0.06462987                0.20952150                0.01197250               -0.00120733                0.01352515
              -0.00067277                2.99886019               30.06329701                0.50432674               -0.06467981               -0.06394649                0.21601910               -0.00012387                0.00002937               -0.00125761
               0.99868043                2.99916683               30.06335121                0.01000001               -0.00354988               -0.06556860                0.21531866                0.05574979                0.02827508                0.00200654
               1.99925623                3.00058637               30.06397014                0.01000000                0.03861127               -0.04240242                0.21597065                0.16693352                0.05685993                0.03353264
               2.99945266                3.00198289               30.06462481                0.01000000                0.02093760                0.01998651                0.21700417                0.21800047                0.06673798                0.07816046
               3.99967498                3.00344115               30.06546249                0.01197112               -0.02220919                0.04034178                0.21880669                0.19226319                0.04787164                0.11108919
               4.99900847                3.00360392               30.06576556                0.01000000               -0.05737294                0.13502521                0.21921563                0.24164734                0.05070112                0.21828330
               5.99852753                3.00456758               30.06666365                0.01812526               -0.08687332                0.14170804                0.22150065                0.19650631                0.00906151                0.23505493
               6.99727101                3.00327730               30.06614569                0.01000001               -0.11416758                0.08547018                0.21956051                0.20184147               -0.02423624                0.27264332
               7.99624417                3.00402154               30.06636351                0.01256769               -0.17641058                0.15659392                0.22035450                0.24857398               -0.14928356                0.38146605
               8.99374280                3.00275686               30.06333391                0.01375558               -0.16509935                0.30968037                0.21107620                0.29244206               -0.15801922                0.72538714
               9.99294219                3.00276585               30.06331019                0.52599723               -0.08006086                0.30153924                0.21014767                0.34678942               -0.00789941                0.73854937
              -0.00097273                3.99822036               30.06325846                0.54304852               -0.06443725               -0.06400453                0.21520598               -0.00014468                0.00004445               -0.00129119
               0.99838290                3.99851405               30.06332892                0.01000000                0.01616692               -0.06499830                0.21450668                0.05122955                0.03865383                0.00189681
               1.99935061                3.99983040               30.06417145                0.01000000                0.09282863               -0.09838540                0.21582059                0.12650500                0.09728193               -0.00773647
               3.00023948                4.00219259               30.06545285                0.01197192                0.04254085               -0.02359959                0.21871902                0.19112729                0.09595351                0.05891443
               4.00020143                4.00337521               30.06630855                0.01000000                0.01146713                0.00740353                0.22071310                0.18830869                0.10740008                0.12037657
               5.00046882                4.00472673               30.06783844                0.01803478               -0.01464006                0.04301295                0.22490290                0.14589803                0.06038636                0.13146689
               5.99990863                4.00463137               30.06778601                0.01000001               -0.04388827                0.00045702                0.22451667                0.05817691                0.01680574                0.14692232
               6.99959105                4.00391232               30.06845167                0.01175562               -0.00220101                0.11101584                0.22628347                0.23559336                0.12565182                0.32335976
               7.99986461                4.00574489               30.07059492                0.01000000                0.06271831                0.20283316                0.23311392                0.52233086                0.43000403                0.54945944
               9.00084542                4.00921592               30.07738414                0.07457318                0.00822435                0.28591923                0.25489652                0.52969021                0.33148051                0.71252377
              10.00002910                4.00945930               30.07763965                0.55993164               -0.08163228                0.30232367                0.25578439                0.36956489                0.00456032                0.72573863
              -0.00126304                4.99758010               30.06321925                0.59557353               -0.06419782               -0.06400533                0.21438453               -0.00013539                0.00005398               -0.00131417
               0.99809498                4.99786686               30.06330550                0.02157299               -0.03145838               -0.06447768                0.21368683                0.02335718                0.01679900                0.00178213
               1.99810779                4.99861866               30.06372659                0.01000001                0.08177101               -0.11590431                0.21395566                0.07383128                0.11175427               -0.03269351
               2.99973040                5.00151090               30.06572954                0.01000000                0.13996166               -0.05976070                0.21902912                0.23700030                0.19051968                0.05986265
               4.00090703                5.00358922               30.06778263                0.01803602                0.04699328               -0.01812041                0.22479034                0.14319745                0.11360917                0.07295949
               5.00067027                5.00446418               30.06829919                0.01000001               -0.02007759               -0.02480775                0.22612177                0.03269601                0.06848560                0.08125636
               6.00050547                5.00457672               30.06946545                0.01177042                0.00995453                0.02889623                0.22953450                0.10462349                0.18911298                0.24916948
               7.00086936                5.00549762               30.07241738                0.01000000                0.04408599                0.15130611                0.23929958                0.28564685                0.36594579                0.42505761
               8.00138719                5.00807821               30.07715955                0.07355784               -0.01235828                0.07913866                0.25489649                0.20787966                0.22895333                0.33175202
               9.00062219                5.00847524               30.07742787                0.15606319               -0.07702378               -0.07572213                0.25574752                0.00831162                0.00274979                0.00588251
               9.99984672                5.00881232               30.07765070                0.60635702               -0.07754749               -0.06963108                0.25650525                0.00756999                0.00032058                0.00581173
              -0.00154896                5.99694026               30.06317944                0.66396259               -0.06395588               -0.06392300                0.21355627               -0.00012532                0.00007060               -0.00134499
               0.99781149                5.99722450               30.06328105                0.10850851               -0.06339213               -0.06403600                0.21286142                0.00029636                0.00185708                0.00166993
               1.99718320                5.99751232               30.06341838                0.01141232                0.10987159               -0.08745132                0.21220785                0.12803327                0.15469901               -0.01097340
               3.00000892                6.00099738               30.06657732                0.01812835                0.14644467               -0.08859181                0.22119940                0.18987277                0.19960812                0.02043526
               4.00011210                6.00301280               30.06770316                0.01000001                0.00631621               -0.04730449                0.22429327                0.05290951                0.12430808                0.02704720
               5.00013524                6.00423057               30.06937927                0.01177176                0.04277814               -0.00325227                0.22939559                0.10140274                0.23014679                0.19095849
               6.00096766                6.00520930               30.07264812                0.01000000                0.08336290                0.06134865                0.24047417                0.21990437                0.35171705                0.35296552
               7.00180250                6.00693844               30.07680450                0.07362005                0.00384600                0.03440944                0.25453852                0.13471412                0.20007228                0.22096539
               8.00104458                6.00732766               30.07709795                0.15619880               -0.07624807               -0.07595371                0.25538339                0.00275235                0.00458736               -0.00132963
               9.00027754                6.00770147               30.07734976                0.26637190               -0.07691163               -0.07721865                0.25615304                0.00139031                0.00146424               -0.00063396
               9.99950635                6.00806668               30.07758424                0.67039361               -0.07711929               -0.07553423                0.25691885                0.00116995                0.00049009                0.00152786
              -0.00183403                6.99630164               30.06313889                0.75148924               -0.06371237               -0.06376953                0.21272660               -0.00011837                0.00011076               -0.00141074
               0.99752885                6.99658614               30.06325563                0.22396093               -0.06351964               -0.06367163                0.21203593                0.00007494                0.00130263                0.00154573
               1.99689558                6.99686963               30.06339628                0.01619890                0.02492654               -0.06384907                0.21136269                0.12910984                0.12920777                0.00343270
               2.99802738                6.99973906               30.06607113                0.01000001                0.09182228               -0.11428460                0.21917666                0.19211082                0.22930239               -0.01309528
               3.99873202                7.00264313               30.06826343                0.01175949                0.12372224               -0.01292224                0.22588497                0.22352798                0.28264889                0.12290941
               5.00050182                7.00439914               30.07204651                0.01000000                0.17318348                0.02101908                0.23882052                0.28078936                0.38844811                0.33690825
               6.00219569                7.00580369               30.07642485                0.07362310                0.04717263               -0.00816117                0.25414003                0.13320773                0.21093789                0.18967718
               7.00144527                7.00618581               30.07673248                0.15625375               -0.07582431               -0.07591273                0.25499505                0.00158432                0.00542265               -0.00300612
               8.00067921                7.00655913               30.07700603                0.26653195               -0.07671446               -0.07685749                0.25577272                0.00056366                0.00287337               -0.00285823
               8.99991099                7.00693087               30.07726647                0.41877374               -0.07697499               -0.07705900                0.25654825                0.00029890                0.00133551               -0.00095065
               9.99913971                7.00730164               30.07751174                0.76013871               -0.07712788               -0.07679384                0.25732025                0.00020202                0.00052018                0.00121795
              -0.00212032                7.99566487               30.06309727                0.86283728               -0.06346841               -0.06356704                0.21190383               -0.00011398                0.00016954               -0.00152448
               0.99724499                7.99595107               30.06322898                0.37858731               -0.06335984               -0.06337234                0.21121841                0.00003158                0.00092897                0.00139228
               1.99661248                7.99623534               30.06337603                0.01000000                0.04163217               -0.06323794                0.21054449                0.10969861                0.13725077                0.00329609
               2.99807763                7.99871169               30.06623411                0.01257480                0.16550512               -0.17257776                0.21974892                0.22819089                0.32102764               -0.11056298
               3.99992258                8.00275435               30.07011166                0.01000000                0.22564182                0.03729383                0.23235862                0.50885822                0.47165068                0.37146368
               5.00259047                8.00465095               30.07605685                0.07356645                0.09612787               -0.02552212                0.25370468                0.20185020                0.28840859                0.20137820
               6.00184514                8.00504608               30.07636796                0.15621067               -0.07558632               -0.07609501                0.25458982                0.00262980                0.00472146               -0.00246912
               7.00107874                8.00542018               30.07664536                0.26654442               -0.07671743               -0.07660646                0.25537719                0.00054312                0.00257071               -0.00324824
               8.00031079                8.00579051               30.07691750                0.41888656               -0.07688649               -0.07689005                0.25616514                0.00019166                0.00190678               -0.00244127
               8.99954102                8.00616029               30.07718434                0.63886597               -0.07709650               -0.07710384                0.25695249                0.00006488                0.00102004               -0.00091903
               9.99876886                8.00653080               30.07744015                0.89219176               -0.07721551               -0.07721563                0.25773105                0.00000326                0.00046452                0.00131920
              -0.00240871                8.99503030               30.06305425                1.00000000               -0.06322848               -0.06333883                0.21109643               -0.00011837                0.00022458               -0.00131589
               0.99695901                8.99531869               30.06320075                0.58935652               -0.06311813               -0.06311770                0.21041590                0.00001681                0.00040998                0.00101164
               1.99632893                8.99560487               30.06335118                0.05608628               -0.04434139               -0.06292416                0.20973861                0.01996404                0.01390895                0.00203538
               2.99607218                8.99628751               30.06376764                0.01393833                0.33204964               -0.16181278                0.21076951                0.25547542                0.60103845               -0.12241777
               4.00296992                9.00338901               30.07565531                0.07473223                0.30874630               -0.00910810                0.25294635                0.50832878                0.58774739                0.27892471
               5.00224710                9.00388869               30.07603352                0.15609678               -0.07454323               -0.07663626                0.25416865                0.00746048                0.00670536               -0.00056002
               6.00147906                9.00428179               30.07630704                0.26641025               -0.07677035               -0.07656926                0.25496954                0.00129005                0.00084606               -0.00174942
               7.00071170                9.00465368               30.07657238                0.41882584               -0.07680629               -0.07674169                0.25576112                0.00028260                0.00022985               -0.00167576
               7.99994293                9.00502133               30.07683651                0.63892030               -0.07698504               -0.07697828                0.25655963                0.00006243                0.00020366               -0.00137263
               8.99917200                9.00538880               30.07710295                0.97673588               -0.07720878               -0.07720599                0.25736023                0.00001024                0.00031800               -0.00070215
               9.99839876                9.00575732               30.07736967                0.99064410               -0.07732413               -0.07742785                0.25814435               -0.00005047                0.00038084                0.00106693
              -0.00269948                9.99439809               30.06301692                0.99560400               -0.06297660               -0.06322107                0.21029641               -0.00001503               -0.00087444               -0.00104885
               0.99667075                9.99468871               30.06316668                0.86562447               -0.06287854               -0.06299832                0.20961672                0.00011288               -0.00142841                0.00071117
               1.99604295                9.99497685               30.06330567                0.55964958               -0.06338722               -0.06280207                0.20893349                0.01073789                0.00780208                0.00100444
               2.99540301                9.99547543               30.06364013                0.52617934                0.32225111               -0.08120758                0.20971494                0.31284984                0.60323772               -0.00565358
               4.00248797               10.00257219               30.07568623                0.56008997                0.32219457               -0.08168183                0.25345554                0.33394469                0.59124251                0.00299608
               5.00184690               10.00311823               30.07601050                0.60638586               -0.06910091               -0.07704663                0.25454770                0.00710442                0.00170734               -0.00075342
               6.00110595               10.00351469               30.07626860                0.67042422               -0.07510219               -0.07671012                0.25535146                0.00104566               -0.00210469               -0.00077429
               7.00034486               10.00388535               30.07651953                0.76018261               -0.07645136               -0.07683309                0.25614635                0.00012875               -0.00253334               -0.00075553
               7.99957692               10.00425095               30.07677088                0.89224581               -0.07698131               -0.07703835                0.25694902               -0.00005952               -0.00238410               -0.00062649
               8.99880523               10.00461617               30.07702535                0.99064412               -0.07730644               -0.07726227                0.25775297               -0.00011197               -0.00158486               -0.00047010
               9.99803080               10.00498224               30.07729190                1.00000000               -0.07744337               -0.07750789                0.25853828               -0.00018885               -0.00087426                0.00081537
               0.00032331                0.00082307               31.06559373                0.78643973               -0.06527487               -0.06525814                0.21834947               -0.00020231                0.00091389               -0.00090176
               0.99967057                0.00118346               31.06560144                0.52566730               -0.06474589               -0.06529619                0.21765544                0.00029254                0.00126055                0.00069149
               1.99902840                0.00155390               31.06561562                0.48228343               -0.06407462               -0.06492196                0.21696813                0.00003640                0.00132024                0.00000509
               2.99838907                0.00194429               31.06562432                0.50434354               -0.06396890               -0.06473861                0.21627150               -0.00012545                0.00107773               -0.00004314
               3.99774902                0.00235125               31.06563322                0.54304688               -0.06403772               -0.06452813                0.21557088               -0.00014922                0.00116356               -0.00007048
               4.99710832                0.00276896               31.06564299                0.59554851               -0.06406830               -0.06432055                0.21486516               -0.00014069                0.00129354               -0.00008678
               5.99646765                0.00319221               31.06565379                0.66390594               -0.06403106               -0.06411101                0.21415614               -0.00012929                0.00143701               -0.00010554
               6.99582770                0.00361722               31.06566578                0.75138631               -0.06393348               -0.06390073                0.21344886               -0.00011910                0.00160179               -0.00015091
               7.99518898                0.00404148               31.06567941                0.86265969               -0.06379190               -0.06368996                0.21275040               -0.00010937                0.00181570               -0.00022599
               8.99455186                0.00446357               31.06569545                1.00000000               -0.06362049               -0.06348252                0.21206795               -0.00010616                0.00160564               -0.00033394
               9.99391657                0.00488272               31.06570488                0.99551909               -0.06352865               -0.06326540                0.21138244                0.00004298                0.00126610                0.00095890
              -0.00003909                1.00017049               31.06555164                0.52567310               -0.06528268               -0.06471775                0.21755826                0.00028092               -0.00068390               -0.00121608
               0.99930808                1.00053050               31.06555930                0.01332792               -0.06562811               -0.06562070                0.21686292                0.00118632               -0.00146715                0.00152298
               1.99864834                1.00090468               31.06555086                0.01000000               -0.06594684               -0.04094796                0.21616248                0.02638186               -0.00218322                0.01313875
               2.99798914                1.00129691               31.06554350                0.01000001               -0.06565750               -0.00450199                0.21545245                0.05497695               -0.00208749                0.03420100
               3.99733519                1.00170597               31.06553645                0.01000000               -0.06513562                0.01448060                0.21473570                0.05049978               -0.00202673                0.04541428
               4.99668643                1.00212575               31.06553008                0.02154964               -0.06464831               -0.03220449                0.21401230                0.02290205               -0.00196104                0.01673805
               5.99604223                1.00255110               31.06552433                0.10844929               -0.06422789               -0.06355583                0.21328498                0.00011547               -0.00190694               -0.00168463
               6.99540187                1.00297821               31.06551915                0.22384237               -0.06387569               -0.06368115                0.21255902               -0.00001636               -0.00183422               -0.00156195
               7.99476471                1.00340458               31.06551502                0.37835888               -0.06358461               -0.06354357                0.21184173               -0.00000289               -0.00169224               -0.00128505
               8.99413018                1.00382875               31.06551284                0.58891386               -0.06334282               -0.06333330                0.21113956                0.00001106               -0.00123176               -0.00074141
               9.99349786                1.00425006               31.06551804                0.86532483               -0.06323228               -0.06313069                0.21044894                0.00015318               -0.00086808                0.00143756
              -0.00039108                1.99952872               31.06550282                0.48229442               -0.06488164               -0.06403238                0.21676815                0.00002841               -0.00001172               -0.00139340
               0.99896011                1.99987104               31.06553335                0.01000000               -0.04096495               -0.06589221                0.21607646                0.02641307                0.00923155                0.00220517
               1.99878963                2.00073494               31.06574848                0.01000001               -0.01363927               -0.01351963                0.21587520                0.12627473                0.02717839                0.03500595
               2.99868732                2.00185425               31.06614732                0.01000000               -0.04297279                0.03684352                0.21618543                0.16463070                0.02562016                0.06910157
               3.99793017                2.00264086               31.06634919                0.01000000               -0.09830483                0.08940065                0.21613661                0.12600308               -0.02411517                0.11335880
               4.99672123                2.00212487               31.06575353                0.01000001               -0.11563344                0.07750144                0.21410647                0.07550045               -0.05310634                0.13170792
               5.99561750                2.00192110               31.06536322                0.01141096               -0.08736668                0.10476941                0.21239818                0.13028823               -0.02356762                0.18064677
               6.99497389                2.00234360               31.06534429                0.01619803               -0.06395539                0.02083483                0.21164389                0.13139972               -0.00478153                0.15569755
               7.99433839                2.00277061               31.06532951                0.01000000               -0.06336459                0.03738520                0.21091273                0.11239291               -0.00420046                0.16890792
               8.99370660                2.00319690               31.06532220                0.05594858               -0.06306944               -0.04477042                0.21020305                0.02060117               -0.00252308                0.01452756
               9.99307700                2.00362010               31.06534096                0.55954385               -0.06295961               -0.06455068                0.20952553                0.01193907               -0.00121973                0.01432871
              -0.00072318                2.99888984               31.06545697                0.50436179               -0.06467002               -0.06391744                0.21597146               -0.00012780                0.00002795               -0.00125994
               0.99863012                2.99921265               31.06550421                0.01000001               -0.00430956               -0.06555641                0.21527915                0.05503900                0.02899187                0.00200365
               1.99919063                3.00063428               31.06613050                0.01000000                0.03728555               -0.04283787                0.21609840                0.16476314                0.05830271                0.03422330
               2.99937583                3.00203378               31.06679613                0.01000000                0.01970047                0.01885832                0.21725566                0.21519873                0.06862201                0.08009358
               3.99958464                3.00349398               31.06765236                0.01197069               -0.02298144                0.03897474                0.21916410                0.18975407                0.04928613                0.11393478
               4.99891621                3.00367578               31.06795950                0.01000000               -0.05776895                0.13252311                0.21957407                0.23825552                0.05234665                0.22426726
               5.99842926                3.00464649               31.06888082                0.01812482               -0.08679257                0.13898891                0.22193226                0.19357192                0.00948216                0.24163183
               6.99718035                3.00339491               31.06834285                0.01000001               -0.11349988                0.08343701                0.21987764                0.19872484               -0.02447854                0.28073800
               7.99615927                3.00415228               31.06856893                0.01257896               -0.17438212                0.15358660                0.22073206                0.24483006               -0.15317037                0.39337903
               8.99369271                3.00293334               31.06544496                0.01387773               -0.16345103                0.30476122                0.21114450                0.28671400               -0.16251990                0.74884794
               9.99289024                3.00295905               31.06541202                0.52610685               -0.08024670                0.29621356                0.21022989                0.33949369               -0.00816580                0.76275273
              -0.00103925                3.99825037               31.06541035                0.54307501               -0.06443045               -0.06396737                0.21516985               -0.00014969                0.00004379               -0.00130049
               0.99831645                3.99855992               31.06547383                0.01000000                0.01515059               -0.06499979                0.21447456                0.05052426                0.03970540                0.00188515
               1.99926376                3.99987818               31.06633040                0.01000000                0.09075765               -0.09811940                0.21596774                0.12485135                0.09995910               -0.00811220
               3.00013160                4.00223142               31.06764186                0.01197145                0.04097414               -0.02422106                0.21908037                0.18875490                0.09873067                0.06038088
               4.00008325                4.00342036               31.06851793                0.01000000                0.01011126                0.00641735                0.22116482                0.18586666                0.11071081                0.12375074
               5.00033383                4.00477533               31.07009055                0.01803258               -0.01567190                0.04154675                0.22550956                0.14386954                0.06232342                0.13516928
               5.99976981                4.00470087               31.07003377                0.01000001               -0.04456162               -0.00041906                0.22502792                0.05721058                0.01746365                0.15126579
               6.99944259                4.00401234               31.07071712                0.01174899               -0.00366217                0.10884747                0.22679950                0.23202228                0.12987782                0.33380759
               7.99969657                4.00584234               31.07292841                0.01000000                0.05957613                0.19949454                0.23357010                0.51440955                0.44406093                0.56706490
               9.00063412                4.00929213               31.07993679                0.07465213                0.00594446                0.28079555                0.25561512                0.52048244                0.34218771                0.73467970
               9.99981546                4.00954437               31.08020009                0.56000607               -0.08186614                0.29685591                0.25629036                0.36187918                0.00469978                0.74867725
              -0.00134526                4.99761050               31.06536298                0.59559184               -0.06419380               -0.06396859                0.21436233               -0.00014088                0.00005396               -0.00133141
               0.99801280                4.99791266               31.06544225                0.02159025               -0.03192896               -0.06448764                0.21366317                0.02295080                0.01728314                0.00176316
               1.99801616                4.99867190               31.06586602                0.01000001                0.07979789               -0.11531932                0.21393409                0.07292324                0.11510046               -0.03382912
               2.99960876                5.00154935               31.06792164                0.01000000                0.13709535               -0.05992404                0.21939193                0.23411482                0.19636271                0.06155131
               4.00075806                5.00362233               31.07003358                0.01803388                0.04521608               -0.01883904                0.22539336                0.14142289                0.11721135                0.07496365
               5.00051308                5.00450671               31.07056335                0.01000001               -0.02107993               -0.02543776                0.22669873                0.03228955                0.07078928                0.08362798
               6.00033647                5.00463811               31.07176401                0.01175973                0.00831269                0.02788573                0.23015942                0.10326738                0.19557684                0.25740058
               7.00067933                5.00557186               31.07481385                0.01000000                0.04155991                0.14880906                0.23998908                0.28179460                0.37826952                0.43935372
               8.00116766                5.00814218               31.07971272                0.07353620               -0.01395020                0.07733861                0.25572468                0.20473970                0.23650488                0.34261878
               9.00040033                5.00854925               31.07998850                0.15605363               -0.07721625               -0.07591367                0.25636359                0.00825444                0.00279738                0.00612733
               9.99962334                5.00889617               31.08021781                0.60635709               -0.07769888               -0.06974395                0.25690572                0.00756748                0.00032561                0.00600354
              -0.00164638                5.99697100               31.06531497                0.66397127               -0.06395511               -0.06389396                0.21355093               -0.00013039                0.00007097               -0.00136703
               0.99771407                5.99727016               31.06540959                0.10851340               -0.06340426               -0.06405001                0.21284805                0.00023191                0.00187098                0.00164784
               1.99708553                5.99757179               31.06554020                0.01141496                0.10747007               -0.08713543                0.21216340                0.12649891                0.15967878               -0.01147341
               2.99986347                6.00103294               31.06879149                0.01812780                0.14344071               -0.08836026                0.22163673                0.18759757                0.20600362                0.02091438
               3.99995435                6.00304357               31.06994867                0.01000001                0.00501845               -0.04769199                0.22480693                0.05237692                0.12853090                0.02775469
               4.99996384                6.00426657               31.07167641                0.01176142                0.04078338               -0.00391267                0.23001584                0.10030981                0.23826659                0.19740735
               6.00077001                6.00525859               31.07505663                0.01000000                0.08052916                0.06002228                0.24122220                0.21718080                0.36399397                0.36526807
               7.00157442                6.00698852               31.07935435                0.07359403                0.00219788                0.03307357                0.25540966                0.13280964                0.20683761                0.22850258
               8.00081397                6.00738911               31.07965520                0.15617301               -0.07646024               -0.07616901                0.25605271                0.00273716                0.00462455               -0.00128945
               9.00004521                6.00777386               31.07991363                0.26636299               -0.07705014               -0.07735631                0.25661103                0.00138444                0.00146671               -0.00062593
               9.99927297                6.00814949               31.08015468                0.67039599               -0.07722466               -0.07561166                0.25716248                0.00118685                0.00049485                0.00155156
              -0.00194620                6.99633262               31.06526623                0.75148168               -0.06371567               -0.06375326                0.21274077               -0.00012235                0.00011132               -0.00143125
               0.99741664                6.99663166               31.06537598                0.22394368               -0.06352181               -0.06368589                0.21203459                0.00004195                0.00130794                0.00152681
               1.99678336                6.99692919               31.06550973                0.01620355                0.02361426               -0.06384504                0.21132935                0.12754074                0.13355463                0.00340560
               2.99788893                6.99978215               31.06826444                0.01000001                0.08943024               -0.11361603                0.21949784                0.18990381                0.23715966               -0.01333481
               3.99857197                7.00266849               31.07052499                0.01175276                0.12076670               -0.01355396                0.22641743                0.22095904                0.29284204                0.12708700
               5.00030426                7.00442846               31.07443843                0.01000000                0.16930852                0.02013619                0.23954565                0.27743286                0.40246227                0.34901155
               6.00195814                7.00583855               31.07897088                0.07359657                0.04503693               -0.00901224                0.25504873                0.13144995                0.21833685                0.19642686
               7.00120500                7.00623333               31.07928605                0.15622589               -0.07605337               -0.07613601                0.25570392                0.00157934                0.00545969               -0.00298262
               8.00043707                7.00661880               31.07956632                0.26651607               -0.07686819               -0.07701011                0.25627527                0.00056518                0.00287472               -0.00286186
               8.99966764                7.00700212               31.07983344                0.41879403               -0.07706358               -0.07714655                0.25683939                0.00029711                0.00133838               -0.00094111
               9.99889580                7.00738393               31.08008535                0.76016141               -0.07718374               -0.07681900                0.25739748                0.00022384                0.00052380                0.00124041
              -0.00224691                7.99569593               31.06521648                0.86280336               -0.06347580               -0.06356549                0.21193782               -0.00011621                0.00017022               -0.00153528
               0.99711834                7.99599645               31.06534121                0.37852076               -0.06336199               -0.06338402                0.21122873                0.00001855                0.00093192                0.00138357
               1.99648585                7.99629489               31.06548133                0.01000000                0.04019543               -0.06323681                0.21051853                0.10843941                0.14230068                0.00328585
               2.99792224                7.99876062               31.06843339                0.01258548                0.16206810               -0.17088272                0.22012752                0.22613198                0.33254957               -0.11426250
               3.99972722                8.00277250               31.07243795                0.01000000                0.22100914                0.03602943                0.23289105                0.50235914                0.48874018                0.38503971
               5.00234243                8.00466930               31.07859870                0.07354411                0.09334641               -0.02620427                0.25464948                0.19929542                0.29888879                0.20876465
               6.00159414                8.00507834               31.07891766                0.15618396               -0.07583307               -0.07632438                0.25533538                0.00262572                0.00477116               -0.00244054
               7.00082577                8.00546580               31.07920189                0.26652764               -0.07688304               -0.07677079                0.25591758                0.00054602                0.00257650               -0.00325542
               8.00005648                8.00584891               31.07948085                0.41890268               -0.07698730               -0.07699064                0.25649580                0.00019254                0.00191618               -0.00243825
               8.99928602                8.00623092               31.07975447                0.63895073               -0.07713303               -0.07713919                0.25707045                0.00006421                0.00102712               -0.00090207
               9.99851382                8.00661311               31.08001699                0.89225386               -0.07721971               -0.07718659                0.25763517                0.00002696                0.00046840                0.00134649
              -0.00254955                8.99506131               31.06516548                1.00000000               -0.06323955               -0.06335014                0.21114898               -0.00011807                0.00022489               -0.00131716
               0.99681805                8.99536398               31.06530501                0.58918401               -0.06312347               -0.06312704                0.21043645                0.00001443                0.00041038                0.00101153
               1.99618798                8.99566445               31.06544847                0.05605439               -0.04420447               -0.06292240                0.20972227                0.02011470                0.01478477                0.00203353
               2.99593396                8.99636450               31.06587549                0.01406884                0.32612450               -0.16050653                0.21081201                0.25254465                0.62359206               -0.12668900
               4.00271047                9.00338908               31.07818944                0.07481757                0.30251788               -0.01015785                0.25386198                0.50119153                0.60894360                0.28923611
               5.00198432                9.00390438               31.07857914                0.15608544               -0.07481591               -0.07687223                0.25494021                0.00747006                0.00694172               -0.00051720
               6.00121415                9.00431207               31.07885966                0.26639727               -0.07694845               -0.07674229                0.25554382                0.00129345                0.00085855               -0.00175050
               7.00044535                9.00469791               31.07913187                0.41884026               -0.07691783               -0.07685319                0.25612899                0.00028205                0.00024368               -0.00167681
               7.99967579                9.00507898               31.07940291                0.63899901               -0.07703178               -0.07702633                0.25671576                0.00006186                0.00022377               -0.00136864
               8.99890472                9.00545934               31.07967626                0.97694283               -0.07719181               -0.07718934                0.25730129                0.00000964                0.00033166               -0.00069021
               9.99813196                9.00584020               31.07994973                0.99084103               -0.07727587               -0.07734411                0.25787107               -0.00002449                0.00038579                0.00108441
              -0.00285460                9.99442893               31.06512021                0.99552238               -0.06299161               -0.06323780                0.21036319               -0.00000773               -0.00087465               -0.00104760
               0.99651548                9.99473391               31.06526301                0.86549731               -0.06288843               -0.06300710                0.20964959                0.00011845               -0.00142988                0.00071231
               1.99588763                9.99503644               31.06539500                0.55963124               -0.06334840               -0.06280070                0.20893611                0.01079396                0.00855084                0.00100334
               2.99524851                9.99555049               31.06573752                0.52629807                0.31617686               -0.08140089                0.20977485                0.30809956                0.62638767               -0.00589729
               4.00221117               10.00256934               31.07822457                0.56017113                0.31601623               -0.08197375                0.25419628                0.32913793                0.61309425                0.00312891
               5.00156884               10.00313185               31.07855900                0.60638514               -0.06923456               -0.07725230                0.25514109                0.00715953                0.00188412               -0.00074796
               6.00082647               10.00354350               31.07882415                0.67042373               -0.07521734               -0.07685690                0.25574929                0.00107639               -0.00208347               -0.00077040
               7.00006449               10.00392873               31.07908198                0.76019978               -0.07650891               -0.07691799                0.25633831                0.00015814               -0.00251189               -0.00075304
               7.99929630               10.00430838               31.07934028                0.89230148               -0.07697487               -0.07705980                0.25692937               -0.00002967               -0.00235823               -0.00062366
               8.99852499               10.00468714               31.07960169                0.99084117               -0.07723453               -0.07722004                0.25751795               -0.00008003               -0.00156888               -0.00046609
               9.99775161               10.00506623               31.07987500                1.00000000               -0.07733875               -0.07739696                0.25808882               -0.00012585               -0.00087032                0.00082039
               0.00032824                0.00086009               32.06777679                0.78650687               -0.06525132               -0.06523501                0.21825867               -0.00019930                0.00091785               -0.00090458
               0.99967573                0.00123648               32.06777762                0.52576530               -0.06472806               -0.06527295                0.21757697                0.00028584                0.00126976                0.00069318
               1.99903368                0.00162273               32.06778498                0.48233670               -0.06405729               -0.06490667                0.21689994                0.00003469                0.00133100                0.00000291
               2.99839458                0.00202877               32.06778675                0.50438300               -0.06394157               -0.06472616                0.21621317               -0.00012800                0.00108415               -0.00004534
               3.99775485                0.00245148               32.06778869                0.54307882               -0.06400417               -0.06451819                0.21552263               -0.00015266                0.00116698               -0.00007232
               4.99711450                0.00288525               32.06779146                0.59557189               -0.06403520               -0.06431321                0.21482930               -0.00014448                0.00129364               -0.00008823
               5.99647415                0.00332496               32.06779524                0.66391752               -0.06400418               -0.06410664                0.21413505               -0.00013282                0.00143622               -0.00010677
               6.99583442                0.00376678               32.06780024                0.75137819               -0.06391665               -0.06389988                0.21344430               -0.00012184                0.00160561               -0.00015243
               7.99519581                0.00420814               32.06780697                0.86262203               -0.06378657               -0.06369264                0.21276227               -0.00011080                0.00183104               -0.00022829
               8.99455869                0.00464747               32.06781627                1.00000000               -0.06362525               -0.06348846                0.21209537               -0.00010571                0.00162579               -0.00033801
               9.99392331                0.00508386               32.06781890                0.99542909               -0.06353772               -0.06327482                0.21142215                0.00004728                0.00128343                0.00097056
              -0.00005013                1.00020774               32.06772686                0.52577051               -0.06525951               -0.06470021                0.21748193                0.00027426               -0.00068674               -0.00121643
               0.99929727                1.00058375               32.06772763                0.01330331               -0.06559900               -0.06559273                0.21679905                0.00116199               -0.00147129                0.00152855
               1.99863789                1.00097366               32.06771223                0.01000000               -0.06591704               -0.04119018                0.21610931                0.02608387               -0.00219697                0.01341713
               2.99797893                1.00138151               32.06769780                0.01000001               -0.06564022               -0.00532528                0.21540769                0.05419959               -0.00211256                0.03501440
               3.99732508                1.00180630               32.06768363                0.01000000               -0.06513061                0.01340824                0.21469843                0.04972246               -0.00206049                0.04657473
               4.99667632                1.00224212               32.06767006                0.02157111               -0.06465139               -0.03271431                0.21398363                0.02246182               -0.00200126                0.01721042
               5.99603205                1.00268389               32.06765709                0.10845874               -0.06423545               -0.06356459                0.21326632                0.00006496               -0.00194959               -0.00169680
               6.99539161                1.00312779               32.06764470                0.22382695               -0.06388442               -0.06368113                0.21255137               -0.00004150               -0.00187299               -0.00157875
               7.99475436                1.00357121               32.06763345                0.37829016               -0.06359203               -0.06354370                0.21184452               -0.00001283               -0.00172031               -0.00129978
               8.99411977                1.00401258               32.06762429                0.58873642               -0.06334896               -0.06333627                0.21115156                0.00000909               -0.00124728               -0.00075085
               9.99348739                1.00445111               32.06762264                0.86519473               -0.06323821               -0.06313746                0.21047172                0.00015581               -0.00087834                0.00145430
              -0.00041828                1.99956609               32.06767019                0.48234733               -0.06486676               -0.06401404                0.21670463                0.00002639               -0.00001393               -0.00139342
               0.99893305                1.99992462               32.06769387                0.01000000               -0.04120568               -0.06586643                0.21602417                0.02611533                0.00949670                0.00220616
               1.99875760                2.00079893               32.06790744                0.01000001               -0.01435542               -0.01423756                0.21591376                0.12450583                0.02790910                0.03576375
               2.99864594                2.00192226               32.06830979                0.01000000               -0.04344600                0.03543596                0.21630515                0.16225171                0.02633495                0.07074257
               3.99788868                2.00271965               32.06851129                0.01000000               -0.09798988                0.08724044                0.21627883                0.12404819               -0.02463361                0.11630966
               4.99668614                2.00223097               32.06789448                0.01000001               -0.11494512                0.07550642                0.21409430                0.07423245               -0.05442350                0.13533820
               5.99558978                2.00205367               32.06748705                0.01141338               -0.08699391                0.10228863                0.21236610                0.12819757               -0.02414232                0.18595034
               6.99494627                2.00249316               32.06746061                0.01620226               -0.06395105                0.01957215                0.21162136                0.12926575               -0.00486386                0.16032874
               7.99431076                2.00293727               32.06743856                0.01000000               -0.06336494                0.03595086                0.21089849                0.11059380               -0.00426142                0.17435790
               8.99367897                2.00338074               32.06742419                0.05592422               -0.06307003               -0.04466777                0.21019644                0.02066938               -0.00255620                0.01547827
               9.99304936                2.00382111               32.06743625                0.55953074               -0.06296068               -0.06446712                0.20953421                0.01190559               -0.00123600                0.01518979
              -0.00076668                2.99892746               32.06761644                0.50440185               -0.06465846               -0.06388743                0.21592004               -0.00013126                0.00002628               -0.00126323
               0.99858674                2.99926642               32.06765679                0.01000001               -0.00514795               -0.06554577                0.21523637                0.05426765                0.02978683                0.00199324
               1.99913037                3.00068891               32.06829211                0.01000000                0.03582530               -0.04331396                0.21621969                0.16239841                0.05990339                0.03496808
               2.99930325                3.00209022               32.06896992                0.01000000                0.01834870                0.01762155                0.21749870                0.21214050                0.07064973                0.08216773
               3.99949734                3.00355111               32.06984577                0.01197025               -0.02381504                0.03746764                0.21952003                0.18701472                0.05080281                0.11698355
               4.99882695                3.00375225               32.07015704                0.01000000               -0.05817647                0.12976464                0.21993715                0.23459314                0.05407664                0.23061511
               5.99833381                3.00472966               32.07110229                0.01812484               -0.08668105                0.13599126                0.22236185                0.19042645                0.00993152                0.24853964
               6.99709332                3.00351923               32.07054324                0.01000001               -0.11275743                0.08121556                0.22019602                0.19541362               -0.02471340                0.28913625
               7.99607866                3.00429023               32.07077815                0.01259363               -0.17220081                0.15025657                0.22110714                0.24076966               -0.15716082                0.40555123
               8.99364931                3.00311923               32.06755680                0.01401712               -0.16169542                0.29926133                0.21123299                0.28050305               -0.16718723                0.77267780
               9.99284475                3.00316177               32.06751479                0.52623051               -0.08045551                0.29029699                0.21033374                0.33161122               -0.00843985                0.78721739
              -0.00109882                3.99828834               32.06756186                0.54310646               -0.06442235               -0.06393091                0.21513162               -0.00015416                0.00004268               -0.00130789
               0.99825695                3.99861371               32.06761842                0.01000000                0.01402961               -0.06500286                0.21444114                0.04975898                0.04084298                0.00186610
               1.99918177                3.99993265               32.06849081                0.01000000                0.08848020               -0.09783155                0.21611479                0.12305125                0.10285707               -0.00855617
               3.00002656                4.00227469               32.06983446                0.01197124                0.03925922               -0.02489671                0.21943497                0.18615985                0.10171698                0.06194326
               3.99996695                4.00346900               32.07073185                0.01000000                0.00864464                0.00533272                0.22161652                0.18318888                0.11421034                0.12730776
               5.00019945                4.00482626               32.07234864                0.01803113               -0.01678107                0.03993182                0.22610375                0.14165823                0.06437386                0.13905831
               5.99963133                4.00477349               32.07228657                0.01000001               -0.04527390               -0.00138955                0.22552777                0.05619549                0.01816661                0.15577610
               6.99929397                4.00411747               32.07298766                0.01174436               -0.00525880                0.10641188                0.22730455                0.22808113                0.13416810                0.34449741
               7.99952616                4.00594240               32.07526632                0.01000000                0.05617574                0.19567785                0.23401837                0.50562360                0.45835048                0.58498911
               9.00041749                4.00936597               32.08249645                0.07474477                0.00351688                0.27508641                0.25629940                0.51041991                0.35313102                0.75726577
               9.99959649                4.00962705               32.08276546                0.56009160               -0.08209932                0.29080168                0.25677049                0.35360150                0.00484281                0.77193425
              -0.00142049                4.99764885               32.06750650                0.59561342               -0.06418929               -0.06393356                0.21433987               -0.00014578                0.00005335               -0.00134346
               0.99793761                4.99796636               32.06757877                0.02161234               -0.03245494               -0.06449920                0.21364041                0.02250818                0.01776981                0.00173771
               1.99793041                4.99873228               32.06800527                0.01000001                0.07762400               -0.11467554                0.21390706                0.07195177                0.11866185               -0.03506206
               2.99949009                5.00159229               32.07011738                0.01000000                0.13395713               -0.06009125                0.21975570                0.23097215                0.20257258                0.06331735
               4.00060955                5.00365776               32.07229050                0.01803215                0.04327617               -0.01962592                0.22599234                0.13947208                0.12101198                0.07707394
               5.00035562                5.00455089               32.07283316                0.01000001               -0.02215215               -0.02613114                0.22726191                0.03186384                0.07320295                0.08609599
               6.00016651                5.00470187               32.07406864                0.01175182                0.00652126                0.02671538                0.23075645                0.10174202                0.20221500                0.26584022
               7.00048604                5.00564747               32.07721717                0.01000000                0.03880660                0.14594073                0.24066773                0.27743095                0.39085697                0.45394022
               8.00094264                5.00820379               32.08227404                0.07351963               -0.01564954                0.07529388                0.25651806                0.20125616                0.24422454                0.35376044
               9.00017305                5.00862095               32.08255515                0.15604840               -0.07740134               -0.07609758                0.25695220                0.00819641                0.00284376                0.00641590
               9.99939461                5.00897781               32.08278882                0.60635969               -0.07784386               -0.06984402                0.25728736                0.00756785                0.00033051                0.00623888
              -0.00173678                5.99700967               32.06745046                0.66397980               -0.06395435               -0.06386676                0.21354616               -0.00013506                0.00007077               -0.00138077
               0.99762368                5.99732373               32.06753801                0.10852192               -0.06341726               -0.06406536                0.21283681                0.00016797                0.00187594                0.00162050
               1.99699488                5.99763914               32.06766165                0.01141681                0.10484203               -0.08678351                0.21212548                0.12484707                0.16489073               -0.01200414
               2.99972052                6.00107287               32.07101005                0.01812811                0.14014606               -0.08809123                0.22207333                0.18512787                0.21274925                0.02141747
               3.99979780                6.00307648               32.07219929                0.01000001                0.00360474               -0.04810864                0.22531286                0.05180492                0.13292911                0.02850265
               4.99979262                6.00430364               32.07397958                0.01175306                0.03858966               -0.00469044                0.23062389                0.09904430                0.24661029                0.20402945
               6.00056959                6.00530780               32.07747256                0.01000000                0.07740307                0.05846632                0.24196280                0.21404739                0.37655721                0.37784676
               7.00134068                6.00703629               32.08191270                0.07357226                0.00040991                0.03155768                0.25624593                0.13067277                0.21376676                0.23621440
               8.00057779                6.00744827               32.08221900                0.15615190               -0.07666397               -0.07637696                0.25669287                0.00272017                0.00467026               -0.00123992
               8.99980740                6.00784402               32.08248198                0.26635705               -0.07718210               -0.07748728                0.25704704                0.00137875                0.00147117               -0.00060595
               9.99903415                6.00823017               32.08272749                0.67039888               -0.07732486               -0.07568354                0.25739234                0.00120348                0.00050039                0.00158849
              -0.00205130                6.99637151               32.06739371                0.75147219               -0.06371895               -0.06373820                0.21275494               -0.00012604                0.00011108               -0.00144134
               0.99731151                6.99668506               32.06749632                0.22392648               -0.06352443               -0.06370097                0.21203523                0.00000987                0.00130393                0.00150342
               1.99667821                6.99699661               32.06762286                0.01620791                0.02219013               -0.06384137                0.21130044                0.12584221                0.13808185                0.00336180
               2.99775531                6.99983047               32.07046108                0.01000001                0.08683362               -0.11287411                0.21982448                0.18752312                0.24534461               -0.01356595
               3.99841488                7.00269559               32.07279178                0.01174787                0.11749373               -0.01428917                0.22693644                0.21804460                0.30329659                0.13135194
               5.00010518                7.00445708               32.07683742                0.01000000                0.16499626                0.01909480                0.24026768                0.27357693                0.41680662                0.36141899
               6.00171480                7.00587120               32.08152583                0.07357457                0.04269195               -0.00996619                0.25592585                0.12946587                0.22593680                0.20334219
               7.00095902                7.00627862               32.08184656                0.15620227               -0.07627452               -0.07635131                0.25638385                0.00157260                0.00550503               -0.00294791
               8.00018931                7.00667625               32.08213154                0.26650453               -0.07701469               -0.07715567                0.25675398                0.00056654                0.00288097               -0.00286030
               8.99941873                7.00707121               32.08240325                0.41881438               -0.07714725               -0.07722909                0.25711416                0.00029548                0.00134204               -0.00092721
               9.99864637                7.00746413               32.08265969                0.76018274               -0.07723593               -0.07684110                0.25746643                0.00024505                0.00052774                0.00126775
              -0.00236639                7.99573491               32.06733602                0.86276111               -0.06348332               -0.06356451                0.21197147               -0.00011813                0.00016969               -0.00153562
               0.99699878                7.99604971               32.06745356                0.37845055               -0.06336475               -0.06339635                0.21124118                0.00000608                0.00092775                0.00136974
               1.99636631                7.99636231               32.06758640                0.01000000                0.03866152               -0.06323690                0.21049838                0.10708065                0.14756540                0.00326092
               2.99777201                7.99881539               32.07063666                0.01259998                0.15828833               -0.16904351                0.22051795                0.22380642                0.34440273               -0.11808416
               3.99953208                8.00279070               32.07476948                0.01000000                0.21582688                0.03457637                0.23341578                0.49502076                0.50622124                0.39892107
               5.00208854                8.00468553               32.08114984                0.07352679                0.09026437               -0.02695157                0.25555809                0.19641568                0.30968026                0.21634852
               6.00133737                8.00510848               32.08147467                0.15616163               -0.07607315               -0.07654556                0.25605274                0.00262122                0.00482932               -0.00240449
               7.00056708                8.00550926               32.08176371                0.26651437               -0.07704176               -0.07692803                0.25643435                0.00054943                0.00258641               -0.00325676
               7.99979653                8.00590516               32.08204742                0.41891787               -0.07708298               -0.07708605                0.25680935                0.00019381                0.00192720               -0.00243366
               8.99902542                8.00629943               32.08232575                0.63903305               -0.07716671               -0.07717165                0.25717889                0.00006372                0.00103495               -0.00088518
               9.99825320                8.00669335               32.08259286                0.89231537               -0.07722226               -0.07715687                0.25753770                0.00004975                0.00047277                0.00137372
              -0.00268327                8.99510022               32.06727723                1.00000000               -0.06325098               -0.06336165                0.21120140               -0.00011755                0.00022347               -0.00131053
               0.99668422                8.99541713               32.06740948                0.58900181               -0.06312966               -0.06313723                0.21045982                0.00001219                0.00040652                0.00100668
               1.99605414                8.99573187               32.06754563                0.05603238               -0.04405868               -0.06292255                0.20971236                0.02028010                0.01570517                0.00202171
               2.99580305                8.99644960               32.06798388                0.01421726                0.31955033               -0.15909792                0.21087769                0.24922168                0.64663344               -0.13115028
               4.00244515                9.00338712               32.08073255                0.07491759                0.29563335               -0.01130890                0.25473584                0.49323737                0.63069795                0.29982284
               5.00171572                9.00391805               32.08113232                0.15607922               -0.07508234               -0.07709921                0.25568039                0.00748150                0.00721906               -0.00047407
               6.00094350                9.00434029               32.08141792                0.26638733               -0.07711962               -0.07690811                0.25609403                0.00129756                0.00088185               -0.00174944
               7.00017332                9.00474006               32.08169496                0.41885486               -0.07702416               -0.07695944                0.25647934                0.00028211                0.00026124               -0.00167607
               7.99940302                9.00513453               32.08197082                0.63907393               -0.07707558               -0.07707145                0.25686212                0.00006168                0.00024369               -0.00136381
               8.99863181                9.00552778               32.08224897                0.97715074               -0.07717429               -0.07717212                0.25724059                0.00000916                0.00034454               -0.00067929
               9.99785953                9.00592100               32.08252709                0.99103301               -0.07722822               -0.07726220                0.25760390                0.00000039                0.00039046                0.00110036
              -0.00300256                9.99446767               32.06722418                0.99543232               -0.06300720               -0.06325464                0.21043043               -0.00000083               -0.00087091               -0.00104063
               0.99636737                9.99478696               32.06735968                0.86536529               -0.06289936               -0.06301688                0.20968599                0.00012345               -0.00142594                0.00070974
               1.99573945                9.99510386               32.06748439                0.55961983               -0.06330842               -0.06280148                0.20894544                0.01085426                0.00935400                0.00099714
               2.99510120                9.99563343               32.06783562                0.52643060                0.30944639               -0.08161688                0.20985801                0.30284766                0.64993138               -0.00615058
               4.00192838               10.00256452               32.08077016                0.56026391                0.30919023               -0.08225980                0.25490321                0.32382919                0.63540937                0.00326541
               5.00128500               10.00314355               32.08111332                0.60638646               -0.06935360               -0.07744971                0.25571087                0.00721819                0.00210169               -0.00074219
               6.00054131               10.00357031               32.08138359                0.67042363               -0.07532588               -0.07699749                0.25613007                0.00110676               -0.00204960               -0.00076543
               6.99977848               10.00397007               32.08164630                0.76021645               -0.07656281               -0.07699866                0.25651994                0.00018686               -0.00248565               -0.00074990
               7.99901005               10.00436373               32.08190947                0.89235635               -0.07696749               -0.07707949                0.25690729               -0.00000075               -0.00233218               -0.00062032
               8.99823913               10.00475599               32.08217570                0.99103270               -0.07716431               -0.07717839                0.25728860               -0.00004918               -0.00155380               -0.00046244
               9.99746676               10.00514811               32.08245367                1.00000000               -0.07723710               -0.07728907                0.25765292               -0.00006531               -0.00086675                0.00082463
               0.00034002                0.00090486               33.06995891                0.78658171               -0.06522501               -0.06520912                0.21815980               -0.00019591                0.00092101               -0.00090746
               0.99968777                0.00129730               33.06995298                0.52587070               -0.06470692               -0.06524786                0.21749121                0.00028020                0.00127737                0.00069450
               1.99904589                0.00169945               33.06995362                0.48239571               -0.06403655               -0.06488951                0.21682645                0.00003343                0.00133999                0.00000059
               2.99840704                0.00212127               33.06994858                0.50442781               -0.06391209               -0.06471200                0.21615087               -0.00013032                0.00108990               -0.00004799
               3.99776764                0.00255994               33.06994368                0.54311503               -0.06396996               -0.06450714                0.21547237               -0.00015581                0.00117169               -0.00007452
               4.99712764                0.00300999               33.06993957                0.59559766               -0.06400248               -0.06430525                0.21479284               -0.00014795                0.00129784               -0.00009006
               5.99648759                0.00346638               33.06993649                0.66392828               -0.06397812               -0.06410219                0.21411443               -0.00013605                0.00144234               -0.00010842
               6.99584808                0.00392526               33.06993467                0.75136828               -0.06390060               -0.06389930                0.21344046               -0.00012438                0.00161763               -0.00015466
               7.99520958                0.00438395               33.06993465                0.86257479               -0.06378179               -0.06369574                0.21277496               -0.00011210                0.00185416               -0.00023145
               8.99457245                0.00484076               33.06993736                1.00000000               -0.06363045               -0.06349495                0.21212388               -0.00010515                0.00165205               -0.00034323
               9.99393697                0.00529465               33.06993332                0.99533144               -0.06354721               -0.06328496                0.21146351                0.00005148                0.00130536                0.00098531
              -0.00005437                1.00025276               33.06990128                0.52587557               -0.06523463               -0.06467938                0.21739863                0.00026890               -0.00068970               -0.00121731
               0.99929328                1.00064482               33.06989528                0.01327743               -0.06556966               -0.06556441                0.21672875                0.00114039               -0.00147650                0.00153247
               1.99863423                1.00105056               33.06987304                0.01000000               -0.06588906               -0.04145588                0.21605115                0.02576681               -0.00221366                0.01373328
               2.99797550                1.00147415               33.06985165                0.01000001               -0.06562525               -0.00621431                0.21535941                0.05337201               -0.00214220                0.03590227
               3.99732173                1.00191486               33.06983042                0.01000000               -0.06512775                0.01224861                0.21465968                0.04889732               -0.00209924                0.04781707
               4.99667294                1.00236694               33.06980976                0.02159589               -0.06465638               -0.03326719                0.21395506                0.02199236               -0.00204578                0.01769236
               5.99602860                1.00282536               33.06978966                0.10846943               -0.06424454               -0.06357412                0.21324901                0.00001291               -0.00199538               -0.00171867
               6.99538805                1.00328627               33.06977018                0.22381154               -0.06389424               -0.06368154                0.21254546               -0.00006705               -0.00191475               -0.00160292
               7.99475071                1.00374700               33.06975191                0.37821864               -0.06360025               -0.06354434                0.21184927               -0.00002271               -0.00175241               -0.00131934
               8.99411605                1.00420581               33.06973587                0.58855163               -0.06335585               -0.06333991                0.21116596                0.00000721               -0.00126636               -0.00076300
               9.99348360                1.00466180               33.06972748                0.86505906               -0.06324493               -0.06314514                0.21049750                0.00015837               -0.00089123                0.00147546
              -0.00043870                1.99961127               33.06983691                0.48240550               -0.06485057               -0.06399259                0.21663662                0.00002505               -0.00001626               -0.00139459
               0.99891279                1.99998601               33.06985384                0.01000000               -0.04147050               -0.06584245                0.21596783                0.02579872                0.00980060                0.00220260
               1.99873189                2.00087033               33.07006676                0.01000001               -0.01513081               -0.01501361                0.21594637                0.12261591                0.02872038                0.03659952
               2.99861017                2.00199699               33.07047343                0.01000000               -0.04395411                0.03391541                0.21641985                0.15971224                0.02710804                0.07253517
               3.99785280                2.00280491               33.07067477                0.01000000               -0.09765884                0.08491141                0.21641654                0.12197543               -0.02520788                0.11947611
               4.99665700                2.00234465               33.07003542                0.01000001               -0.11421405                0.07334937                0.21409606                0.07291316               -0.05583427                0.13917454
               5.99556852                2.00219490               33.06961054                0.01141544               -0.08659470                0.09961999                0.21233676                0.12600406               -0.02474704                0.19147412
               6.99492510                2.00265163               33.06957671                0.01620592               -0.06394664                0.01821598                0.21159980                0.12701719               -0.00495549                0.16512291
               7.99428959                2.00311307               33.06954748                0.01000000               -0.06336585                0.03442758                0.21088631                0.10870483               -0.00433309                0.17999863
               8.99365779                2.00357396               33.06952613                0.05590784               -0.06307157               -0.04455876                0.21019308                0.02074798               -0.00259710                0.01648457
               9.99302816                2.00403175               33.06953165                0.55952317               -0.06296279               -0.06438050                0.20954696                0.01187231               -0.00125629                0.01611433
              -0.00080335                2.99897291               33.06977537                0.50444459               -0.06464586               -0.06385577                0.21586570               -0.00013450                0.00002417               -0.00126688
               0.99855019                2.99932797               33.06980893                0.01000001               -0.00605378               -0.06553740                0.21519132                0.05344710                0.03065782                0.00197634
               1.99907557                3.00075028               33.07045490                0.01000000                0.03424899               -0.04382179                0.21633542                0.15987356                0.06165953                0.03577215
               2.99923517                3.00215246               33.07114610                0.01000000                0.01690017                0.01629180                0.21773612                0.20887663                0.07282534                0.08438203
               3.99941357                3.00361309               33.07204276                0.01197046               -0.02469756                0.03584383                0.21986686                0.18409686                0.05242878                0.12023704
               4.99874122                3.00383393               33.07235824                0.01000000               -0.05859383                0.12678634                0.22028710                0.23071236                0.05588967                0.23730896
               5.99824170                3.00481776               33.07332805                0.01812464               -0.08654945                0.13275750                0.22279484                0.18711294                0.01040671                0.25578397
               6.99701023                3.00365059               33.07274678                0.01000001               -0.11196068                0.07883630                0.22051782                0.19194462               -0.02493814                0.29783613
               7.99600248                3.00443555               33.07299107                0.01261101               -0.16989502                0.14665849                0.22147969                0.23646197               -0.16124128                0.41798110
               8.99361233                3.00331463               33.06966962                0.01417180               -0.15985067                0.29325713                0.21134525                0.27392287               -0.17200614                0.79685982
               9.99280547                3.00337419               33.06961869                0.52636775               -0.08068564                0.28386439                0.21046030                0.32326229               -0.00872172                0.81192990
              -0.00115151                3.99833415               33.06971298                0.54314205               -0.06441328               -0.06389407                0.21509138               -0.00015847                0.00004116               -0.00131271
               0.99820436                3.99867526               33.06976266                0.01000000                0.01281850               -0.06500771                0.21440658                0.04894904                0.04206896                0.00184093
               1.99910486                3.99999390               33.07065270                0.01000000                0.08602681               -0.09752372                0.21625566                0.12113882                0.10597146               -0.00907399
               2.99992490                4.00232282               33.07203056                0.01197133                0.03742055               -0.02561768                0.21978207                0.18338499                0.10490799                0.06360731
               3.99985328                4.00352179               33.07295026                0.01000000                0.00708407                0.00416333                0.22205310                0.18032495                0.11789765                0.13104574
               5.00006658                4.00488038               33.07461263                0.01802967               -0.01795779                0.03818794                0.22669354                0.13930201                0.06653495                0.14313329
               5.99949412                4.00485005               33.07454433                0.01000001               -0.04601861               -0.00244188                0.22602910                0.05515236                0.01891792                0.16045294
               6.99914621                4.00422836               33.07526321                0.01174191               -0.00696669                0.10375163                0.22780495                0.22385168                0.13853966                0.35542693
               7.99935479                4.00604624               33.07760877                0.01000000                0.05256977                0.19145783                0.23446440                0.49612176                0.47285865                0.60322259
               9.00019760                4.00943910               33.08506278                0.07485069                0.00097531                0.26887003                0.25694927                0.49964481                0.36428213                0.78025494
               9.99937429                4.00970903               33.08533550                0.56018807               -0.08233102                0.28423609                0.25722517                0.34485002                0.00498997                0.79548639
              -0.00148874                4.99769503               33.06964978                0.59563851               -0.06418390               -0.06389896                0.21431610               -0.00015037                0.00005222               -0.00134951
               0.99786942                4.99802781               33.06971506                0.02163529               -0.03302395               -0.06451208                0.21361749                0.02204025                0.01824883                0.00170724
               1.99785078                4.99879981               33.07014416                0.01000001                0.07527782               -0.11398905                0.21391027                0.07093680                0.12243832               -0.03639735
               2.99937498                5.00164011               33.07231676                0.01000000                0.13058685               -0.06026209                0.22011089                0.22762304                0.20915790                0.06516521
               4.00046252                5.00369636               33.07455343                0.01803113                0.04120067               -0.02047195                0.22658303                0.13738486                0.12500881                0.07928947
               5.00019899                5.00459769               33.07510859                0.01000001               -0.02328792               -0.02687346                0.22782357                0.03143769                0.07571871                0.08867260
               5.99999676                5.00476892               33.07637914                0.01174615                0.00460397                0.02541451                0.23134637                0.10009291                0.20902884                0.27449812
               7.00029107                5.00572562               33.07962721                0.01000000                0.03587063                0.14275291                0.24132501                0.27264467                0.40369433                0.46880071
               8.00071418                5.00826470               33.08484308                0.07350715               -0.01743237                0.07302907                0.25727384                0.19748602                0.25209683                0.36515106
               8.99994243                5.00869203               33.08512755                0.15604845               -0.07757837               -0.07627370                0.25751126                0.00813772                0.00289255                0.00674609
               9.99916261                5.00905891               33.08536356                0.60636518               -0.07798181               -0.06993218                0.25764834                0.00757088                0.00033592                0.00651504
              -0.00182008                5.99705617               33.06958590                0.66399042               -0.06395321               -0.06384045                0.21354102               -0.00013931                0.00006989               -0.00138644
               0.99754039                5.99738502               33.06966633                0.10853150               -0.06343070               -0.06408179                0.21282664                0.00010419                0.00186845                0.00158840
               1.99691131                5.99771412               33.06978271                0.01141871                0.10202097               -0.08640687                0.21209109                0.12310089                0.17033077               -0.01255350
               2.99958081                6.00111758               33.07323296                0.01812809                0.13660439               -0.08779439                0.22251116                0.18250764                0.21983884                0.02194122
               3.99964340                6.00311235               33.07445493                0.01000001                0.00209817               -0.04855083                0.22581736                0.05121843                0.13750889                0.02928970
               4.99962277                6.00434291               33.07628888                0.01174767                0.03623238               -0.00555495                0.23121876                0.09766724                0.25518031                0.21084477
               6.00036804                6.00535834               33.07989588                0.01000000                0.07402729                0.05671865                0.24267962                0.21057415                0.38937577                0.39069194
               7.00110332                6.00708342               33.08447927                0.07355554               -0.00149737                0.02988672                0.25704585                0.12833979                0.22084064                0.24408641
               8.00033810                6.00750682               33.08478906                0.15613561               -0.07685836               -0.07657660                0.25730080                0.00270140                0.00471828               -0.00118022
               8.99956615                6.00791363               33.08505457                0.26635299               -0.07730699               -0.07761110                0.25745950                0.00137345                0.00147575               -0.00057720
               9.99879196                6.00831039               33.08530252                0.67040313               -0.07741951               -0.07574959                0.25760732                0.00121986                0.00050612                0.00163471
              -0.00214921                6.99641822               33.06952133                0.75145986               -0.06372227               -0.06372399                0.21276907               -0.00012940                0.00011003               -0.00144231
               0.99721356                6.99674618               33.06961668                0.22390809               -0.06352743               -0.06371691                0.21203760               -0.00002141                0.00129159                0.00147503
               1.99658024                6.99707167               33.06973574                0.01621134                0.02066696               -0.06383851                0.21127700                0.12403963                0.14278041                0.00330450
               2.99762690                6.99988422               33.07266093                0.01000001                0.08406631               -0.11207229                0.22015029                0.18500430                0.25384275               -0.01379831
               3.99826156                7.00272534               33.07506372                0.01174553                0.11397214               -0.01510983                0.22745429                0.21487176                0.31403610                0.13571903
               4.99990635                7.00448659               33.07924378                0.01000000                0.16030855                0.01792283                0.24097054                0.26930099                0.43146156                0.37409643
               6.00146774                7.00590329               33.08408939                0.07355795                0.04015217               -0.01100874                0.25676316                0.12727899                0.23370123                0.21040340
               7.00070939                7.00632336               33.08441373                0.15618368               -0.07648723               -0.07655776                0.25703276                0.00156517                0.00555341               -0.00290836
               7.99993799                7.00673317               33.08470140                0.26649595               -0.07715337               -0.07729343                0.25720626                0.00056775                0.00288801               -0.00285505
               8.99916632                7.00713981               33.08497572                0.41883476               -0.07722553               -0.07730621                0.25737107                0.00029378                0.00134697               -0.00090982
               9.99839348                7.00754392               33.08523468                0.76020379               -0.07728417               -0.07685991                0.25752617                0.00026555                0.00053238                0.00129862
              -0.00247858                7.99578169               33.06945591                0.86271169               -0.06349094               -0.06356401                0.21200498               -0.00011981                0.00016807               -0.00152648
               0.99688651                7.99611068               33.06956604                0.37837477               -0.06336813               -0.06340938                0.21125571               -0.00000608                0.00091683                0.00135063
               1.99625406                7.99643735               33.06969130                0.01000000                0.03703560               -0.06323867                0.21048481                0.10564508                0.15303335                0.00322133
               2.99762722                7.99887614               33.07284375                0.01261747                0.15422025               -0.16708474                0.22090757                0.22128068                0.35657774               -0.12201134
               3.99933846                8.00281015               33.07710627                0.01000000                0.21018086                0.03297542                0.23392933                0.48698249                0.52408090                0.41308506
               5.00183084                8.00470136               33.08370986                0.07351388                0.08691950               -0.02775869                0.25642529                0.19325003                0.32075856                0.22409199
               6.00107685                8.00513816               33.08403871                0.15614442               -0.07630489               -0.07675681                0.25673636                0.00261577                0.00489586               -0.00236515
               7.00030474                8.00555226               33.08433058                0.26650392               -0.07719292               -0.07707733                0.25692506                0.00055318                0.00259857               -0.00325650
               7.99953300                8.00596095               33.08461704                0.41893406               -0.07717321               -0.07717594                0.25710464                0.00019532                0.00193930               -0.00242655
               8.99876128                8.00636750               33.08489805                0.63911291               -0.07719720               -0.07720093                0.25727677                0.00006328                0.00104272               -0.00086757
               9.99798905                8.00677319               33.08516774                0.89237602               -0.07722280               -0.07712627                0.25743777                0.00007157                0.00047706                0.00140102
              -0.00280958                8.99514694               33.06938951                1.00000000               -0.06326280               -0.06337343                0.21125412               -0.00011686                0.00022064               -0.00129656
               0.99655779                8.99547799               33.06951421                0.58881307               -0.06313668               -0.06314826                0.21048594                0.00000979                0.00039935                0.00099730
               1.99592768                8.99580690               33.06964272                0.05601874               -0.04390380               -0.06292430                0.20970802                0.02046179                0.01667821                0.00200120
               2.99567971                8.99654253               33.07009305                0.01438147                0.31241515               -0.15760731                0.21096655                0.24560502                0.67013180               -0.13578203
               4.00217599                9.00338485               33.08328416                0.07502974                0.28818093               -0.01253653                0.25557273                0.48460416                0.65297662                0.31065620
               5.00144333                9.00393141               33.08369275                0.15607782               -0.07534171               -0.07731723                0.25638830                0.00749533                0.00754045               -0.00042967
               6.00066915                9.00436816               33.08398154                0.26638013               -0.07728326               -0.07706612                0.25661813                0.00130233                0.00091435               -0.00174792
               6.99989767                9.00478181               33.08426145                0.41886884               -0.07712493               -0.07706014                0.25681127                0.00028233                0.00028196               -0.00167424
               7.99912665                9.00518965               33.08454015                0.63914819               -0.07711612               -0.07711331                0.25699757                0.00006163                0.00026413               -0.00135834
               8.99835535                9.00559579               33.08482107                0.97736113               -0.07715595               -0.07715406                0.25717730                0.00000886                0.00035659               -0.00066855
               9.99758354                9.00600139               33.08510181                0.99122020               -0.07718096               -0.07718199                0.25734241                0.00002416                0.00039474                0.00111576
              -0.00314301                9.99451423               33.06932882                0.99533511               -0.06302352               -0.06327173                0.21049884                0.00000583               -0.00086308               -0.00102842
               0.99622675                9.99484772               33.06945673                0.86522647               -0.06291134               -0.06302761                0.20972594                0.00012790               -0.00141583                0.00070367
               1.99559876                9.99517886               33.06957391                0.55961536               -0.06326900               -0.06280380                0.20896027                0.01092126                0.01021912                0.00098677
               2.99496137                9.99572399               33.06993468                0.52657692                0.30214496               -0.08185360                0.20996505                0.29719363                0.67384328               -0.00641375
               4.00164166               10.00255942               33.08332263                0.56036689                0.30180350               -0.08254325                0.25558137                0.31811860                0.65815788                0.00340550
               5.00099744               10.00315502               33.08367322                0.60639097               -0.06945777               -0.07763950                0.25625668                0.00728195                0.00236229               -0.00073635
               6.00025250               10.00359684               33.08394675                0.67042436               -0.07542735               -0.07713164                0.25649265                0.00113704               -0.00200531               -0.00076014
               6.99948889               10.00401106               33.08421237                0.76023269               -0.07661295               -0.07707515                0.25669098                0.00021474               -0.00245532               -0.00074619
               7.99872024               10.00441868               33.08447843                0.89241086               -0.07695892               -0.07709701                0.25688178                0.00002720               -0.00230522               -0.00061673
               8.99794972               10.00482442               33.08474746                0.99122059               -0.07709560               -0.07713705                0.25706436               -0.00001950               -0.00153928               -0.00045876
               9.99717833               10.00522955               33.08502806                1.00000000               -0.07713832               -0.07718416                0.25723046               -0.00000735               -0.00086339                0.00082865
               0.00035853                0.00095721               34.07213999                0.78665930               -0.06519647               -0.06518096                0.21805430               -0.00019227                0.00092455               -0.00090946
               0.99970656                0.00136575               34.07212744                0.52598542               -0.06468243               -0.06522144                0.21739940                0.00027586                0.00128500                0.00069594
               1.99906488                0.00178390               34.07212151                0.48246048               -0.06401159               -0.06487046                0.21674751                0.00003268                0.00134818               -0.00000201
               2.99842633                0.00222167               34.07210977                0.50447605               -0.06387946               -0.06469631                0.21608457               -0.00013245                0.00109537               -0.00005086
               3.99778729                0.00267650               34.07209814                0.54315448               -0.06393419               -0.06449511                0.21541994               -0.00015876                0.00117872               -0.00007713
               4.99714765                0.00314309               34.07208732                0.59562508               -0.06396942               -0.06429681                0.21475571               -0.00015123                0.00130708               -0.00009234
               5.99650790                0.00361644               34.07207753                0.66394147               -0.06395221               -0.06409763                0.21409385               -0.00013919                0.00145522               -0.00011066
               6.99586860                0.00409267               34.07206905                0.75135678               -0.06388472               -0.06389848                0.21343643               -0.00012681                0.00163704               -0.00015755
               7.99523021                0.00456899               34.07206247                0.86252200               -0.06377729               -0.06369898                0.21278808               -0.00011318                0.00188474               -0.00023559
               8.99459306                0.00504357               34.07205874                1.00000000               -0.06363613               -0.06350199                0.21215373               -0.00010442                0.00168386               -0.00034994
               9.99395748                0.00551526               34.07204817                0.99522728               -0.06355728               -0.06329589                0.21150697                0.00005562                0.00133116                0.00100296
              -0.00005194                1.00030540               34.07207483                0.52599049               -0.06520838               -0.06465516                0.21730910                0.00026477               -0.00069225               -0.00121741
               0.99929597                1.00071354               34.07206220                0.01325054               -0.06554049               -0.06553619                0.21665283                0.00112262               -0.00148170                0.00153567
               1.99863725                1.00113520               34.07203325                0.01000000               -0.06586327               -0.04174174                0.21598809                0.02543558               -0.00223258                0.01408637
               2.99797871                1.00157470               34.07200499                0.01000001               -0.06561287               -0.00715777                0.21530767                0.05250544               -0.00217583                0.03686371
               3.99732499                1.00203155               34.07197682                0.01000000               -0.06512727                0.01101689                0.21461937                0.04803304               -0.00214178                0.04914153
               4.99667616                1.00250012               34.07194916                0.02162441               -0.06466344               -0.03385582                0.21392650                0.02149797               -0.00209338                0.01818624
               5.99603172                1.00297546               34.07192207                0.10848147               -0.06425513               -0.06358417                0.21323255               -0.00003966               -0.00204419               -0.00174707
               6.99539106                1.00345368               34.07189561                0.22379284               -0.06390493               -0.06368212                0.21254034               -0.00009256               -0.00196008               -0.00163453
               7.99475362                1.00393200               34.07187044                0.37814100               -0.06360915               -0.06354540                0.21185556               -0.00003274               -0.00178871               -0.00134486
               8.99411888                1.00440855               34.07184761                0.58835601               -0.06336358               -0.06334426                0.21118282                0.00000526               -0.00128937               -0.00077878
               9.99348635                1.00488230               34.07183259                0.86491703               -0.06325258               -0.06315380                0.21052655                0.00016075               -0.00090732                0.00150054
              -0.00045246                1.99966410               34.07200292                0.48247024               -0.06483232               -0.06396690                0.21656282                0.00002423               -0.00001909               -0.00139519
               0.99889921                2.00005503               34.07201322                0.01000000               -0.04175573               -0.06582040                0.21590632                0.02546813                0.01014257                0.00219616
               1.99871242                2.00094907               34.07222637                0.01000001               -0.01595625               -0.01583905                0.21597314                0.12063119                0.02961185                0.03751310
               2.99858009                2.00207851               34.07263818                0.01000000               -0.04449457                0.03230138                0.21652890                0.15704772                0.02794150                0.07447924
               3.99782253                2.00289683               34.07283962                0.01000000               -0.09732011                0.08244044                0.21655368                0.11981248               -0.02583066                0.12284951
               4.99663369                2.00246597               34.07217640                0.01000001               -0.11344915                0.07105495                0.21408605                0.07155999               -0.05733227                0.14320104
               5.99555355                2.00234476               34.07173378                0.01141681               -0.08617359                0.09680482                0.21231158                0.12373679               -0.02538378                0.19722118
               6.99491022                2.00281902               34.07169261                0.01620849               -0.06394331                0.01678843                0.21158342                0.12469036               -0.00506032                0.17008491
               7.99427468                2.00329808               34.07165629                0.01000000               -0.06336780                0.03282808                0.21087787                0.10675147               -0.00441590                0.18583058
               8.99364286                2.00377669               34.07162805                0.05589885               -0.06307418               -0.04443903                0.21019340                0.02083947               -0.00264523                0.01755871
               9.99301320                2.00425218               34.07162719                0.55952102               -0.06296609               -0.06428931                0.20956414                0.01184077               -0.00128034                0.01711307
              -0.00083331                2.99902606               34.07193375                0.50449359               -0.06463164               -0.06382114                0.21580714               -0.00013741                0.00002149               -0.00126975
               0.99852037                2.99939713               34.07196062                0.01000001               -0.00701510               -0.06553133                0.21514279                0.05258772                0.03160342                0.00195446
               1.99902639                3.00081842               34.07261882                0.01000000                0.03257604               -0.04435784                0.21644645                0.15722371                0.06357019                0.03663007
               2.99917189                3.00222073               34.07332464                0.01000000                0.01536952                0.01488344                0.21796830                0.20545004                0.07514353                0.08673682
               3.99933378                3.00368035               34.07424311                0.01197020               -0.02562268                0.03412047                0.22020434                0.18103978                0.05414923                0.12368042
               4.99865944                3.00392122               34.07456278                0.01000000               -0.05901851                0.12363022                0.22063279                0.22668034                0.05779783                0.24434102
               5.99815341                3.00491156               34.07555819                0.01812588               -0.08639487                0.12933522                0.22321790                0.18368922                0.01092838                0.26335647
               6.99693154                3.00378945               34.07495359                0.01000001               -0.11112083                0.07632787                0.22083845                0.18835506               -0.02515014                0.30682650
               7.99593099                3.00458856               34.07520775                0.01263096               -0.16749898                0.14283790                0.22187632                0.23196990               -0.16539105                0.43070167
               8.99358156                3.00351977               34.07178371                0.01434325               -0.15794104                0.28682273                0.21147841                0.26707478               -0.17696272                0.82137697
               9.99277217                3.00359651               34.07172400                0.52651745               -0.08093932                0.27698666                0.21060610                0.31455709               -0.00901150                0.83687143
              -0.00119735                3.99838768               34.07186369                0.54317968               -0.06440333               -0.06385601                0.21504917               -0.00016245                0.00003912               -0.00131492
               0.99815861                3.99874440               34.07190655                0.01000000                0.01153249               -0.06501473                0.21437094                0.04810353                0.04337517                0.00181007
               1.99903330                4.00006191               34.07281592                0.01000000                0.08342697               -0.09720445                0.21639150                0.11914330                0.10930171               -0.00963314
               2.99982715                4.00237618               34.07423010                0.01197113                0.03547714               -0.02637692                0.22012302                0.18047118                0.10829877                0.06536506
               3.99974284                4.00357924               34.07517291                0.01000000                0.00544685                0.00292683                0.22248304                0.17732596                0.12177537                0.13496556
               4.99993609                4.00493858               34.07688251                0.01802974               -0.01918666                0.03634293                0.22726768                0.13685243                0.06882633                0.14740611
               5.99935910                4.00493146               34.07680715                0.01000001               -0.04678859               -0.00356407                0.22651455                0.05410293                0.01971629                0.16528053
               6.99900032                4.00434558               34.07754376                0.01174110               -0.00876720                0.10089861                0.22828320                0.21939121                0.14297350                0.36655822
               7.99918376                4.00615484               34.07995561                0.01000000                0.04880424                0.18689814                0.23490526                0.48604010                0.48757217                0.62174556
               8.99997640                4.00951314               34.08763543                0.07497009               -0.00164543                0.26221580                0.25755514                0.48829706                0.37562564                0.80360639
               9.99915085                4.00979192               34.08790996                0.56029525               -0.08255493                0.27722845                0.25764489                0.33573447                0.00513974                0.81929672
              -0.00155000                4.99774894               34.07179282                0.59566562               -0.06417813               -0.06386420                0.21429141               -0.00015475                0.00005061               -0.00135015
               0.99780821                4.99809684               34.07185112                0.02166271               -0.03362610               -0.06452669                0.21359472                0.02155065                0.01875965                0.00167167
               1.99777747                4.99887433               34.07228347                0.01000001                0.07278840               -0.11327109                0.21392958                0.06989635                0.12640950               -0.03783291
               2.99926398                5.00169319               34.07451960                0.01000000                0.12702128               -0.06043317                0.22045958                0.22412466                0.21607176                0.06710032
               4.00031790                5.00373889               34.07682216                0.01803037                0.03901445               -0.02136321                0.22716615                0.13520502                0.12921100                0.08162729
               5.00004427                5.00464808               34.07738963                0.01000001               -0.02447179               -0.02766214                0.22837248                0.03102820                0.07834514                0.09133611
               5.99982846                5.00484028               34.07869557                0.01174280                0.00258587                0.02399645                0.23191061                0.09834796                0.21599651                0.28333294
               7.00009599                5.00580742               34.08204367                0.01000000                0.03278853                0.13929544                0.24195445                0.26751204                0.41675133                0.48390066
               8.00048423                5.00832652               34.08741952                0.07349864               -0.01927814                0.07057564                0.25798954                0.19348793                0.26011079                0.37677353
               8.99971043                5.00876409               34.08770537                0.15605226               -0.07774639               -0.07644228                0.25803827                0.00808032                0.00293858                0.00711664
               9.99892931                5.00914108               34.08794178                0.60637267               -0.07811200               -0.07000839                0.25798601                0.00757538                0.00034124                0.00683005
              -0.00189625                5.99711040               34.07172128                0.66400101               -0.06395178               -0.06381425                0.21353512               -0.00014339                0.00006845               -0.00138427
               0.99746424                5.99745387               34.07179454                0.10854237               -0.06344455               -0.06409928                0.21281701                0.00004023                0.00185307                0.00155183
               1.99683486                5.99779649               34.07190347                0.01142001                0.09904216               -0.08601077                0.21206231                0.12128712                0.17600002               -0.01316011
               2.99944508                6.00116752               34.07546027                0.01812871                0.13285941               -0.08747431                0.22294695                0.17978453                0.22727099                0.02249738
               3.99949205                6.00315198               34.07671564                0.01000001                0.00050922               -0.04901317                0.22632010                0.05063354                0.14224899                0.03012770
               4.99945526                6.00438534               34.07860396                0.01174394                0.03373351               -0.00650242                0.23179818                0.09619399                0.26394698                0.21781538
               6.00016672                6.00541139               34.08232616                0.01000000                0.07045242                0.05480807                0.24336344                0.20682850                0.40243636                0.40376606
               7.00086431                6.00713149               34.08705362                0.07354248               -0.00349331                0.02808614                0.25780435                0.12585266                0.22805418                0.25210855
               8.00009686                6.00756635               34.08736502                0.15612269               -0.07704326               -0.07676766                0.25787620                0.00268254                0.00477057               -0.00111371
               8.99932345                6.00798429               34.08763117                0.26635214               -0.07742453               -0.07772760                0.25784708                0.00136822                0.00148211               -0.00053907
               9.99854837                6.00839175               34.08787964                0.67040798               -0.07750825               -0.07580963                0.25780577                0.00123568                0.00051285                0.00169084
              -0.00223982                6.99647265               34.07164909                0.75144528               -0.06372549               -0.06371006                0.21278295               -0.00013247                0.00010827               -0.00143454
               0.99712293                6.99681485               34.07173708                0.22388865               -0.06353083               -0.06373359                0.21204126               -0.00005296                0.00127191                0.00144186
               1.99648957                6.99715411               34.07184840                0.01621373                0.01906264               -0.06383664                0.21125830                0.12216305                0.14765312                0.00323169
               2.99750418                6.99994371               34.07486409                0.01000001                0.08115929               -0.11122372                0.22048600                0.18240144                0.26265993               -0.01402047
               3.99811275                7.00275863               34.07734086                0.01174486                0.11022801               -0.01600105                0.22795979                0.21149318                0.32500364                0.14016478
               4.99970874                7.00451803               34.08165683                0.01000000                0.15530637                0.01665349                0.24163671                0.26469101                0.44638405                0.38702746
               6.00121888                7.00593644               34.08666109                0.07354522                0.03746697               -0.01211846                0.25755553                0.12494783                0.24163838                0.21760684
               7.00045808                7.00636915               34.08698721                0.15616956               -0.07668994               -0.07675417                0.25764598                0.00155713                0.00560776               -0.00286192
               7.99968508                7.00679117               34.08727566                0.26648997               -0.07728437               -0.07742362                0.25763330                0.00056898                0.00289706               -0.00284526
               8.99891239                7.00720953               34.08755068                0.41885636               -0.07729848               -0.07737787                0.25760988                0.00029227                0.00135315               -0.00088969
               9.99813911                7.00762489               34.08781021                0.76022478               -0.07732821               -0.07687538                0.25757576                0.00028531                0.00053759                0.00133188
              -0.00258329                7.99583619               34.07157612                0.86265281               -0.06349907               -0.06356398                0.21203925               -0.00012125                0.00016556               -0.00150856
               0.99678172                7.99617920               34.07167867                0.37829690               -0.06337219               -0.06342324                0.21127259               -0.00001836                0.00090135                0.00132595
               1.99614927                7.99651975               34.07179610                0.01000000                0.03534361               -0.06324127                0.21047424                0.10415722                0.15870932                0.00316624
               2.99748859                7.99894304               34.07505481                0.01263800                0.14991622               -0.16503423                0.22130756                0.21861352                0.36904559               -0.12604055
               3.99914759                8.00283196               34.07944806                0.01000000                0.20413400                0.03126245                0.23441755                0.47837944                0.54226469                0.42750162
               5.00157127                8.00471841               34.08627834                0.07350409                0.08334872               -0.02859694                0.25725642                0.18987308                0.33211134                0.23200380
               6.00081457                8.00516902               34.08660940                0.15613118               -0.07652733               -0.07695746                0.25738374                0.00261007                0.00497062               -0.00231959
               7.00004073                8.00559641               34.08690221                0.26649679               -0.07733595               -0.07721844                0.25738887                0.00055668                0.00261436               -0.00325286
               7.99926785                8.00601788               34.08718951                0.41895160               -0.07725768               -0.07726003                0.25738066                0.00019673                0.00195243               -0.00241751
               8.99849557                8.00643674               34.08747128                0.63919167               -0.07722444               -0.07722695                0.25736382                0.00006308                0.00105071               -0.00084981
               9.99772336                8.00685424               34.08774161                0.89243675               -0.07722140               -0.07709483                0.25733547                0.00009251                0.00048143                0.00142790
              -0.00292825                8.99520137               34.07150232                1.00000000               -0.06327529               -0.06338570                0.21130801               -0.00011607                0.00021629               -0.00127538
               0.99643900                8.99554639               34.07161920                0.58861311               -0.06314453               -0.06316022                0.21051494                0.00000757                0.00038853                0.00098326
               1.99580886                8.99588929               34.07173979                0.05601079               -0.04373770               -0.06292720                0.20970783                0.02066245                0.01771180                0.00196916
               2.99556425                8.99664302               34.07220321                0.01456129                0.30480576               -0.15605812                0.21108377                0.24176707                0.69407016               -0.14058016
               4.00190498                9.00338388               34.08584400                0.07515572                0.28024467               -0.01381381                0.25636726                0.47542400                0.67574440                0.32172819
               5.00116914                9.00394609               34.08626009                0.15608060               -0.07559492               -0.07752614                0.25706316                0.00751360                0.00789879               -0.00038419
               6.00039308                9.00439729               34.08655028                0.26637599               -0.07743923               -0.07721600                0.25711498                0.00130796                0.00095565               -0.00174438
               6.99962036                9.00482478               34.08683118                0.41888523               -0.07721976               -0.07715496                0.25712356                0.00028261                0.00030546               -0.00167062
               7.99884869                9.00524597               34.08711078                0.63922079               -0.07715317               -0.07715159                0.25712127                0.00006166                0.00028402               -0.00135245
               8.99807729                9.00566500               34.08739252                0.97757288               -0.07713661               -0.07713501                0.25711084                0.00000857                0.00036812               -0.00065835
               9.99730595                9.00608299               34.08767394                0.99140394               -0.07713395               -0.07710338                0.25708617                0.00004682                0.00039890                0.00113023
              -0.00327563                9.99456848               34.07143416                0.99522990               -0.06304059               -0.06328925                0.21056884                0.00001227               -0.00085177               -0.00101069
               0.99609396                9.99491599               34.07155420                0.86508219               -0.06292438               -0.06303931                0.20976934                0.00013229               -0.00140116                0.00069419
               1.99546588                9.99526121               34.07166360                0.55961511               -0.06323084               -0.06280750                0.20898036                0.01099587                0.01115373                0.00097071
               2.99482934                9.99582188               34.07203493                0.52673597                0.29435618               -0.08211421                0.21010012                0.29123314                0.69811092               -0.00668655
               4.00135300               10.00255568               34.08588179                0.56048109                0.29393936               -0.08281941                0.25622565                0.31210234                0.68130711                0.00355032
               5.00070813               10.00316788               34.08623845                0.60639769               -0.06954798               -0.07782103                0.25677700                0.00734985                0.00265864               -0.00072995
               5.99996204               10.00362470               34.08651344                0.67042646               -0.07552152               -0.07725901                0.25683615                0.00116736               -0.00195138               -0.00075420
               6.99919770               10.00405331               34.08678012                0.76024950               -0.07665901               -0.07714689                0.25684997                0.00024169               -0.00242185               -0.00074163
               7.99842886               10.00447485               34.08704711                0.89246621               -0.07694904               -0.07711219                0.25685231                0.00005410               -0.00227873               -0.00061292
               8.99765872               10.00489404               34.08731699                0.99140396               -0.07702825               -0.07709582                0.25684463                0.00000892               -0.00152514               -0.00045525
               9.99688830               10.00531217               34.08759828                1.00000000               -0.07704219               -0.07708204                0.25682088                0.00004803               -0.00085999                0.00083227
               0.00038361                0.00101699               35.07431999                0.78674393               -0.06516573               -0.06515062                0.21794247               -0.00018836                0.00092723               -0.00091190
               0.99973195                0.00144169               35.07430096                0.52610799               -0.06465432               -0.06519388                0.21730177                0.00027300                0.00129138                0.00069672
               1.99909053                0.00187592               35.07428857                0.48252932               -0.06398179               -0.06484976                0.21666347                0.00003259                0.00135593               -0.00000467
               2.99845232                0.00232980               35.07427027                0.50452870               -0.06384302               -0.06467955                0.21601497               -0.00013450                0.00110238               -0.00005405
               3.99781367                0.00280104               35.07425207                0.54319786               -0.06389611               -0.06448204                0.21536517               -0.00016175                0.00118893               -0.00008006
               4.99717440                0.00328446               35.07423469                0.59565541               -0.06393505               -0.06428770                0.21471742               -0.00015451                0.00132107               -0.00009498
               5.99653496                0.00377509               35.07421836                0.66395504               -0.06392568               -0.06409246                0.21407229               -0.00014218                0.00147389               -0.00011331
               6.99589588                0.00426900               35.07420340                0.75134018               -0.06386882               -0.06389786                0.21343279               -0.00012900                0.00166324               -0.00016091
               7.99525759                0.00476331               35.07419042                0.86246218               -0.06377304               -0.06370255                0.21280204               -0.00011413                0.00192265               -0.00024036
               8.99462042                0.00525602               35.07418043                1.00000000               -0.06364220               -0.06350948                0.21218489               -0.00010351                0.00172145               -0.00035773
               9.99398474                0.00574587               35.07416346                0.99511574               -0.06356785               -0.06330777                0.21155301                0.00005982                0.00136118                0.00102359
              -0.00004297                1.00036548               35.07424746                0.52611330               -0.06518095               -0.06462732                0.21721364                0.00026202               -0.00069496               -0.00121807
               0.99930522                1.00078975               35.07422834                0.01322279               -0.06551173               -0.06550837                0.21657157                0.00110909               -0.00148761                0.00153732
               1.99864679                1.00122742               35.07419281                0.01000000               -0.06584014               -0.04204438                0.21592055                0.02509479               -0.00225299                0.01447582
               2.99798842                1.00168301               35.07415780                0.01000001               -0.06560366               -0.00814407                0.21525323                0.05161144               -0.00221166                0.03789678
               3.99733472                1.00215622               35.07412281                0.01000000               -0.06512953                0.00972872                0.21457738                0.04714408               -0.00218710                0.05054823
               4.99668583                1.00264158               35.07408829                0.02165374               -0.06467252               -0.03447055                0.21389748                0.02098708               -0.00214423                0.01867720
               5.99604127                1.00313416               35.07405431                0.10849490               -0.06426709               -0.06359435                0.21321583               -0.00009396               -0.00209676               -0.00178267
               6.99540048                1.00363002               35.07402099                0.22377343               -0.06391666               -0.06368300                0.21253638               -0.00011847               -0.00200929               -0.00167011
               7.99476294                1.00412628               35.07398903                0.37805912               -0.06361886               -0.06354693                0.21186353               -0.00004259               -0.00182913               -0.00137406
               8.99412811                1.00462093               35.07395953                0.58815007               -0.06337207               -0.06334930                0.21120199                0.00000336               -0.00131599               -0.00079714
               9.99349550                1.00511279               35.07393801                0.86476776               -0.06326110               -0.06316352                0.21055913                0.00016277               -0.00092618                0.00152994
              -0.00045968                1.99972444               35.07416817                0.48254019               -0.06481211               -0.06393628                0.21648315                0.00002397               -0.00002194               -0.00139580
               0.99889220                2.00013152               35.07417196                0.01000000               -0.04205775               -0.06580072                0.21583969                0.02512810                0.01052187                0.00218664
               1.99869916                2.00103503               35.07438622                0.01000001               -0.01682208               -0.01670423                0.21599202                0.11857790                0.03058330                0.03850509
               2.99855575                2.00216692               35.07480400                0.01000000               -0.04505942                0.03061382                0.21663207                0.15429553                0.02883804                0.07657226
               3.99779797                2.00299561               35.07500584                0.01000000               -0.09697822                0.07985984                0.21668383                0.11759099               -0.02651265                0.12643077
               4.99661619                2.00259505               35.07431714                0.01000001               -0.11266659                0.06865313                0.21408984                0.07019288               -0.05891992                0.14742898
               5.99554464                2.00250320               35.07385677                0.01141790               -0.08573973                0.09386767                0.21228503                0.12142405               -0.02603671                0.20317571
               6.99490140                2.00299534               35.07380838                0.01621018               -0.06394045                0.01529734                0.21156971                0.12231768               -0.00517684                0.17520600
               7.99426583                2.00349237               35.07376504                0.01000000               -0.06337077                0.03119874                0.21087287                0.10476531               -0.00451238                0.19187377
               8.99363398                2.00398904               35.07373000                0.05589463               -0.06307806               -0.04430698                0.21019775                0.02094722               -0.00270194                0.01870470
               9.99300427                2.00448260               35.07372293                0.55952222               -0.06297084               -0.06419727                0.20958599                0.01181455               -0.00130840                0.01818886
              -0.00085665                2.99908676               35.07409152                0.50454475               -0.06461592               -0.06378268                0.21574434               -0.00014010                0.00001855               -0.00127046
               0.99849719                2.99947373               35.07411179                0.01000001               -0.00801999               -0.06552802                0.21509082                0.05170097                0.03262295                0.00192914
               1.99898295                3.00089334               35.07478383                0.01000000                0.03082791               -0.04492261                0.21655162                0.15448680                0.06563363                0.03754864
               2.99911375                3.00229528               35.07550547                0.01000000                0.01377330                0.01341235                0.21819273                0.20191012                0.07760661                0.08923226
               3.99925842                3.00375341               35.07644684                0.01197010               -0.02658282                0.03232188                0.22053655                0.17788806                0.05598032                0.12732271
               4.99858209                3.00401464               35.07677089                0.01000000               -0.05944800                0.12033010                0.22097435                0.22253885                0.05979000                0.25171324
               5.99806946                3.00501152               35.07779241                0.01812651               -0.08622112                0.12575400                0.22362939                0.18019408                0.01147985                0.27123140
               6.99685767                3.00393597               35.07716354                0.01000001               -0.11024528                0.07370540                0.22115638                0.18472836               -0.02532399                0.31608347
               7.99586455                3.00475026               35.07742860                0.01265475               -0.16504244                0.13885041                0.22228248                0.22737690               -0.16960081                0.44367381
               8.99355682                3.00373479               35.07389919                0.01452939               -0.15599438                0.28002651                0.21163073                0.26001877               -0.18207281                0.84619643
               9.99274466                3.00382885               35.07383082                0.52668040               -0.08121587                0.26972917                0.21077262                0.30559383               -0.00931208                0.86201642
              -0.00123644                3.99844879               35.07401396                0.54322210               -0.06439238               -0.06381582                0.21500460               -0.00016629                0.00003664               -0.00131267
               0.99811963                3.99882096               35.07405007                0.01000000                0.01018952               -0.06502419                0.21433385                0.04722822                0.04476499                0.00177563
               1.99896735                4.00013658               35.07498053                0.01000000                0.08071242               -0.09688702                0.21652873                0.11708776                0.11284446               -0.01024859
               2.99973388                4.00243517               35.07643302                0.01197070                0.03345138               -0.02716727                0.22046092                0.17747260                0.11189735                0.06722729
               3.99963638                4.00364205               35.07739993                0.01000000                0.00374900                0.00163810                0.22291358                0.17423845                0.12583585                0.13907177
               4.99980886                4.00500165               35.07915798                0.01802947               -0.02045897                0.03441560                0.22782513                0.13433140                0.07122211                0.15184956
               5.99922720                4.00501828               35.07907462                0.01000001               -0.04758197               -0.00474698                0.22698670                0.05305037                0.02055872                0.17024852
               6.99885722                4.00446945               35.07982888                0.01174163               -0.01063210                0.09789022                0.22875861                0.21477893                0.14749511                0.37790059
               7.99901455                4.00626938               35.08230688                0.01000000                0.04492716                0.18202549                0.23532467                0.47551261                0.50246488                0.64047761
               8.99975577                4.00958957               35.09021388                0.07510131               -0.00432609                0.25519203                0.25811736                0.47649573                0.38712921                0.82729191
               9.99892803                4.00987718               35.09048840                0.56041221               -0.08277337                0.26984946                0.25803044                0.32635882                0.00529041                0.84334277
              -0.00160432                4.99781044               35.07393561                0.59569573               -0.06417165               -0.06382838                0.21426524               -0.00015899                0.00004848               -0.00134498
               0.99775396                4.99817325               35.07398695                0.02169389               -0.03425919               -0.06454310                0.21357147                0.02103890                0.01927771                0.00163168
               1.99771050                4.99895560               35.07442275                0.01000001                0.07018850               -0.11252966                0.21390957                0.06884597                0.13057893               -0.03936398
               2.99915773                5.00175194               35.07672595                0.01000000                0.12331047               -0.06060665                0.22081323                0.22053775                0.22334001                0.06912450
               4.00017670                5.00378617               35.07909675                0.01803036                0.03673770               -0.02229269                0.22773799                0.13296656                0.13359963                0.08407383
               4.99989249                5.00470296               35.07967603                0.01000001               -0.02570219               -0.02848154                0.22890522                0.03063688                0.08105316                0.09410254
               5.99966266                5.00491658               35.08101736                0.01174054                0.00048328                0.02249290                0.23245447                0.09653686                0.22311853                0.29235409
               6.99990215                5.00589378               35.08446629                0.01000000                0.02960127                0.13562953                0.24257048                0.26212539                0.43003726                0.49923938
               8.00025469                5.00839077               35.09000287                0.07349309               -0.02116110                0.06795104                0.25866741                0.18931260                0.26825682                0.38860198
               8.99947893                5.00883863               35.09028831                0.15606211               -0.07790392               -0.07660126                0.25852942                0.00802389                0.00298659                0.00753272
               9.99869661                5.00922584               35.09052328                0.60638303               -0.07823223               -0.07007031                0.25829598                0.00758300                0.00034667                0.00718856
              -0.00196525                5.99717222               35.07385660                0.66401238               -0.06395006               -0.06378775                0.21352857               -0.00014723                0.00006648               -0.00137518
               0.99739525                5.99753010               35.07392267                0.10855412               -0.06345880               -0.06411810                0.21280781               -0.00002537                0.00182895                0.00151020
               1.99676558                5.99788599               35.07402395                0.01142114                0.09594029               -0.08559587                0.21203456                0.11943651                0.18189182               -0.01379816
               2.99931406                6.00122304               35.07769190                0.01812962                0.12895556               -0.08713333                0.22337403                0.17700582                0.23503722                0.02309091
               3.99934469                6.00319619               35.07898133                0.01000001               -0.00114316               -0.04949790                0.22680918                0.05005882                0.14715249                0.03100329
               4.99929120                6.00443202               35.08092485                0.01174210                0.03112117               -0.00751019                0.23236024                0.09466309                0.27290170                0.22495011
               5.99996711                6.00546814               35.08476315                0.01000000                0.06671723                0.05278073                0.24402581                0.20287422                0.41571761                0.41707582
               7.00062554                6.00718204               35.08963536                0.07353327               -0.00555803                0.02618712                0.25852265                0.12325396                0.23539544                0.26026950
               7.99985595                6.00762840               35.08994658                0.15611480               -0.07721831               -0.07694970                0.25841734                0.00266411                0.00482473               -0.00103767
               8.99908117                6.00805754               35.09021151                0.26635442               -0.07753369               -0.07783615                0.25820710                0.00136407                0.00148780               -0.00049364
               9.99830528                6.00847578               35.09045864                0.67041324               -0.07758958               -0.07586285                0.25798496                0.00125083                0.00051944                0.00175378
              -0.00232302                6.99653468               35.07377699                0.75142711               -0.06372902               -0.06369625                0.21279721               -0.00013539                0.00010580               -0.00141830
               0.99703969                6.99689089               35.07385751                0.22386797               -0.06353459               -0.06375127                0.21204643               -0.00008474                0.00124595                0.00140373
               1.99640629                6.99724368               35.07396090                0.01621565                0.01739764               -0.06383498                0.21124098                0.12024551                0.15270308                0.00314212
               2.99738764                7.00000927               35.07707065                0.01000001                0.07813060               -0.11034172                0.22081720                0.17973236                0.27177037               -0.01422620
               3.99796890                7.00279622               35.07962292                0.01174490                0.10630809               -0.01695740                0.22845864                0.20795080                0.33619673                0.14469066
               4.99951380                7.00455275               35.08407652                0.01000000                0.15006115                0.01530803                0.24230276                0.25982577                0.46158258                0.40020613
               6.00097012                7.00597219               35.08924050                0.07353504                0.03465847               -0.01327783                0.25831340                0.12250235                0.24972575                0.22493904
               7.00020697                7.00641752               35.08956665                0.15616001               -0.07688267               -0.07694052                0.25822381                0.00154772                0.00566773               -0.00281091
               7.99943247                7.00685177               35.08985407                0.26648763               -0.07740696               -0.07754569                0.25803287                0.00057064                0.00290738               -0.00283357
               8.99865883                7.00728191               35.09012792                0.41887909               -0.07736562               -0.07744384                0.25782947                0.00029112                0.00135895               -0.00086741
               9.99788516                7.00770858               35.09038619                0.76024659               -0.07736773               -0.07688741                0.25761453                0.00030396                0.00054271                0.00136724
              -0.00268036                7.99589829               35.07369669                0.86259156               -0.06350738               -0.06356408                0.21207377               -0.00012258                0.00016173               -0.00148182
               0.99668456                7.99625507               35.07379149                0.37821150               -0.06337664               -0.06343777                0.21129100               -0.00003032                0.00087828                0.00129594
               1.99605210                7.99660929               35.07390078                0.01000000                0.03358033               -0.06324472                0.21046667                0.10263767                0.16459345                0.00309515
               2.99735617                7.99901620               35.07726990                0.01266015                0.14540608               -0.16292319                0.22173274                0.21585116                0.38181719               -0.13016146
               3.99896023                8.00285705               35.08179462                0.01000000                0.19777829                0.02947385                0.23493993                0.46935392                0.56078704                0.44217515
               5.00131174                8.00473818               35.08885499                0.07349912                0.07960839               -0.02945658                0.25804186                0.18633824                0.34372595                0.24006146
               6.00055239                8.00520258               35.08918639                0.15612087               -0.07674107               -0.07714838                0.25799810                0.00260516                0.00504737               -0.00226880
               6.99977691                8.00564323               35.08947835                0.26649335               -0.07747081               -0.07735112                0.25782461                0.00056042                0.00263284               -0.00324705
               7.99900298                8.00607748               35.08976465                0.41897076               -0.07733617               -0.07733821                0.25763708                0.00019832                0.00196595               -0.00240752
               8.99823019                8.00650867               35.09004533                0.63927035               -0.07724823               -0.07724957                0.25743945                0.00006299                0.00105869               -0.00083172
               9.99745801                8.00693803               35.09031445                0.89249827               -0.07721780               -0.07706244                0.25722999                0.00011241                0.00048595                0.00145483
              -0.00303903                8.99526340               35.07361567                1.00000000               -0.06328820               -0.06339822                0.21136283               -0.00011504                0.00021032               -0.00124790
               0.99632809                8.99562213               35.07372451                0.58840377               -0.06315307               -0.06317291                0.21054638                0.00000541                0.00037392                0.00096427
               1.99569791                8.99597879               35.07383688                0.05600915               -0.04355924               -0.06293145                0.20971208                0.02088373                0.01881986                0.00192942
               2.99545691                8.99675081               35.07431472                0.01475610                0.29680446               -0.15446842                0.21122628                0.23780683                0.71841952               -0.14553067
               4.00163400                9.00338569               35.08841150                0.07529369                0.27190630               -0.01510969                0.25711262                0.46584303                0.69895867                0.33302031
               5.00089503                9.00396362               35.08883401                0.15608822               -0.07584137               -0.07772429                0.25770128                0.00753769                0.00830032               -0.00034329
               6.00011717                9.00442922               35.08912384                0.26637406               -0.07758761               -0.07735768                0.25758471                0.00131464                0.00100351               -0.00173936
               6.99934328                9.00487050               35.08940393                0.41890281               -0.07730857               -0.07724362                0.25741525                0.00028305                0.00033129               -0.00166665
               7.99857100                9.00530501               35.08968258                0.63929467               -0.07718651               -0.07718615                0.25723268                0.00006178                0.00030431               -0.00134591
               8.99779955                9.00573691               35.08996329                0.97778704               -0.07711615               -0.07711483                0.25704074                0.00000842                0.00037911               -0.00064830
               9.99702868                9.00616733               35.09024353                0.99158340               -0.07708708               -0.07702626                0.25683471                0.00006838                0.00040284                0.00114408
              -0.00340012                9.99463033               35.07354020                0.99511868               -0.06305860               -0.06330721                0.21064110                0.00001872               -0.00083657               -0.00098867
               0.99596929                9.99499161               35.07365211                0.86493054               -0.06293856               -0.06305193                0.20981651                0.00013632               -0.00138058                0.00068078
               1.99534110                9.99535066               35.07375352                0.55961920               -0.06319450               -0.06281274                0.20900578                0.01108033                0.01217096                0.00095097
               2.99470540                9.99592683               35.07413669                0.52690802                0.28615856               -0.08239754                0.21025854                0.28505914                0.72270389               -0.00696710
               4.00106428               10.00255485               35.08844715                0.56060463                0.28567799               -0.08308410                0.25682834                0.30587056                0.70481726                0.00369736
               5.00041896               10.00318369               35.08880876                0.60640741               -0.06962317               -0.07799272                0.25726882                0.00742164                0.00299635               -0.00072424
               5.99967181               10.00365543               35.08908347                0.67043020               -0.07560837               -0.07737953                0.25716003                0.00119725               -0.00189005               -0.00074767
               6.99890679               10.00409836               35.08934937                0.76026656               -0.07670085               -0.07721367                0.25699610                0.00026788               -0.00238562               -0.00073688
               7.99813779               10.00453376               35.08961547                0.89252129               -0.07693765               -0.07712473                0.25681815                0.00007987               -0.00225138               -0.00060880
               8.99736804               10.00496637               35.08988435                0.99158430               -0.07696217               -0.07705461                0.25662903                0.00003610               -0.00151143               -0.00045172
               9.99659855               10.00539750               35.09016448                1.00000000               -0.07694872               -0.07698265                0.25642392                0.00010079               -0.00085675                0.00083565
               0.00041513                0.00108404               36.07649884                0.78683504               -0.06513209               -0.06511738                0.21782267               -0.00018395                0.00092974               -0.00091405
               0.99976381                0.00152493               36.07647348                0.52624002               -0.06462205               -0.06516477                0.21719722                0.00027173                0.00129789                0.00069721
               1.99912269                0.00197534               36.07645478                0.48260394               -0.06394663               -0.06482761                0.21657451                0.00003319                0.00136421               -0.00000776
               2.99848488                0.00244552               36.07643006                0.50458503               -0.06380201               -0.06466158                0.21594158               -0.00013648                0.00111064               -0.00005777
               3.99784665                0.00293342               36.07640544                0.54324153               -0.06385494               -0.06446838                0.21530850               -0.00016470                0.00120230               -0.00008338
               4.99720778                0.00343400               36.07638167                0.59568707               -0.06389891               -0.06427839                0.21467823               -0.00015778                0.00134008               -0.00009811
               5.99656867                0.00394228               36.07635898                0.66396678               -0.06389818               -0.06408747                0.21405082               -0.00014525                0.00149919               -0.00011634
               6.99592982                0.00445427               36.07633771                0.75132544               -0.06385243               -0.06389727                0.21342931               -0.00013123                0.00169666               -0.00016492
               7.99529162                0.00496696               36.07631851                0.86239463               -0.06376888               -0.06370660                0.21281719               -0.00011495                0.00196700               -0.00024606
               8.99465444                0.00547822               36.07630244                1.00000000               -0.06364887               -0.06351777                0.21221828               -0.00010247                0.00176434               -0.00036669
               9.99401865                0.00598664               36.07627923                0.99499884               -0.06357920               -0.06332056                0.21160189                0.00006407                0.00139550                0.00104718
              -0.00002761                1.00043286               36.07641910                0.52624516               -0.06515201               -0.06459532                0.21711134                0.00026096               -0.00069759               -0.00121833
               0.99932087                1.00087329               36.07639364                0.01319408               -0.06548342               -0.06548093                0.21648437                0.00109957               -0.00149322                0.00153809
               1.99866273                1.00132707               36.07635167                0.01000000               -0.06582015               -0.04235969                0.21584871                0.02474913               -0.00227415                0.01489844
               2.99800447                1.00179891               36.07631006                0.01000001               -0.06559805               -0.00916155                0.21519572                0.05070122               -0.00224986                0.03899990
               3.99735077                1.00228874               36.07626837                0.01000000               -0.06513482                0.00839964                0.21453416                0.04623993               -0.00223524                0.05203106
               4.99670178                1.00279122               36.07622711                0.02168666               -0.06468402               -0.03510269                0.21386821                0.02046209               -0.00219807                0.01919374
               5.99605708                1.00330140               36.07618639                0.10850764               -0.06428074               -0.06360523                0.21319981               -0.00015085               -0.00215234               -0.00182684
               6.99541616                1.00381529               36.07614634                0.22375195               -0.06392941               -0.06368407                0.21253311               -0.00014542               -0.00206209               -0.00171240
               7.99477850                1.00432989               36.07610771                0.37797288               -0.06362935               -0.06354886                0.21187307               -0.00005277               -0.00187452               -0.00140823
               8.99414357                1.00484304               36.07607165                0.58793320               -0.06338142               -0.06335501                0.21122370                0.00000162               -0.00134666               -0.00081820
               9.99351087                1.00535343               36.07604377                0.86461176               -0.06327052               -0.06317426                0.21059496                0.00016505               -0.00094771                0.00156361
              -0.00046050                1.99979213               36.07633259                0.48261389               -0.06479062               -0.06390042                0.21639881                0.00002452               -0.00002506               -0.00139512
               0.99889160                2.00021531               36.07633002                0.01000000               -0.04237275               -0.06578413                0.21576913                0.02478331                0.01093560                0.00217527
               1.99869205                2.00112815               36.07654621                0.01000001               -0.01771855               -0.01759930                0.21600406                0.11648168                0.03163389                0.03957401
               2.99853723                2.00226229               36.07697083                0.01000000               -0.04564540                0.02887272                0.21672771                0.15149034                0.02979444                0.07881017
               3.99777914                2.00310142               36.07717330                0.01000000               -0.09664336                0.07719933                0.21680617                0.11534221               -0.02722898                0.13021412
               4.99660436                2.00273195               36.07645820                0.01000001               -0.11187833                0.06617161                0.21409357                0.06883248               -0.06059426                0.15183890
               5.99554157                2.00267017               36.07597948                0.01141845               -0.08529735                0.09084720                0.21225978                0.11909555               -0.02673532                0.20933998
               6.99489841                2.00318059               36.07592400                0.01621085               -0.06393780                0.01376644                0.21155619                0.11992640               -0.00530476                0.18048943
               7.99426282                2.00369598               36.07587374                0.01000000               -0.06337412                0.02951511                0.21086815                0.10276842               -0.00462089                0.19811463
               8.99363093                2.00421112               36.07583200                0.05589391               -0.06308263               -0.04416159                0.21020429                0.02107434               -0.00276653                0.01993385
               9.99300117                2.00472315               36.07581891                0.55952734               -0.06297643               -0.06410304                0.20961166                0.01179352               -0.00134037                0.01935441
              -0.00087348                2.99915485               36.07624864                0.50460094               -0.06459934               -0.06373982                0.21567824               -0.00014272                0.00001520               -0.00126850
               0.99848052                2.99955760               36.07626243                0.01000001               -0.00905675               -0.06552819                0.21503639                0.05079861                0.03371374                0.00190105
               1.99894538                3.00097508               36.07694985                0.01000000                0.02902434               -0.04550666                0.21664901                0.15169752                0.06784481                0.03852979
               2.99906101                3.00237636               36.07768850                0.01000000                0.01212881                0.01189758                0.21840590                0.19830609                0.08020831                0.09186846
               3.99918796                3.00383273               36.07865384                0.01196971               -0.02756694                0.03046782                0.22086143                0.17468681                0.05791272                0.13116500
               4.99850967                3.00411465               36.07898227                0.01000000               -0.05988013                0.11692423                0.22130787                0.21835488                0.06187339                0.25939848
               5.99799035                3.00511834               36.08003078                0.01812731               -0.08603973                0.12206581                0.22404108                0.17668922                0.01207607                0.27942771
               6.99678888                3.00409062               36.07937672                0.01000001               -0.10935121                0.07101286                0.22147618                0.18106973               -0.02547835                0.32562709
               7.99580333                3.00492020               36.07965340                0.01267996               -0.16254934                0.13470665                0.22270948                0.22272102               -0.17387854                0.45688597
               8.99353789                3.00395981               36.07601632                0.01473043               -0.15403290                0.27293672                0.21181215                0.25288554               -0.18731141                0.87130118
               9.99272267                3.00407137               36.07593945                0.52685537               -0.08152169                0.26215781                0.21096861                0.29647927               -0.00962171                0.88735199
              -0.00126885                3.99851733               36.07616378                0.54326649               -0.06438079               -0.06377262                0.21495757               -0.00017019                0.00003356               -0.00130672
               0.99808734                3.99890475               36.07619322                0.01000000                0.00880435               -0.06503641                0.21429514                0.04633944                0.04623712                0.00173699
               1.99890724                4.00021801               36.07714649                0.01000000                0.07791785               -0.09657294                0.21665698                0.11500844                0.11659527               -0.01092629
               2.99964570                4.00250024               36.07863932                0.01197069                0.03136766               -0.02797788                0.22078597                0.17442661                0.11569518                0.06919819
               3.99953459                4.00371077               36.07963118                0.01000000                0.00200690                0.00031192                0.22333060                0.17110177                0.13007272                0.14335314
               4.99968584                4.00507043               36.08143901                0.01802968               -0.02176051                0.03243084                0.22836681                0.13178851                0.07373399                0.15647398
               5.99909938                4.00511149               36.08134689                0.01000001               -0.04839419               -0.00597597                0.22745439                0.05203170                0.02145956                0.17536535
               6.99871796                4.00460084               36.08211893                0.01174375               -0.01256658                0.09475530                0.22924844                0.21004848                0.15208348                0.38944628
               7.99884805                4.00639012               36.08466210                0.01000000                0.04097546                0.17693309                0.23577723                0.46465172                0.51749591                0.65942928
               8.99953747                4.00966986               36.09279778                0.07524471               -0.00702108                0.24786500                0.25863590                0.46440290                0.39879400                0.85127298
               9.99870763                4.00996631               36.09307057                0.56053890               -0.08298355                0.26216209                0.25838037                0.31682716                0.00544435                0.86758582
              -0.00165172                4.99787940               36.07607812                0.59572538               -0.06416481               -0.06379090                0.21423792               -0.00016324                0.00004586               -0.00133429
               0.99770663                4.99825687               36.07612255                0.02172533               -0.03491114               -0.06456170                0.21354795                0.02051671                0.01978773                0.00158710
               1.99765006                4.99904362               36.07656167                0.01000001                0.06750764               -0.11178229                0.21389754                0.06780810                0.13495776               -0.04098281
               2.99905678                5.00181680               36.07893586                0.01000000                0.11948761               -0.06078052                0.22115342                0.21690470                0.23095594                0.07123346
               4.00003981                5.00383897               36.08137692                0.01803032                0.03439720               -0.02324475                0.22828737                0.13070088                0.13816247                0.08662457
               4.99974473                5.00476326               36.08196774                0.01000001               -0.02696163               -0.02932860                0.22942414                0.03027475                0.08385786                0.09695042
               5.99950058                5.00499883               36.08334466                0.01173962               -0.00167550                0.02091361                0.23300010                0.09468239                0.23040268                0.30155697
               6.99971122                5.00598573               36.08689508                0.01000000                0.02633891                0.13178405                0.24318542                0.25654333                0.44353178                0.51479084
               8.00002735                5.00845886               36.09259286                0.07349157               -0.02307318                0.06521439                0.25930135                0.18502630                0.27650682                0.40063349
               8.99924975                5.00891711               36.09287596                0.15607306               -0.07805235               -0.07675215                0.25898776                0.00797190                0.00302598                0.00799051
               9.99846631                5.00931461               36.09310770                0.60639550               -0.07834471               -0.07011991                0.25858219                0.00759378                0.00034960                0.00758582
              -0.00202706                5.99724152               36.07599185                0.66402393               -0.06394825               -0.06376044                0.21352174               -0.00015110                0.00006402               -0.00135819
               0.99733346                5.99761352               36.07605070                0.10856517               -0.06347356               -0.06413845                0.21279923               -0.00009230                0.00179639                0.00146450
               1.99670347                5.99798237               36.07614416                0.01142207                0.09274958               -0.08517489                0.21201190                0.11757736                0.18800146               -0.01445341
               2.99918845                6.00128463               36.07992775                0.01813032                0.12493402               -0.08678124                0.22379369                0.17421513                0.24312935                0.02371631
               3.99920215                6.00324588               36.08125183                0.01000001               -0.00284884               -0.04999083                0.22728846                0.04951197                0.15220302                0.03193704
               4.99913147                6.00448386               36.08325116                0.01174137                0.02842068               -0.00856238                0.23290150                0.09309796                0.28203945                0.23224645
               5.99977057                6.00552976               36.08720667                0.01000000                0.06286575                0.05065807                0.24467775                0.19876761                0.42922783                0.43060067
               7.00038879                6.00723652               36.09222407                0.07352747               -0.00766850                0.02421001                0.25919823                0.12056491                0.24284674                0.26854351
               7.99961720                6.00769440               36.09253336                0.15611035               -0.07738212               -0.07712133                0.25892047                0.00264460                0.00487951               -0.00095991
               8.99884115                6.00813481               36.09279531                0.26635923               -0.07763475               -0.07793694                0.25854022                0.00136019                0.00149372               -0.00043782
               9.99806450                6.00856391               36.09303933                0.67042071               -0.07766471               -0.07590943                0.25814654                0.00126591                0.00052590                0.00182755
              -0.00239875                6.99660419               36.07590503                0.75140937               -0.06373235               -0.06368203                0.21281108               -0.00013826                0.00010250               -0.00139420
               0.99696393                6.99697411               36.07597800                0.22384406               -0.06353846               -0.06376985                0.21205215               -0.00011681                0.00121140                0.00136031
               1.99633048                6.99734012               36.07607322                0.01621689                0.01568229               -0.06383423                0.21122710                0.11831630                0.15791875                0.00303780
               2.99727758                7.00008118               36.07928043                0.01000001                0.07501694               -0.10944450                0.22114166                0.17708376                0.28118236               -0.01439136
               3.99783082                7.00283915               36.08191004                0.01174673                0.10226144               -0.01795027                0.22896911                0.20434661                0.34763697                0.14936500
               4.99932281                7.00459202               36.08650288                0.01000000                0.14462184                0.01391411                0.24295740                0.25476941                0.47701508                0.41361474
               6.00072326                7.00601199               36.09182736                0.07352966                0.03175326               -0.01447280                0.25902643                0.11997465                0.25793450                0.23238425
               6.99995787                7.00646993               36.09215169                0.15615363               -0.07706515               -0.07711672                0.25876593                0.00153864                0.00572431               -0.00275639
               7.99918196                7.00691643               36.09243632                0.26648843               -0.07752108               -0.07765928                0.25840427                0.00057214                0.00291913               -0.00281833
               8.99840745                7.00735837               36.09270726                0.41890468               -0.07742661               -0.07750373                0.25802875                0.00028965                0.00136586               -0.00084197
               9.99763343                7.00779643               36.09296250                0.76026823               -0.07740238               -0.07689559                0.25764145                0.00032175                0.00054827                0.00140522
              -0.00276965                7.99596787               36.07581760                0.86251968               -0.06351586               -0.06356424                0.21210886               -0.00012369                0.00015716               -0.00144760
               0.99659519                7.99633812               36.07590449                0.37812169               -0.06338149               -0.06345304                0.21131094               -0.00004238                0.00085073                0.00125957
               1.99596272                7.99670568               36.07600543                0.01000000                0.03179538               -0.06324924                0.21046281                0.10110916                0.17070635                0.00300955
               2.99723110                7.99909574               36.07948947                0.01268612                0.14077625               -0.16077766                0.22217443                0.21308111                0.39495399               -0.13435019
               3.99877825                8.00288687               36.08414686                0.01000000                0.19114619                0.02763038                0.23554478                0.46002180                0.57961349                0.45709496
               5.00105403                8.00476214               36.09143918                0.07349657                0.07569486               -0.03032798                0.25878114                0.18267159                0.35553013                0.24823607
               6.00029214                8.00524030               36.09176936                0.15611463               -0.07694537               -0.07732853                0.25857709                0.00260128                0.00513315               -0.00222032
               6.99951512                8.00569419               36.09205871                0.26649311               -0.07759749               -0.07747529                0.25823222                0.00056461                0.00265169               -0.00323846
               7.99874019                8.00614122               36.09234225                0.41899298               -0.07740856               -0.07741025                0.25787302                0.00020008                0.00198028               -0.00239591
               8.99796695                8.00658474               36.09262007                0.63935024               -0.07726826               -0.07726848                0.25750271                0.00006286                0.00106657               -0.00081346
               9.99719483                8.00702600               36.09288621                0.89256028               -0.07721167               -0.07702882                0.25712057                0.00013117                0.00049039                0.00148136
              -0.00314171                8.99533291               36.07572957                1.00000000               -0.06330174               -0.06341125                0.21141937               -0.00011381                0.00020311               -0.00121337
               0.99622527                8.99570504               36.07583013                0.58818141               -0.06316239               -0.06318653                0.21058052                0.00000322                0.00035625                0.00094086
               1.99559504                8.99607514               36.07593403                0.05601189               -0.04336317               -0.06293702                0.20972043                0.02112932                0.02000845                0.00187843
               2.99535801                8.99686563               36.07642774                0.01496636                0.28849105               -0.15285647                0.21138608                0.23376558                0.74315638               -0.15064602
               4.00136486                9.00339176               36.09098625                0.07544344                0.26323982               -0.01642628                0.25781227                0.45594284                0.72258259                0.34446020
               5.00062281                9.00398546               36.09141411                0.15609962               -0.07608141               -0.07791169                0.25830209                0.00756820                0.00874397               -0.00029994
               5.99984324                9.00446542               36.09170197                0.26637636               -0.07772794               -0.07749063                0.25802541                0.00132229                0.00105978               -0.00173454
               6.99906825                9.00492042               36.09197949                0.41892332               -0.07739123               -0.07732589                0.25768573                0.00028392                0.00035816               -0.00166111
               7.99829541                9.00536823               36.09225543                0.63936780               -0.07721618               -0.07721695                0.25733163                0.00006208                0.00032424               -0.00133946
               8.99752392                9.00581300               36.09253333                0.97800390               -0.07709437               -0.07709331                0.25696632                0.00000822                0.00038990               -0.00063873
               9.99675352                9.00625585               36.09281063                0.99176076               -0.07704002               -0.07695038                0.25658720                0.00008872                0.00040676                0.00115727
              -0.00351620                9.99469965               36.07564698                0.99500081               -0.06307753               -0.06332585                0.21071594                0.00002514               -0.00081799               -0.00096076
               0.99585303                9.99507439               36.07575053                0.86477061               -0.06295382               -0.06306557                0.20986725                0.00014014               -0.00135537                0.00066462
               1.99522473                9.99544694               36.07584371                0.55962675               -0.06316165               -0.06281944                0.20903608                0.01117966                0.01327444                0.00092564
               2.99458979                9.99603861               36.07624010                0.52709191                0.27762739               -0.08270120                0.21043436                0.27874865                0.74760100               -0.00725929
               4.00077727               10.00255835               36.09101835                0.56073858                0.27709672               -0.08334090                0.25739291                0.29950558                0.72865815                0.00384537
               5.00013173               10.00320391               36.09138383                0.60641844               -0.06968255               -0.07815508                0.25773143                0.00749943                0.00337450               -0.00071792
               5.99938362               10.00369049               36.09165664                0.67043522               -0.07568719               -0.07749254                0.25746243                0.00122708               -0.00181989               -0.00074064
               6.99861799               10.00414767               36.09192004                0.76028476               -0.07673832               -0.07727516                0.25712867                0.00029320               -0.00234788               -0.00073148
               7.99784886               10.00459688               36.09218347                0.89257787               -0.07692486               -0.07713475                0.25677952                0.00010454               -0.00222423               -0.00060479
               8.99707949               10.00504287               36.09244957                0.99176192               -0.07689723               -0.07701319                0.25641703                0.00006208               -0.00149755               -0.00044832
               9.99631091               10.00548699               36.09272676                1.00000000               -0.07685757               -0.07688567                0.25603877                0.00015096               -0.00085327                0.00083875
               0.00045293                0.00115818               37.07867645                0.78693163               -0.06509588               -0.06508147                0.21769578               -0.00017927                0.00093230               -0.00091565
               0.99980197                0.00161531               37.07864491                0.52638156               -0.06458547               -0.06513422                0.21708614                0.00027221                0.00130443                0.00069772
               1.99916122                0.00208199               37.07862006                0.48268431               -0.06390533               -0.06480315                0.21647940                0.00003451                0.00137341               -0.00001104
               2.99852387                0.00256866               37.07858910                0.50464570               -0.06375567               -0.06464203                0.21586393               -0.00013830                0.00112160               -0.00006178
               3.99788611                0.00307352               37.07855824                0.54329096               -0.06380996               -0.06445385                0.21524927               -0.00016779                0.00121990               -0.00008733
               4.99724767                0.00359161               37.07852825                0.59572353               -0.06386015               -0.06426822                0.21463685               -0.00016119                0.00136411               -0.00010186
               5.99660891                0.00411794               37.07849938                0.66397931               -0.06386925               -0.06408224                0.21402880               -0.00014827                0.00152964               -0.00012007
               6.99597028                0.00464845               37.07847198                0.75130494               -0.06383548               -0.06389688                0.21342632               -0.00013350                0.00173618               -0.00016951
               7.99533220                0.00517999               37.07844676                0.86232381               -0.06376464               -0.06371084                0.21283315               -0.00011574                0.00201877               -0.00025267
               8.99469499                0.00571027               37.07842480                1.00000000               -0.06365602               -0.06352664                0.21225375               -0.00010122                0.00181275               -0.00037710
               9.99405908                0.00623773               37.07839550                0.99487506               -0.06359132               -0.06333438                0.21165409                0.00006853                0.00143341                0.00107384
              -0.00000599                1.00050737               37.07858969                0.52638730               -0.06512168               -0.06455897                0.21700235                0.00026169               -0.00069999               -0.00121772
               0.99934279                1.00096397               37.07855803                0.01316443               -0.06545581               -0.06545413                0.21639117                0.00109520               -0.00149868                0.00153857
               1.99868489                1.00143396               37.07850978                0.01000000               -0.06580366               -0.04268315                0.21577156                0.02440417               -0.00229570                0.01535417
               2.99802672                1.00192224               37.07846172                0.01000001               -0.06559654               -0.01019893                0.21513470                0.04978579               -0.00228905                0.04016947
               3.99737296                1.00242898               37.07841349                0.01000000               -0.06514358                0.00704493                0.21448908                0.04532962               -0.00228520                0.05358915
               4.99672385                1.00294892               37.07836565                0.02172068               -0.06469801               -0.03574704                0.21383735                0.01992933               -0.00225502                0.01970706
               5.99607900                1.00347712               37.07831831                0.10851927               -0.06429623               -0.06361659                0.21318374               -0.00021068               -0.00221255               -0.00187798
               6.99543792                1.00400948               37.07827165                0.22372860               -0.06394346               -0.06368537                0.21253069               -0.00017373               -0.00211980               -0.00175961
               7.99480013                1.00454288               37.07822649                0.37787993               -0.06364063               -0.06355097                0.21188362               -0.00006316               -0.00192424               -0.00144779
               8.99416511                1.00507500               37.07818400                0.58770391               -0.06339153               -0.06336132                0.21124758               -0.00000013               -0.00138129               -0.00084262
               9.99353230                1.00560439               37.07814991                0.86444486               -0.06328082               -0.06318603                0.21063419                0.00016728               -0.00097261                0.00160182
              -0.00045504                1.99986700               37.07849614                0.48269284               -0.06476723               -0.06385859                0.21630885                0.00002584               -0.00002863               -0.00139283
               0.99889728                2.00030623               37.07848735                0.01000000               -0.04269629               -0.06577106                0.21569382                0.02443942                0.01138329                0.00216248
               1.99869103                2.00122833               37.07870630                0.01000001               -0.01863639               -0.01851537                0.21601211                0.11436740                0.03275945                0.04071637
               2.99852456                2.00236469               37.07913856                0.01000000               -0.04625048                0.02709596                0.21681364                0.14866513                0.03080960                0.08118530
               3.99776602                2.00321442               37.07934197                0.01000000               -0.09632193                0.07449222                0.21692249                0.11309567               -0.02800020                0.13419327
               4.99659812                2.00287667               37.07859901                0.01000001               -0.11109445                0.06364400                0.21407751                0.06749823               -0.06234919                0.15643760
               5.99554413                2.00284561               37.07810197                0.01141922               -0.08485385                0.08777743                0.21224196                0.11678031               -0.02744993                0.21571056
               6.99490104                2.00337475               37.07803950                0.01621167               -0.06393590                0.01220518                0.21154369                0.11754644               -0.00544624                0.18593216
               7.99426541                2.00390897               37.07798240                0.01000000               -0.06337783                0.02783661                0.21086439                0.10077726               -0.00474322                0.20458491
               8.99363348                2.00444304               37.07793408                0.05589678               -0.06308804               -0.04399833                0.21021329                0.02122327               -0.00283875                0.02126046
               9.99300365                2.00497401               37.07791516                0.55953495               -0.06298309               -0.06400801                0.20964109                0.01178035               -0.00137590                0.02062261
              -0.00088393                2.99923019               37.07840508                0.50466211               -0.06458139               -0.06369165                0.21560799               -0.00014541                0.00001125               -0.00126365
               0.99847025                2.99964855               37.07841252                0.01000001               -0.01011424               -0.06553223                0.21497864                0.04989169                0.03487265                0.00187045
               1.99891378                3.00106365               37.07911681                0.01000000                0.02718364               -0.04610436                0.21673703                0.14888723                0.07019578                0.03956622
               2.99901393                3.00246416               37.07987359                0.01000000                0.01045558                0.01035408                0.21860594                0.19468586                0.08294829                0.09463378
               3.99912289                3.00391883               37.08086407                0.01197020               -0.02856523                0.02858063                0.22116674                0.17148784                0.05995227                0.13519403
               4.99844262                3.00422180               37.08119705                0.01000000               -0.06031838                0.11344988                0.22162547                0.21417782                0.06403872                0.26739971
               5.99791653                3.00523267               37.08227323                0.01812845               -0.08585681                0.11830500                0.22443182                0.17320596                0.01270198                0.28791434
               6.99672549                3.00425359               37.08159307                0.01000001               -0.10845739                0.06826394                0.22178734                0.17747932               -0.02557514                0.33543880
               7.99574738                3.00509962               37.08188279                0.01270835               -0.16004738                0.13047602                0.22312482                0.21808278               -0.17821360                0.47041642
               8.99352454                3.00419504               37.07813543                0.01494619               -0.15207026                0.26561739                0.21201755                0.24571529               -0.19270023                0.89666363
               9.99270597                3.00432423               37.07805019                0.52704312               -0.08185645                0.25433183                0.21118843                0.28730337               -0.00994028                0.91285103
              -0.00129466                3.99859317               37.07831311                0.54331632               -0.06436776               -0.06372547                0.21490689               -0.00017413                0.00002999               -0.00129581
               0.99806166                3.99899558               37.07833598                0.01000000                0.00739106               -0.06505164                0.21425362                0.04544971                0.04778461                0.00169537
               1.99885316                4.00030624               37.07931367                0.01000000                0.07507176               -0.09626905                0.21677310                0.11293684                0.12054145               -0.01165058
               2.99956310                4.00257177               37.08084874                0.01197080                0.02924886               -0.02879964                0.22109093                0.17137334                0.11968238                0.07126181
               3.99943814                4.00378603               37.08186654                0.01000000                0.00023692               -0.00104028                0.22371909                0.16795393                0.13447429                0.14779404
               4.99956784                4.00514566               37.08372532                0.01802901               -0.02308349                0.03040029                0.22889505                0.12924793                0.07634216                0.16125478
               5.99897647                4.00521171               37.08362370                0.01000001               -0.04920788               -0.00723675                0.22791404                0.05106057                0.02242371                0.18061690
               6.99858368                4.00474002               37.08441385                0.01174677               -0.01454232                0.09154327                0.22971115                0.20529403                0.15680887                0.40116113
               7.99868562                4.00651849               37.08702242                0.01000000                0.03697514                0.17162792                0.23646371                0.45359634                0.53278995                0.67870358
               8.99932318                4.00975539               37.09538660                0.07539912               -0.00971404                0.24029357                0.25910869                0.45211127                0.41053329                0.87551036
               9.99849134                4.01006065               37.09565601                0.56067507               -0.08318401                0.25422796                0.25869203                0.30723254                0.00559727                0.89199365
              -0.00169225                4.99795568               37.07822037                0.59575833               -0.06415747               -0.06375100                0.21420911               -0.00016735                0.00004262               -0.00131751
               0.99766618                4.99834752               37.07825791                0.02175772               -0.03557071               -0.06458270                0.21352370                0.01998943                0.02031245                0.00153842
               1.99759634                4.99913827               37.07870070                0.01000001                0.06477118               -0.11104389                0.21391648                0.06680243                0.13952002               -0.04269230
               2.99896160                5.00188817               37.08114902                0.01000000                0.11558705               -0.06094889                0.22147121                0.21328205                0.23888576                0.07342741
               3.99990808                5.00389802               37.08366250                0.01803091                0.03201522               -0.02421087                0.22880732                0.12844213                0.14289797                0.08927665
               4.99960190                5.00482981               37.08426452                0.01000001               -0.02823503               -0.03019309                0.22993093                0.02996062                0.08675257                0.09988688
               5.99934338                5.00508793               37.08567736                0.01174154               -0.00386615                0.01928722                0.23352631                0.09284701                0.23783569                0.31092939
               6.99952458                5.00608445               37.08933000                0.01000000                0.02302810                0.12781382                0.24375992                0.25081751                0.45716930                0.53049944
               7.99980394                5.00853217               37.09518890                0.07349264               -0.02499850                0.06236256                0.25988842                0.18065667                0.28483750                0.41278809
               8.99902461                5.00900091               37.09546807                0.15608969               -0.07819130               -0.07689553                0.25941280                0.00792543                0.00306845                0.00849549
               9.99824011                5.00940879               37.09569492                0.60641055               -0.07844983               -0.07015601                0.25884431                0.00760823                0.00035374                0.00802887
              -0.00208167                5.99731815               37.07812703                0.66403541               -0.06394644               -0.06373183                0.21351457               -0.00015497                0.00006085               -0.00133515
               0.99727887                5.99770393               37.07817865                0.10857836               -0.06348877               -0.06416061                0.21279097               -0.00016180                0.00175884                0.00141291
               1.99664855                5.99808536               37.07826419                0.01142233                0.08950602               -0.08475512                0.21198793                0.11573773                0.19432406               -0.01514825
               2.99906899                6.00135279               37.08216777                0.01813117                0.12083935               -0.08642189                0.22420390                0.17146642                0.25153683                0.02437929
               3.99906534                6.00330182               37.08352710                0.01000001               -0.00459239               -0.05047717                0.22775290                0.04900609                0.15739754                0.03292713
               4.99897714                6.00454180               37.08558288                0.01174207                0.02567120               -0.00963899                0.23342641                0.09152595                0.29135624                0.23970091
               5.99957877                6.00559745               37.08965671                0.01000000                0.05893235                0.04846302                0.24527863                0.19455656                0.44290877                0.44428649
               7.00015578                6.00729630               37.09481932                0.07352518               -0.00982324                0.02216495                0.25982906                0.11781037                0.25038296                0.27690571
               7.99938230                6.00776574               37.09512499                0.15610900               -0.07753529               -0.07728290                0.25938832                0.00262569                0.00493497               -0.00087174
               8.99860508                6.00821748               37.09538232                0.26636784               -0.07772757               -0.07802996                0.25884580                0.00135672                0.00150128               -0.00037699
               9.99782775                6.00865753               37.09562157                0.67042950               -0.07773300               -0.07594906                0.25828889                0.00128106                0.00053338                0.00190493
              -0.00246691                6.99668105               37.07803321                0.75138534               -0.06373590               -0.06366729                0.21282540               -0.00014107                0.00009871               -0.00136251
               0.99689573                6.99706430               37.07809855                0.22381876               -0.06354268               -0.06378966                0.21205890               -0.00015003                0.00117242                0.00131111
               1.99626223                6.99744317               37.07818545                0.01621690                0.01393737               -0.06383452                0.21121553                0.11640660                0.16330246                0.00291258
               2.99717447                7.00015973               37.08149349                0.01000001                0.07184779               -0.10854482                0.22147604                0.17450728                0.29090412               -0.01451682
               3.99769919                7.00288848               37.08420230                0.01174976                0.09811555               -0.01895430                0.22946193                0.20073692                0.35928632                0.15420635
               4.99913678                7.00463703               37.08893566                0.01000000                0.13904106                0.01249345                0.24358653                0.24957098                0.49265070                0.42721530
               6.00048001                7.00605719               37.09442103                0.07352713                0.02878558               -0.01569465                0.25969049                0.11737434                0.26625304                0.23991700
               6.99971250                7.00652775               37.09474197                0.15615127               -0.07723678               -0.07728195                0.25927112                0.00152968                0.00578682               -0.00269827
               7.99893527                7.00698652               37.09502215                0.26649365               -0.07762659               -0.07776450                0.25874706                0.00057386                0.00293102               -0.00279934
               8.99815996                7.00744031               37.09528850                0.41893106               -0.07748156               -0.07755756                0.25820791                0.00028856                0.00137185               -0.00081517
               9.99738564                7.00788980               37.09553902                0.76029219               -0.07743226               -0.07689978                0.25765674                0.00033882                0.00055325                0.00144353
              -0.00285100                7.99604480               37.07793887                0.86244413               -0.06352513               -0.06356460                0.21214574               -0.00012474                0.00015147               -0.00140449
               0.99651375                7.99642814               37.07801771                0.37802509               -0.06338699               -0.06346932                0.21133307               -0.00005494                0.00081684                0.00121796
               1.99588126                7.99680867               37.07811004                0.01000000                0.03000372               -0.06325461                0.21046052                0.09959977                0.17704069                0.00290626
               2.99711382                7.99918189               37.08171339                0.01271388                0.13607628               -0.15862371                0.22260781                0.21036970                0.40847542               -0.13861525
               3.99860278                8.00292273               37.08650551                0.01000551                0.18430119                0.02574641                0.23630443                0.45049322                0.59882602                0.47230014
               5.00079984                8.00479167               37.09403061                0.07349711                0.07163738               -0.03120281                0.25948305                0.17891185                0.36746070                0.25651620
               6.00003553                8.00528356               37.09435793                0.15611266               -0.07713951               -0.07749715                0.25911717                0.00259884                0.00522211               -0.00216627
               6.99925705                8.00575066               37.09464300                0.26649705               -0.07771546               -0.07759045                0.25861038                0.00056915                0.00267160               -0.00322869
               7.99848122                8.00621045               37.09492211                0.41901871               -0.07747453               -0.07747576                0.25808708                0.00020180                0.00199420               -0.00238341
               8.99770756                8.00666633               37.09519538                0.63943157               -0.07728440               -0.07728354                0.25755311                0.00006287                0.00107426               -0.00079455
               9.99693553                8.00711953               37.09545686                0.89262345               -0.07720298               -0.07699382                0.25700701                0.00014896                0.00049472                0.00150797
              -0.00323608                8.99540976               37.07784406                1.00000000               -0.06331612               -0.06342494                0.21147836               -0.00011257                0.00019442               -0.00117248
               0.99613076                8.99579492               37.07793612                0.58795050               -0.06317243               -0.06320105                0.21061723                0.00000113                0.00033538                0.00091258
               1.99550047                8.99617807               37.07803129                0.05601716               -0.04314746               -0.06294325                0.20973082                0.02140530                0.02128455                0.00181887
               2.99526781                8.99698726               37.07854244                0.01519100                0.27994020               -0.15124809                0.21157117                0.22971446                0.76825234               -0.15591150
               4.00109928                9.00340341               37.09356775                0.07560545                0.25431907               -0.01775859                0.25845907                0.44583193                0.74658263                0.35598345
               5.00035419                9.00401297               37.09400005                0.15611583               -0.07631405               -0.07808812                0.25886413                0.00760792                0.00923115               -0.00025962
               5.99957299                9.00450725               37.09428435                0.26638166               -0.07786030               -0.07761425                0.25843535                0.00133212                0.00112209               -0.00172976
               6.99879698                9.00497594               37.09455764                0.41894486               -0.07746763               -0.07740160                0.25793483                0.00028526                0.00038712               -0.00165614
               7.99802364                9.00543700               37.09482921                0.63944498               -0.07724189               -0.07724361                0.25741714                0.00006249                0.00034470               -0.00133221
               8.99725215                9.00589464               37.09510261                0.97822211               -0.07707116               -0.07707034                0.25688724                0.00000803                0.00039984               -0.00062914
               9.99648222                9.00634993               37.09537527                0.99193757               -0.07699284               -0.07687574                0.25634364                0.00010782                0.00041019                0.00116980
              -0.00362358                9.99477630               37.07775452                0.99487693               -0.06309738               -0.06334526                0.21079380                0.00003161               -0.00079535               -0.00092868
               0.99574545                9.99516412               37.07784946                0.86460296               -0.06297006               -0.06308008                0.20992114                0.00014417               -0.00132378                0.00064451
               1.99511702                9.99554981               37.07793424                0.55963696               -0.06313359               -0.06282692                0.20906965                0.01129581                0.01447266                0.00089678
               2.99448278                9.99615693               37.07834537                0.52728864                0.26883424               -0.08303271                0.21063705                0.27238437                0.77277892               -0.00756284
               4.00049371               10.00256756               37.09359500                0.56088113                0.26826913               -0.08358493                0.25791318                0.29309192                0.75279787                0.00399617
               4.99984816               10.00322991               37.09396339                0.60643278               -0.06972512               -0.07830660                0.25816251                0.00758280                0.00379426               -0.00071225
               5.99909920               10.00373128               37.09423272                0.67044113               -0.07575770               -0.07759739                0.25774222                0.00125703               -0.00174321               -0.00073364
               6.99833301               10.00420263               37.09449195                0.76030378               -0.07677139               -0.07733132                0.25724792                0.00031751               -0.00230731               -0.00072661
               7.99756378               10.00466558               37.09475106                0.89263561               -0.07691041               -0.07714191                0.25673559                0.00012807               -0.00219596               -0.00060028
               8.99679480               10.00512492               37.09501269                0.99193754               -0.07683336               -0.07697155                0.25620841                0.00008672               -0.00148450               -0.00044486
               9.99602711               10.00558202               37.09528525                1.00000000               -0.07676888               -0.07679123                0.25566557                0.00019841               -0.00085025                0.00084147
               0.00049685                0.00123924               38.08085275                0.78703305               -0.06505722               -0.06504325                0.21756214               -0.00017417                0.00093429               -0.00091756
               0.99984628                0.00171265               38.08081520                0.52652965               -0.06454453               -0.06510284                0.21696919                0.00027460                0.00131064                0.00069769
               1.99920596                0.00219569               38.08078437                0.48276720               -0.06385765               -0.06477761                0.21637983                0.00003662                0.00138379               -0.00001434
               2.99856913                0.00269906               38.08074734                0.50470968               -0.06370336               -0.06462171                0.21578300               -0.00014049                0.00113569               -0.00006617
               3.99793190                0.00322118               38.08071043                0.54334330               -0.06376021               -0.06443794                0.21518634               -0.00017128                0.00124118               -0.00009167
               4.99729393                0.00375717               38.08067440                0.59575867               -0.06381805               -0.06425725                0.21459341               -0.00016475                0.00139330               -0.00010588
               5.99665554                0.00430202               38.08063955                0.66399458               -0.06383830               -0.06407639                0.21400547               -0.00015139                0.00156738               -0.00012419
               6.99601716                0.00485154               38.08060624                0.75128419               -0.06381766               -0.06389644                0.21342354               -0.00013569                0.00178254               -0.00017478
               7.99537918                0.00540245               38.08057517                0.86224583               -0.06376043               -0.06371544                0.21285056               -0.00011646                0.00207673               -0.00026009
               8.99474195                0.00595227               38.08054752                1.00000000               -0.06366375               -0.06353614                0.21229159               -0.00009989                0.00186688               -0.00038857
               9.99410591                0.00649930               38.08051231                0.99474470               -0.06360428               -0.06334923                0.21170996                0.00007321                0.00147605                0.00110365
               0.00002171                1.00058881               38.08075915                0.52653555               -0.06509036               -0.06451834                0.21688755                0.00026412               -0.00070230               -0.00121669
               0.99937081                1.00106162               38.08072146                0.01313403               -0.06542934               -0.06542856                0.21629305                0.00109610               -0.00150408                0.00153845
               1.99871312                1.00154791               38.08066710                0.01000000               -0.06579144               -0.04301188                0.21569089                0.02406435               -0.00231719                0.01584335
               2.99805498                1.00205284               38.08061275                0.01000001               -0.06559976               -0.01124646                0.21507120                0.04887566               -0.00232898                0.04140194
               3.99740113                1.00257680               38.08055815                0.01000000               -0.06515596                0.00567623                0.21444098                0.04442705               -0.00233776                0.05521847
               4.99675186                1.00311460               38.08050386                0.02175491               -0.06471470               -0.03639376                0.21380496                0.01939511               -0.00231519                0.02022689
               5.99610683                1.00366125               38.08045006                0.10853234               -0.06431368               -0.06362797                0.21316669               -0.00027346               -0.00227560               -0.00193070
               6.99546559                1.00421258               38.08039695                0.22370065               -0.06395891               -0.06368672                0.21252867               -0.00020306               -0.00218207               -0.00181375
               7.99482766                1.00476530               38.08034538                0.37777829               -0.06365295               -0.06355350                0.21189570               -0.00007400               -0.00197977               -0.00149280
               8.99419253                1.00531691               38.08029660                0.58746284               -0.06340250               -0.06336826                0.21127360               -0.00000213               -0.00141993               -0.00086958
               9.99355961                1.00586581               38.08025646                0.86427230               -0.06329198               -0.06319873                0.21067664                0.00016929               -0.00100002                0.00164482
              -0.00044348                1.99994888               38.08065876                0.48277828               -0.06474191               -0.06381009                0.21621331                0.00002779               -0.00003215               -0.00138844
               0.99890911                2.00040408               38.08064389                0.01000000               -0.04302487               -0.06576190                0.21561385                0.02410079                0.01186509                0.00214883
               1.99869603                2.00133545               38.08086645                0.01000001               -0.01956759               -0.01944369                0.21601320                0.11225791                0.03395611                0.04192856
               2.99851775                2.00247413               38.08130710                0.01000000               -0.04686722                0.02530076                0.21689023                0.14584932                0.03187774                0.08369086
               3.99775868                2.00333470               38.08151175                0.01000000               -0.09601894                0.07176186                0.21702595                0.11087861               -0.02881700                0.13834911
               4.99659738                2.00302929               38.08073975                0.01000001               -0.11032994                0.06108697                0.21408645                0.06620882               -0.06418348                0.16120292
               5.99555208                2.00302946               38.08022432                0.01141934               -0.08441601                0.08468217                0.21222318                0.11450295               -0.02819333                0.22226922
               6.99490905                2.00357781               38.08015488                0.01621161               -0.06393537                0.01062392                0.21153426                0.11520782               -0.00560745                0.19152722
               7.99427338                2.00413138               38.08009103                0.01000000               -0.06338298                0.02616037                0.21086445                0.09880651               -0.00487865                0.21123941
               8.99364140                2.00468490               38.08003627                0.05590312               -0.06309438               -0.04381706                0.21022475                0.02139520               -0.00291884                0.02269180
               9.99301149                2.00523533               38.08001173                0.55954494               -0.06299061               -0.06391298                0.20967331                0.01177969               -0.00141522                0.02200117
              -0.00088813                2.99931261               38.08056080                0.50472589               -0.06456198               -0.06363740                0.21553328               -0.00014799                0.00000696               -0.00125595
               0.99846625                2.99974638               38.08056201                0.01000001               -0.01118218               -0.06554070                0.21491731                0.04899018                0.03609579                0.00183722
               1.99888823                3.00115904               38.08128459                0.01000000                0.02532295               -0.04671700                0.21681546                0.14608788                0.07268039                0.04065204
               2.99897271                3.00255886               38.08206061                0.01000000                0.00876544                0.00879587                0.21879267                0.19108633                0.08581100                0.09752357
               3.99906354                3.00401204               38.08307717                0.01197044               -0.02957138                0.02667626                0.22144606                0.16831483                0.06207302                0.13938361
               4.99838128                3.00433634               38.08341478                0.01000000               -0.06075791                0.10993824                0.22191669                0.21005000                0.06627940                0.27569798
               5.99784838                3.00535490               38.08451941                0.01812981               -0.08567320                0.11451218                0.22480131                0.16979831                0.01337158                0.29668412
               6.99666782                3.00442506               38.08381247                0.01000001               -0.10758418                0.06546605                0.22209184                0.17399831               -0.02564102                0.34550547
               7.99569669                3.00528850               38.08411589                0.01273833               -0.15756670                0.12633476                0.22351333                0.21366120               -0.18258043                0.48439670
               8.99351648                3.00444057               38.08025667                0.01517636               -0.15011709                0.25812624                0.21223696                0.23860992               -0.19818368                0.92226003
               9.99269435                3.00458755               38.08016322                0.52724161               -0.08221317                0.24630616                0.21142356                0.27816222               -0.01026820                0.93849530
              -0.00131398                3.99867613               38.08046192                0.54336562               -0.06435423               -0.06367396                0.21485394               -0.00017825                0.00002601               -0.00128049
               0.99804248                3.99909326               38.08047830                0.01000000                0.00596417               -0.06507072                0.21421060                0.04456383                0.04940406                0.00165007
               1.99880531                4.00040111               38.08148196                0.01000000                0.07219992               -0.09598934                0.21688386                0.11089539                0.12467674               -0.01241164
               2.99948648                4.00265005               38.08306114                0.01197083                0.02710962               -0.02962691                0.22137956                0.16835556                0.12384135                0.07341212
               3.99934750                4.00386823               38.08410556                0.01000000               -0.00154821               -0.00240492                0.22408378                0.16483718                0.13904286                0.15238550
               4.99945552                4.00522806               38.08601691                0.01803041               -0.02440859                0.02835519                0.22939000                0.12675522                0.07906863                0.16620703
               5.99885933                4.00531970               38.08590517                0.01000001               -0.05000513               -0.00852426                0.22834757                0.05012487                0.02341702                0.18599671
               6.99845541                4.00488713               38.08671315                0.01175036               -0.01641171                0.08825918                0.23014673                0.20068083                0.16180350                0.41303550
               7.99853109                4.00665808               38.08939138                0.01001727                0.03295670                0.16617737                0.23724693                0.44248198                0.54824701                0.69823741
               8.99911455                4.00984743               38.09797995                0.07556501               -0.01251643                0.23253707                0.25953467                0.43959950                0.42214364                0.89996829
               9.99828077                4.01016145               38.09824441                0.56082120               -0.08337822                0.24610397                0.25896766                0.29766809                0.00575128                0.91653317
              -0.00172596                4.99803913               38.08036231                0.59579440               -0.06414944               -0.06370790                0.21417813               -0.00017184                0.00003878               -0.00129396
               0.99763255                4.99844497               38.08039302                0.02179301               -0.03623467               -0.06460637                0.21349793                0.01945574                0.02086014                0.00148608
               1.99754935                4.99923925               38.08084000                0.01000001                0.06200768               -0.11032259                0.21391891                0.06584398                0.14425383               -0.04449090
               2.99887270                5.00196632               38.08336529                0.01000000                0.11164594               -0.06111473                0.22177873                0.20972458                0.24709913                0.07570032
               3.99978227                5.00396394               38.08595306                0.01803115                0.02961070               -0.02518053                0.22930646                0.12623085                0.14780888                0.09203041
               4.99946492                5.00490344               38.08656636                0.01000001               -0.02952321               -0.03106649                0.23041088                0.02969727                0.08973936                0.10288632
               5.99919180                5.00518441               38.08801518                0.01174238               -0.00609277                0.01760576                0.23401608                0.09098849                0.24537476                0.32041088
               6.99934306                5.00619024               38.09177027                0.01000000                0.01971173                0.12377707                0.24433671                0.24501942                0.47096747                0.54640379
               7.99958604                5.00861205               38.09779063                0.07349575               -0.02689799                0.05928204                0.26043861                0.17614348                0.29326101                0.42486090
               8.99880510                5.00909131               38.09806422                0.15611049               -0.07831843               -0.07702919                0.25979781                0.00788125                0.00310649                0.00904469
               9.99801967                5.00950963               38.09828459                0.60642698               -0.07854305               -0.07017684                0.25907374                0.00762696                0.00035750                0.00851376
              -0.00212908                5.99740197               38.08026214                0.66404713               -0.06394404               -0.06370125                0.21350610               -0.00015887                0.00005706               -0.00130427
               0.99723148                5.99780113               38.08030652                0.10859152               -0.06350418               -0.06418462                0.21278190               -0.00023603                0.00171062                0.00135681
               1.99660083                5.99819466               38.08038392                0.01142286                0.08624032               -0.08433620                0.21195924                0.11394349                0.20085324               -0.01589094
               2.99895628                6.00142775               38.08441183                0.01813227                0.11670810               -0.08605472                0.22459227                0.16880327                0.26024366                0.02507926
               3.99893500                6.00336462               38.08580688                0.01000001               -0.00636470               -0.05095406                0.22819802                0.04855403                0.16271846                0.03396092
               4.99882899                6.00460673               38.08791969                0.01174388                0.02286502               -0.01074247                0.23393162                0.08996831                0.30080985                0.24728965
               5.99939230                6.00567182               38.09211225                0.01000000                0.05495862                0.04623477                0.24586122                0.19030776                0.45676319                0.45815444
               6.99992816                6.00736267               38.09742065                0.07352579               -0.01196985                0.02010225                0.26041244                0.11506628                0.25802787                0.28536964
               7.99915290                6.00784372               38.09772113                0.15610989               -0.07767835               -0.07743616                0.25982414                0.00260910                0.00499073               -0.00077901
               8.99837460                6.00830684               38.09797223                0.26637904               -0.07781192               -0.07811499                0.25912292                0.00135573                0.00150798               -0.00030822
               9.99759666                6.00875791               38.09820511                0.67043982               -0.07779341               -0.07598112                0.25840985                0.00129553                0.00054055                0.00198989
              -0.00252746                6.99676511               38.08016154                0.75136172               -0.06373985               -0.06365184                0.21284067               -0.00014389                0.00009399               -0.00132289
               0.99683514                6.99716127               38.08021918                0.22379279               -0.06354700               -0.06381097                0.21206676               -0.00018491                0.00112569                0.00125619
               1.99620160                6.99755253               38.08029753                0.01621618                0.01218321               -0.06383442                0.21119968                0.11454850                0.16885991                0.00277337
               2.99707881                7.00024523               38.08370995                0.01000001                0.06863858               -0.10766363                0.22180672                0.17205913                0.30090527               -0.01461452
               3.99757437                7.00294486               38.08649928                0.01175361                0.09391393               -0.01985975                0.22993307                0.19729596                0.37113506                0.15931087
               4.99895709                7.00468859               38.09137461                0.01000000                0.13338221                0.01106725                0.24419644                0.24430425                0.50849817                0.44099586
               6.00024202                7.00610911               38.09702117                0.07352781                0.02577001               -0.01690792                0.26030944                0.11477982                0.27466474                0.24756155
               6.99947249                7.00659229               38.09733711                0.15615102               -0.07739831               -0.07743641                0.25974253                0.00152127                0.00584929               -0.00263675
               7.99869405                7.00706333               38.09761126                0.26650224               -0.07772332               -0.07786120                0.25906044                0.00057589                0.00294389               -0.00277845
               8.99791802                7.00752901               38.09787142                0.41896028               -0.07753040               -0.07760562                0.25836696                0.00028819                0.00137859               -0.00078610
               9.99714344                7.00799001               38.09811564                0.76031610               -0.07745768               -0.07690029                0.25766067                0.00035497                0.00055882                0.00148381
              -0.00292429                7.99612894               38.08006051                0.86236364               -0.06353459               -0.06356484                0.21218358               -0.00012587                0.00014466               -0.00135373
               0.99644036                7.99652492               38.08013115                0.37792352               -0.06339260               -0.06348651                0.21135619               -0.00006770                0.00077768                0.00116948
               1.99580785                7.99691797               38.08021464                0.01000000                0.02823881               -0.06326058                0.21045887                0.09811850                0.18359283                0.00278660
               2.99700514                7.99927448               38.08394162                0.01274430                0.13148480               -0.15649049                0.22303350                0.20786202                0.42246540               -0.14294667
               3.99843755                8.00296742               38.08887295                0.01002560                0.17728456                0.02385394                0.23706800                0.44090652                0.61829461                0.48767288
               5.00055083                8.00482807               38.09662884                0.07350155                0.06733239               -0.03205517                0.26013180                0.17499874                0.37937138                0.26488390
               5.99978420                8.00533366               38.09695170                0.15611404               -0.07732303               -0.07765398                0.25961872                0.00259717                0.00531201               -0.00211153
               6.99900437                8.00581394               38.09723091                0.26650408               -0.07782495               -0.07769673                0.25895895                0.00057407                0.00269241               -0.00321642
               7.99822770                8.00628649               38.09750400                0.41904586               -0.07753427               -0.07753496                0.25828057                0.00020347                0.00200869               -0.00236973
               8.99745368                8.00675473               38.09777113                0.63951510               -0.07729678               -0.07729489                0.25759098                0.00006273                0.00108243               -0.00077561
               9.99668176                8.00721991               38.09802635                0.89268742               -0.07719185               -0.07695755                0.25688909                0.00016579                0.00049943                0.00153402
              -0.00332194                8.99549381               38.07995914                1.00000000               -0.06333099               -0.06343900                0.21153936               -0.00011119                0.00018410               -0.00112488
               0.99604475                8.99589154               38.08004247                0.58770570               -0.06318293               -0.06321622                0.21065575               -0.00000124                0.00031066                0.00087899
               1.99541441                8.99628731               38.08012865                0.05602521               -0.04290807               -0.06295010                0.20974266                0.02171428                0.02266326                0.00174780
               2.99518659                8.99711542               38.08065916                0.01543005                0.27122516               -0.14964889                0.21178049                0.22570487                0.79367620               -0.16131277
               4.00083891                9.00342194               38.09615543                0.07577774                0.24521170               -0.01918304                0.25905351                0.43548708                0.77091365                0.36743874
               5.00009083                9.00404749               38.09659140                0.15613412               -0.07654092               -0.07825400                0.25938900                0.00765798                0.00976650               -0.00022652
               5.99930809                9.00455603               38.09687068                0.26639017               -0.07798475               -0.07772885                0.25881550                0.00134324                0.00119347               -0.00172470
               6.99853113                9.00503835               38.09713818                0.41896904               -0.07753784               -0.07747098                0.25816311                0.00028658                0.00041764               -0.00164958
               7.99775733                9.00551263               38.09740377                0.63952305               -0.07726363               -0.07726630                0.25748933                0.00006261                0.00036477               -0.00132443
               8.99698586                9.00598311               38.09767108                0.97844451               -0.07704636               -0.07704580                0.25680304                0.00000786                0.00041009               -0.00061957
               9.99621641                9.00645085               38.09793750                0.99211230               -0.07694529               -0.07680209                0.25610336                0.00012592                0.00041391                0.00118193
              -0.00372199                9.99486016               38.07986286                0.99474686               -0.06311837               -0.06336542                0.21087542                0.00003845               -0.00076917               -0.00089110
               0.99564683                9.99526059               38.07994895                0.86442548               -0.06298728               -0.06309531                0.20997835                0.00014814               -0.00128749                0.00062078
               1.99501827                9.99565897               38.08002510                0.55964862               -0.06311091               -0.06283474                0.20910547                0.01143183                0.01578048                0.00086194
               2.99438461                9.99628150               38.08045284                0.52749661                0.25984754               -0.08339124                0.21086475                0.26604163                0.79821116               -0.00787659
               4.00021522               10.00258376               38.09617662                0.56103407                0.25926427               -0.08381735                0.25839113                0.28670558                0.77719440                0.00414726
               4.99956990               10.00326299               38.09654708                0.60644928               -0.06975106               -0.07844930                0.25856564                0.00767283                0.00426006               -0.00070823
               5.99882020               10.00377908               38.09681149                0.67044893               -0.07582002               -0.07769462                0.25800042                0.00128720               -0.00165668               -0.00072695
               6.99805350               10.00426453               38.09706500                0.76032429               -0.07680016               -0.07738276                0.25735467                0.00034073               -0.00226493               -0.00072102
               7.99728419               10.00474117               38.09731818                0.89269556               -0.07689422               -0.07714620                0.25668588                0.00015055               -0.00216802               -0.00059557
               8.99651561               10.00521381               38.09757374                0.99211362               -0.07677026               -0.07692940                0.25600242                0.00011018               -0.00147094               -0.00044129
               9.99574879               10.00568387               38.09784007                1.00000000               -0.07668228               -0.07669898                0.25530352                0.00024328               -0.00084672                0.00084413
               0.00054673                0.00132704               39.08302769                0.78714369               -0.06501540               -0.06500188                0.21741995               -0.00016840                0.00093610               -0.00091932
               0.99989657                0.00181674               39.08298429                0.52668739               -0.06449867               -0.06507002                0.21684516                0.00027876                0.00131754                0.00069737
               1.99925675                0.00231624               39.08294766                0.48285908               -0.06380283               -0.06475036                0.21627497                0.00003935                0.00139614               -0.00001819
               2.99862052                0.00283653               39.08290476                0.50477791               -0.06364415               -0.06459998                0.21569756               -0.00014275                0.00115218               -0.00007118
               3.99798387                0.00337625               39.08286197                0.54339699               -0.06370530               -0.06442147                0.21512122               -0.00017493                0.00126663               -0.00009625
               4.99734641                0.00393058               39.08282012                0.59579703               -0.06377247               -0.06424622                0.21454922               -0.00016863                0.00142818               -0.00011032
               5.99670842                0.00449444               39.08277949                0.66400795               -0.06380498               -0.06407060                0.21398184               -0.00015486                0.00161057               -0.00012874
               6.99607031                0.00506353               39.08274045                0.75125899               -0.06379856               -0.06389612                0.21342119               -0.00013800                0.00183559               -0.00018052
               7.99543245                0.00563438               39.08270377                0.86216180               -0.06375617               -0.06372081                0.21287019               -0.00011716                0.00214235               -0.00026825
               8.99479519                0.00620432               39.08267063                1.00000000               -0.06367226               -0.06354656                0.21233270               -0.00009858                0.00192701               -0.00040131
               9.99415900                0.00677152               39.08262970                0.99460870               -0.06361828               -0.06336511                0.21176980                0.00007813                0.00152308                0.00113680
               0.00005534                1.00067702               39.08292744                0.52669085               -0.06505785               -0.06447294                0.21676625                0.00026874               -0.00070461               -0.00121536
               0.99940476                1.00116604               39.08288389                0.01310272               -0.06540412               -0.06540424                0.21618959                0.00110203               -0.00150876                0.00153754
               1.99874726                1.00166874               39.08282360                0.01000000               -0.06578375               -0.04334193                0.21560578                0.02373380               -0.00233834                0.01636161
               2.99808909                1.00219053               39.08276314                0.01000001               -0.06560804               -0.01229441                0.21500401                0.04797986               -0.00237066                0.04269342
               3.99743510                1.00273203               39.08270231                0.01000000               -0.06517278                0.00430638                0.21439131                0.04353747               -0.00239277                0.05691205
               4.99678563                1.00328812               39.08264175                0.02179165               -0.06473492               -0.03703886                0.21377223                0.01885799               -0.00237850                0.02076928
               5.99614040                1.00385373               39.08258164                0.10854675               -0.06433344               -0.06363992                0.21314951               -0.00034153               -0.00234372               -0.00199107
               6.99549896                1.00442457               39.08252222                0.22367465               -0.06397579               -0.06368799                0.21252683               -0.00023442               -0.00224937               -0.00187041
               7.99486088                1.00499717               39.08246440                0.37767258               -0.06366639               -0.06355646                0.21190946               -0.00008559               -0.00204031               -0.00154075
               8.99422563                1.00556886               39.08240948                0.58721010               -0.06341437               -0.06337580                0.21130186               -0.00000422               -0.00146306               -0.00089924
               9.99359259                1.00613786               39.08236344                0.86408957               -0.06330391               -0.06321230                0.21072191                0.00017176               -0.00103086                0.00169261
              -0.00042594                2.00003758               39.08282041                0.48286669               -0.06471584               -0.06375495                0.21611421                0.00003059               -0.00003598               -0.00138258
               0.99892690                2.00050866               39.08279962                0.01000000               -0.04335542               -0.06575772                0.21553122                0.02377186                0.01237747                0.00213354
               1.99870695                2.00144940               39.08302657                0.01000001               -0.02050401               -0.02037744                0.21600692                0.11017513                0.03522095                0.04320648
               2.99851682                2.00259064               39.08347636                0.01000000               -0.04749583                0.02350357                0.21695791                0.14307257                0.03299458                0.08631902
               3.99775703                2.00346238               39.08368249                0.01000000               -0.09574724                0.06903243                0.21712236                0.10871274               -0.02966563                0.14267676
               4.99660187                2.00318980               39.08288074                0.01000001               -0.10959461                0.05852433                0.21409385                0.06498015               -0.06609890                0.16612369
               5.99556514                2.00322164               39.08234643                0.01141926               -0.08398440                0.08158853                0.21219745                0.11229205               -0.02897915                0.22901250
               6.99492218                2.00378977               39.08227019                0.01621087               -0.06393450                0.00904266                0.21152023                0.11294180               -0.00578240                0.19727397
               7.99428645                2.00436325               39.08219969                0.01000000               -0.06338878                0.02450168                0.21086461                0.09688608               -0.00503150                0.21809561
               8.99365441                2.00493681               39.08213858                0.05590978               -0.06310109               -0.04361529                0.21023645                0.02159623               -0.00300961                0.02423341
               9.99302443                2.00550727               39.08210863                0.55955665               -0.06299820               -0.06382059                0.20970692                0.01179250               -0.00145936                0.02349540
              -0.00088621                2.99940192               39.08271575                0.50479364               -0.06454173               -0.06357657                0.21545507               -0.00015099                0.00000223               -0.00124379
               0.99846838                2.99985089               39.08271086                0.01000001               -0.01225063               -0.06555449                0.21485332                0.04810368                0.03737994                0.00180276
               1.99886878                3.00126119               39.08345312                0.01000000                0.02345935               -0.04734001                0.21688570                0.14333084                0.07529200                0.04179027
               2.99893756                3.00266060               39.08424944                0.01000000                0.00707035                0.00723503                0.21896612                0.18754959                0.08879192                0.10053071
               3.99901019                3.00411268               39.08529299                0.01197052               -0.03057967                0.02477382                0.22170834                0.16520971                0.06427679                0.14373635
               4.99832597                3.00445860               39.08563539                0.01000000               -0.06119588                0.10642135                0.22219610                0.20602749                0.06859651                0.28425001
               5.99778627                3.00548550               39.08676926                0.01813103               -0.08548910                0.11071170                0.22515956                0.16651234                0.01407831                0.30571605
               6.99661619                3.00460542               39.08603490                0.01000001               -0.10673524                0.06265796                0.22239154                0.17065284               -0.02567186                0.35581757
               7.99565157                3.00548720               39.08635306                0.01277074               -0.15513252                0.12226260                0.22392153                0.20942209               -0.18696368                0.49874923
               8.99351354                3.00469655               39.08238017                0.01542001               -0.14820228                0.25052035                0.21248480                0.23164309               -0.20377223                0.94806846
               9.99268752                3.00486145               39.08227866                0.52745344               -0.08260175                0.23813346                0.21168747                0.26914141               -0.01060810                0.96426612
              -0.00132690                3.99876605               39.08261019                0.54342264               -0.06433965               -0.06361699                0.21479784               -0.00018281                0.00002142               -0.00125952
               0.99802970                3.99919757               39.08262019                0.01000000                0.00453776               -0.06509384                0.21416513                0.04369332                0.05109430                0.00160206
               1.99876386                4.00050260               39.08365135                0.01000000                0.06933054               -0.09573527                0.21698155                0.10890683                0.12898813               -0.01322992
               2.99941632                4.00273534               39.08527633                0.01197090                0.02496823               -0.03045592                0.22165393                0.16541002                0.12817166                0.07565092
               3.99926322                4.00395785               39.08634821                0.01000000               -0.00333564               -0.00376864                0.22443437                0.16179429                0.14375525                0.15713297
               4.99934960                4.00531823               39.08831312                0.01803135               -0.02573268                0.02630756                0.22984634                0.12433112                0.08188136                0.17130471
               5.99874857                4.00543587               39.08819066                0.01000001               -0.05080313               -0.00982150                0.22874898                0.04926925                0.02445426                0.19148079
               6.99833354                4.00504293               39.08901678                0.01175516               -0.01824035                0.08498043                0.23058106                0.19624607                0.16699667                0.42512912
               7.99838376                4.00680850               39.09176736                0.01003995                0.02897410                0.16062176                0.23788022                0.43139690                0.56365938                0.71778361
               8.99891302                4.00994721               39.10057730                0.07574265               -0.01531530                0.22464872                0.25990507                0.42703424                0.43367468                0.92461637
               9.99807745                4.01026994               39.10083536                0.56097543               -0.08355681                0.23784518                0.25919745                0.28822222                0.00590818                0.94117605
              -0.00175290                4.99812958               39.08250393                0.59583129               -0.06414070               -0.06366107                0.21414515               -0.00017651                0.00003447               -0.00126495
               0.99760569                4.99854901               39.08252787                0.02182824               -0.03689743               -0.06463321                0.21347068                0.01892453                0.02140665                0.00142845
               1.99750915                4.99934648               39.08297908                0.01000001                0.05924115               -0.10962989                0.21392361                0.06494587                0.14915677               -0.04638191
               2.99879051                5.00205148               39.08558459                0.01000000                0.10770179               -0.06128166                0.22206734                0.20627047                0.25561628                0.07804286
               3.99966318                5.00403731               39.08824862                0.01803167                0.02720291               -0.02615155                0.22979247                0.12409525                0.15287370                0.09487601
               4.99933457                5.00498475               39.08887274                0.01000001               -0.03081148               -0.03194464                0.23086074                0.02950663                0.09279195                0.10597209
               5.99904695                5.00528907               39.09035768                0.01174604               -0.00830449                0.01593426                0.23447340                0.08923901                0.25308527                0.33006640
               6.99916848                5.00630503               39.09421674                0.01000000                0.01641315                0.11969641                0.24488797                0.23922420                0.48490704                0.56246021
               7.99937522                5.00869964               39.10039767                0.07350251               -0.02878487                0.05605179                0.26094424                0.17156369                0.30170885                0.43690751
               8.99859278                5.00918953               39.10066402                0.15613459               -0.07843511               -0.07715536                0.26014605                0.00784761                0.00313769                0.00964379
               9.99780652                5.00961836               39.10087640                0.60644601               -0.07862688               -0.07018329                0.25927474                0.00764971                0.00035941                0.00904368
              -0.00216929                5.99749283               39.08239716                0.66405864               -0.06394155               -0.06366839                0.21349722               -0.00016302                0.00005281               -0.00126634
               0.99719129                5.99790491               39.08243429                0.10860216               -0.06352013               -0.06421096                0.21277274               -0.00031331                0.00165272                0.00129498
               1.99656031                5.99831000               39.08250338                0.01142215                0.08298022               -0.08392847                0.21193880                0.11221543                0.20757358               -0.01666005
               2.99885090                6.00150971               39.08665962                0.01813373                0.11257722               -0.08569141                0.22496247                0.16625704                0.26924196                0.02580275
               3.99881185                6.00343482               39.08809106                0.01000001               -0.00814629               -0.05143413                0.22862368                0.04818372                0.16817369                0.03503322
               4.99868797                6.00467934               39.09026151                0.01174660                0.02006100               -0.01184785                0.23442105                0.08850115                0.31043546                0.25502617
               5.99921307                6.00575456               39.09457393                0.01000000                0.05097425                0.04399473                0.24641738                0.18606880                0.47076773                0.47217522
               6.99970746                6.00743686               39.10002757                0.07352878               -0.01412670                0.01798606                0.26095607                0.11229426                0.26572525                0.29386989
               7.99893054                6.00792954               39.10032148                0.15611612               -0.07781003               -0.07757779                0.26022094                0.00259353                0.00504921               -0.00068405
               8.99815126                6.00840411               39.10056478                0.26639407               -0.07788744               -0.07819228                0.25937120                0.00135547                0.00151136               -0.00023079
               9.99737279                6.00886627               39.10078977                0.67045136               -0.07784684               -0.07600587                0.25851093                0.00131011                0.00054647                0.00208361
              -0.00258032                6.99685621               39.08229002                0.75133704               -0.06374344               -0.06363505                0.21285546               -0.00014686                0.00008840               -0.00127532
               0.99678225                6.99726479               39.08233989                0.22376017               -0.06355124               -0.06383360                0.21207429               -0.00022118                0.00106894                0.00119500
               1.99614866                6.99766791               39.08240944                0.01621588                0.01042945               -0.06383574                0.21118749                0.11275974                0.17457968                0.00261668
               2.99699084                7.00033765               39.08592962                0.01000001                0.06542857               -0.10679764                0.22211298                0.16973171                0.31117341               -0.01468561
               3.99745723                7.00300863               39.08880096                0.01175908                0.08970103               -0.02073970                0.23038902                0.19398753                0.38318439                0.16456559
               4.99878486                7.00474780               39.09381959                0.01000000                0.12767901                0.00966150                0.24476754                0.23904444                0.52449798                0.45493292
               6.00001081                7.00616897               39.09962722                0.07353007                0.02272657               -0.01813712                0.26088996                0.11217899                0.28315363                0.25525841
               6.99923939                7.00666475               39.09993682                0.15615694               -0.07754856               -0.07757998                0.26017423                0.00151335                0.00591657               -0.00256959
               7.99845984                7.00714808               39.10020336                0.26651344               -0.07781157               -0.07794947                0.25934591                0.00057852                0.00295399               -0.00275800
               8.99768316                7.00762568               39.10045584                0.41899456               -0.07757257               -0.07764727                0.25850397                0.00028759                0.00138568               -0.00075557
               9.99690839                7.00809824               39.10069223                0.76034136               -0.07747711               -0.07689632                0.25765001                0.00037026                0.00056484                0.00152560
              -0.00298939                7.99622013               39.08218254                0.86227622               -0.06354425               -0.06356483                0.21222257               -0.00012681                0.00013684               -0.00129469
               0.99637517                7.99662823               39.08224483                0.37781282               -0.06339846               -0.06350460                0.21138032               -0.00008094                0.00073154                0.00111433
               1.99574264                7.99703329               39.08231922                0.01000000                0.02648243               -0.06326725                0.21045938                0.09669555                0.19035705                0.00265192
               2.99690482                7.99937375               39.08617406                0.01277685                0.12694063               -0.15439315                0.22343996                0.20552233                0.43676707               -0.14731652
               3.99828146                8.00302003               39.09124687                0.01004920                0.17018511                0.02199443                0.23766289                0.43134485                0.63779063                0.50304965
               5.00030852                8.00487257               39.09923325                0.07350807                0.06291203               -0.03287955                0.26073201                0.17106035                0.39135071                0.27332121
               5.99953970                8.00539182               39.09955030                0.15611867               -0.07749566               -0.07779988                0.26008348                0.00259797                0.00541209               -0.00205205
               6.99875861                8.00588526               39.09982218                0.26651505               -0.07792597               -0.07779413                0.25927832                0.00057933                0.00271530               -0.00320589
               7.99798118                8.00637055               39.10008772                0.41907809               -0.07758776               -0.07758789                0.25845308                0.00020560                0.00202305               -0.00235480
               8.99720685                8.00685116               39.10034720                0.63960179               -0.07730501               -0.07730220                0.25761520                0.00006304                0.00109001               -0.00075677
               9.99643508                8.00732835               39.10059464                0.89275362               -0.07717752               -0.07691957                0.25676548                0.00018143                0.00050383                0.00155910
              -0.00339907                8.99558492               39.08207485                1.00000000               -0.06334665               -0.06345378                0.21160325               -0.00010957                0.00017233               -0.00107015
               0.99596747                8.99599470               39.08214923                0.58744553               -0.06319417               -0.06323242                0.21069683               -0.00000349                0.00028229                0.00084041
               1.99533705                8.99640257               39.08222614                0.05603482               -0.04264606               -0.06295817                0.20975762                0.02205921                0.02415196                0.00166707
               2.99511455                8.99724979               39.08277805                0.01568177                0.26241317               -0.14808522                0.21201363                0.22183079                0.81940704               -0.16683378
               4.00058531                9.00344852               39.09874882                0.07596068                0.23598652               -0.02059459                0.25960034                0.42511572                0.79554319                0.37891270
               4.99983428                9.00409021               39.09918783                0.15615756               -0.07676183               -0.07840924                0.25987615                0.00772115                0.01035155               -0.00018925
               5.99905008                9.00461297               39.09946066                0.26640073               -0.07810157               -0.07783482                0.25916713                0.00135587                0.00127062               -0.00171913
               6.99827224                9.00510887               39.09972090                0.41899813               -0.07760156               -0.07753364                0.25836895                0.00028798                0.00045017               -0.00164271
               7.99749805                9.00559633               39.09997900                0.63960461               -0.07728128               -0.07728485                0.25754788                0.00006312                0.00038447               -0.00131659
               8.99672662                9.00607964               39.10023867                0.97866841               -0.07701997               -0.07701969                0.25671359                0.00000793                0.00041936               -0.00061048
               9.99595765                9.00655985               39.10049734                0.99228930               -0.07689732               -0.07672944                0.25586597                0.00014274                0.00041720                0.00119318
              -0.00381115                9.99495105               39.08197203                0.99461087               -0.06314039               -0.06338661                0.21096084                0.00004544               -0.00073913               -0.00084801
               0.99555745                9.99536359               39.08204903                0.86424207               -0.06300558               -0.06311165                0.21003909                0.00015205               -0.00124554                0.00059354
               1.99492874                9.99577413               39.08211635                0.55966381               -0.06309807               -0.06284428                0.20914588                0.01159237                0.01720531                0.00082229
               2.99429549                9.99641205               39.08256267                0.52771701                0.25073059               -0.08377403                0.21111731                0.25979477                0.82388105               -0.00820176
               3.99994335               10.00260814               39.09876283                0.56119515                0.25015015               -0.08403801                0.25883051                0.28042069                0.80181841                0.00429973
               4.99929849               10.00330438               39.09913470                0.60646694               -0.06976008               -0.07858254                0.25893946                0.00777075                0.00477071               -0.00070286
               5.99854815               10.00383512               39.09939273                0.67045810               -0.07587396               -0.07778494                0.25823809                0.00131778               -0.00156527               -0.00072003
               6.99778101               10.00433458               39.09963904                0.76034538               -0.07682400               -0.07742840                0.25744630                0.00036328               -0.00222049               -0.00071479
               7.99701167               10.00482485               39.09988478                0.89275575               -0.07687612               -0.07714751                0.25663025                0.00017188               -0.00214035               -0.00059092
               8.99624349               10.00531077               39.10013274                0.99228956               -0.07670803               -0.07688686                0.25579904                0.00013245               -0.00145805               -0.00043788
               9.99547751               10.00579376               39.10039132                1.00000000               -0.07659782               -0.07660895                0.25495221                0.00028555               -0.00084333                0.00084650
               0.00060237                0.00142136               40.08520115                0.78725591               -0.06497092               -0.06495777                0.21727064               -0.00016225                0.00093862               -0.00091979
               0.99995266                0.00192740               40.08515210                0.52685309               -0.06444778               -0.06503611                0.21671492                0.00028501                0.00132515                0.00069762
               1.99931342                0.00244345               40.08510987                0.48295315               -0.06374002               -0.06472096                0.21616435                0.00004290                0.00141033               -0.00002215
               2.99867786                0.00298088               40.08506129                0.50484965               -0.06357731               -0.06457680                0.21560763               -0.00014499                0.00117271               -0.00007641
               3.99804187                0.00353857               40.08501285                0.54345359               -0.06364459               -0.06440452                0.21505388               -0.00017892                0.00129737               -0.00010161
               4.99740497                0.00411171               40.08496539                0.59583671               -0.06372271               -0.06423463                0.21450341               -0.00017297                0.00146856               -0.00011547
               5.99676742                0.00469513               40.08491919                0.66402170               -0.06376905               -0.06406467                0.21395804               -0.00015856                0.00166071               -0.00013388
               6.99612959                0.00528440               40.08487466                0.75123482               -0.06377815               -0.06389614                0.21341982               -0.00014064                0.00189610               -0.00018717
               7.99549185                0.00587582               40.08483258                0.86207580               -0.06375144               -0.06372630                0.21289095               -0.00011802                0.00221511               -0.00027757
               8.99485456                0.00646655               40.08479417                1.00000000               -0.06368125               -0.06355756                0.21237656               -0.00009699                0.00199297               -0.00041565
               9.99421823                0.00705455               40.08474771                0.99446552               -0.06363326               -0.06338223                0.21183415                0.00008362                0.00157465                0.00117327
               0.00009471                1.00077179               40.08509447                0.52685750               -0.06502428               -0.06442236                0.21663845                0.00027544               -0.00070668               -0.00121157
               0.99944447                1.00127704               40.08504525                0.01307050               -0.06538040               -0.06538131                0.21608062                0.00111438               -0.00151337                0.00153774
               1.99878711                1.00179624               40.08497921                0.01000000               -0.06578101               -0.04366929                0.21551575                0.02341817               -0.00235984                0.01690902
               2.99812885                1.00233511               40.08491283                0.01000001               -0.06562200               -0.01333332                0.21493305                0.04710751               -0.00241275                0.04404159
               3.99747467                1.00289453               40.08484598                0.01000000               -0.06519459                0.00294942                0.21433998                0.04266865               -0.00244955                0.05867108
               4.99682496                1.00346936               40.08477930                0.02183005               -0.06475893               -0.03767889                0.21373819                0.01832214               -0.00244565                0.02131688
               5.99617949                1.00405449               40.08471305                0.10856001               -0.06435600               -0.06365227                0.21313215               -0.00041459               -0.00241621               -0.00205990
               6.99553784                1.00464544               40.08464749                0.22364124               -0.06399452               -0.06368947                0.21252566               -0.00026849               -0.00232188               -0.00193869
               7.99489960                1.00523856               40.08458357                0.37756226               -0.06368069               -0.06355923                0.21192343               -0.00009779               -0.00210709               -0.00159507
               8.99426423                1.00583097               40.08452264                0.58694101               -0.06342689               -0.06338367                0.21133175               -0.00000617               -0.00151136               -0.00093268
               9.99363106                1.00642073               40.08447089                0.86390054               -0.06331665               -0.06322695                0.21077062                0.00017451               -0.00106550                0.00174501
              -0.00040262                2.00013292               40.08498105                0.48296347               -0.06468778               -0.06369173                0.21600906                0.00003421               -0.00004056               -0.00137369
               0.99895050                2.00061977               40.08495452                0.01000000               -0.04368346               -0.06575842                0.21544346                0.02345781                0.01291883                0.00211793
               1.99872371                2.00157006               40.08518659                0.01000001               -0.02143868               -0.02130876                0.21599599                0.10814124                0.03654970                0.04454848
               2.99852172                2.00271421               40.08564626                0.01000000               -0.04813581                0.02171968                0.21701601                0.14036592                0.03416172                0.08906593
               3.99776099                2.00359756               40.08585419                0.01000000               -0.09551369                0.06632558                0.21721089                0.10661895               -0.03055615                0.14716643
               4.99661145                2.00335813               40.08502163                0.01000001               -0.10889692                0.05597991                0.21408177                0.06382582               -0.06809266                0.17119415
               5.99558305                2.00342209               40.08446827                0.01141867               -0.08356516                0.07852527                0.21217142                0.11017068               -0.02979620                0.23593278
               6.99494015                2.00401061               40.08438528                0.01620955               -0.06393468                0.00746923                0.21150672                0.11076480               -0.00597228                0.20316798
               7.99430436                2.00460464               40.08430832                0.01000000               -0.06339412                0.02286282                0.21086095                0.09504136               -0.00519526                0.22515512
               8.99367227                2.00519888               40.08424100                0.05591976               -0.06310793               -0.04338785                0.21024848                0.02182935               -0.00310974                0.02590741
               9.99304220                2.00579002               40.08420587                0.55957039               -0.06300649               -0.06372963                0.20974356                0.01182170               -0.00150880                0.02512809
              -0.00087832                2.99949795               40.08486990                0.50486394               -0.06452023               -0.06350805                0.21537277               -0.00015407               -0.00000307               -0.00122957
               0.99847648                2.99996187               40.08485907                0.01000001               -0.01330965               -0.06557393                0.21478602                0.04724138                0.03872208                0.00176443
               1.99885549                3.00137006               40.08562231                0.01000000                0.02160949               -0.04797565                0.21694528                0.14064289                0.07802294                0.04296959
               2.99890867                3.00276950               40.08643994                0.01000000                0.00538173                0.00568495                0.21912706                0.18411481                0.09188364                0.10365261
               3.99896313                3.00422104               40.08751134                0.01196991               -0.03158632                0.02288483                0.22196725                0.16221418                0.06656511                0.14824981
               4.99827695                3.00458896               40.08785870                0.01000000               -0.06163501                0.10293362                0.22246714                0.20216030                0.07098612                0.29306876
               5.99773043                3.00562499               40.08902261                0.01813192               -0.08531796                0.10694033                0.22550829                0.16337778                0.01481023                0.31502107
               6.99657059                3.00479482               40.08826030                0.01000001               -0.10591353                0.05986374                0.22268515                0.16746577               -0.02566453                0.36638264
               7.99561216                3.00569582               40.08859432                0.01280539               -0.15275754                0.11822457                0.22432987                0.20539022               -0.19134844                0.51339701
               8.99351544                3.00496322               40.08450637                0.01567807               -0.14634712                0.24285132                0.21275556                0.22490508               -0.20945142                0.97405812
               9.99268521                3.00514614               40.08439697                0.52767629               -0.08302225                0.22986087                0.21197523                0.26032235               -0.01095592                0.99013619
              -0.00133354                3.99886276               40.08475787                0.54347714               -0.06432435               -0.06355413                0.21473921               -0.00018769                0.00001638               -0.00123406
               0.99802321                3.99930829               40.08476160                0.01000000                0.00312360               -0.06512188                0.21411773                0.04284231                0.05284512                0.00154981
               1.99872893                4.00061055               40.08582159                0.01000000                0.06649159               -0.09552411                0.21707468                0.10699441                0.13347123               -0.01407520
               2.99935305                4.00282791               40.08749421                0.01197134                0.02284437               -0.03128080                0.22190309                0.16257576                0.13266247                0.07796348
               3.99918582                4.00405526               40.08859425                0.01000000               -0.00511728               -0.00512113                0.22476824                0.15886835                0.14860599                0.16203081
               4.99925070                4.00541680               40.09061384                0.01803204               -0.02705338                0.02427636                0.23029330                0.12201974                0.08478216                0.17655447
               5.99864475                4.00556090               40.09048015                0.01000001               -0.05160304               -0.01112651                0.22914322                0.04850800                0.02553833                0.19708082
               6.99821864                4.00520788               40.09132477                0.01176094               -0.02004918                0.08169180                0.23100872                0.19194281                0.17233141                0.43736786
               7.99824377                4.00696913               40.09414898                0.01006610                0.02507017                0.15501354                0.23841035                0.42043972                0.57907856                0.73737460
               8.99872004                4.01005590               40.10317805                0.07593000               -0.01804832                0.21667429                0.26022662                0.41458988                0.44516507                0.94940503
               9.99788280                4.01038723               40.10342836                0.56113904               -0.08372432                0.22949772                0.25938625                0.27897795                0.00606409                0.96587647
              -0.00177315                4.99822687               40.08464521                0.59586983               -0.06413174               -0.06361006                0.21411098               -0.00018154                0.00002960               -0.00122811
               0.99758553                4.99865943               40.08466243                0.02186843               -0.03755449               -0.06466387                0.21344260                0.01839035                0.02197924                0.00136743
               1.99747576                4.99945958               40.08511847                0.01000001                0.05649725               -0.10897268                0.21390188                0.06412532                0.15421251               -0.04834573
               2.99871548                5.00214389               40.08780663                0.01000000                0.10379189               -0.06145653                0.22233695                0.20297153                0.26438762                0.08045207
               3.99955160                5.00411861               40.09054891                0.01803302                0.02481100               -0.02711535                0.23023948                0.12206795                0.15809331                0.09780762
               4.99921170                5.00507449               40.09118357                0.01000001               -0.03210462               -0.03282042                0.23129271                0.02939864                0.09590825                0.10914179
               5.99890951                5.00540246               40.09270465                0.01174917               -0.01052458                0.01424416                0.23492226                0.08755038                0.26089813                0.33984202
               6.99900121                5.00642866               40.09666803                0.01000000                0.01317106                0.11560531                0.24538300                0.23350530                0.49897189                0.57862533
               7.99917293                5.00879609               40.10300952                0.07351292               -0.03060392                0.05276079                0.26139591                0.16704794                0.31022081                0.44897097
               8.99838913                5.00929670               40.10326714                0.15616255               -0.07854095               -0.07727435                0.26045723                0.00782471                0.00316369                0.01029894
               9.99760211                5.00973609               40.10347008                0.60646661               -0.07870198               -0.07017423                0.25944825                0.00767955                0.00036047                0.00962580
              -0.00220230                5.99759055               40.08453208                0.66407065               -0.06393906               -0.06363275                0.21348812               -0.00016746                0.00004787               -0.00122059
               0.99715831                5.99801502               40.08456197                0.10861592               -0.06353602               -0.06423990                0.21276338               -0.00039451                0.00159217                0.00122777
               1.99652698                5.99843110               40.08462270                0.01142274                0.07975666               -0.08352807                0.21191128                0.11057313                0.21448145               -0.01748238
               2.99875344                6.00159878               40.08891108                0.01813527                0.10847982               -0.08534097                0.22530947                0.16385641                0.27849933                0.02655402
               3.99869658                6.00351295               40.09037936                0.01000001               -0.00993090               -0.05191314                0.22902315                0.04790510                0.17374504                0.03613860
               4.99855483                6.00476040               40.09260811                0.01175017                0.01725070               -0.01294870                0.23487623                0.08709567                0.32017647                0.26288147
               5.99904159                6.00584578               40.09704059                0.01000000                0.04701485                0.04177201                0.24693203                0.18189733                0.48489910                0.48633919
               6.99949512                6.00751999               40.10263977                0.07353477               -0.01624559                0.01588160                0.26145668                0.10960167                0.27350338                0.30244229
               7.99871668                6.00802435               40.10292555                0.15612493               -0.07792957               -0.07770830                0.26057735                0.00258056                0.00510343               -0.00058340
               8.99793653                6.00851042               40.10315965                0.26641203               -0.07795360               -0.07826156                0.25958933                0.00135669                0.00151629               -0.00014554
               9.99715761                6.00898375               40.10337533                0.67046392               -0.07789237               -0.07602259                0.25859083                0.00132497                0.00055311                0.00218380
              -0.00262542                6.99695421               40.08441865                0.75130838               -0.06374733               -0.06361682                0.21287096               -0.00014995                0.00008226               -0.00122006
               0.99673710                6.99737463               40.08446067                0.22372584               -0.06355578               -0.06385795                0.21208235               -0.00025958                0.00100801                0.00112683
               1.99610346                6.99778902               40.08452128                0.01621424                0.00868254               -0.06383934                0.21118011                0.11106098                0.18044885                0.00243568
               2.99691075                7.00043707               40.08815221                0.01000001                0.06223131               -0.10595326                0.22239833                0.16753546                0.32168668               -0.01473734
               3.99734809                7.00308035               40.09110706                0.01176506                0.08550144               -0.02161965                0.23082111                0.19080227                0.39540563                0.16993958
               4.99862078                7.00481551               40.09626997                0.01000000                0.12198873                0.00829314                0.24530370                0.23385702                0.54066121                0.46901885
               5.99978786                7.00623790               40.10223897                0.07353652                0.01969459               -0.01933026                0.26142366                0.10963439                0.29171963                0.26303916
               6.99901468                7.00674629               40.10254059                0.15616424               -0.07768745               -0.07771224                0.26056760                0.00150736                0.00597837               -0.00250396
               7.99823411                7.00724192               40.10279818                0.26652918               -0.07789070               -0.07802926                0.25960161                0.00058208                0.00296684               -0.00273347
               8.99745686                7.00773147               40.10304150                0.41902883               -0.07760853               -0.07768286                0.25862044                0.00028751                0.00139114               -0.00072306
               9.99668194                7.00821564               40.10326864                0.76036947               -0.07749183               -0.07688832                0.25762721                0.00038442                0.00056944                0.00156807
              -0.00304614                7.99631822               40.08430497                0.86218308               -0.06355482               -0.06356467                0.21226393               -0.00012786                0.00012805               -0.00122681
               0.99631831                7.99673786               40.08435876                0.37769989               -0.06340482               -0.06352390                0.21140613               -0.00009534                0.00068139                0.00105243
               1.99568576                7.99715431               40.08442383                0.01000000                0.02472534               -0.06327481                0.21045930                0.09535083                0.19731947                0.00249689
               2.99681282                7.99947972               40.08841042                0.01281090                0.12242061               -0.15234683                0.22386435                0.20337725                0.45141743               -0.15170528
               3.99813418                8.00308056               40.09362621                0.01007498                0.16307971                0.02019436                0.23821635                0.42192243                0.65747013                0.51853843
               5.00007441                8.00492626               40.10184348                0.07351727                0.05846643               -0.03366327                0.26129091                0.16719246                0.40342663                0.28183077
               5.99930351                8.00545917               40.10215337                0.15612669               -0.07765813               -0.07793441                0.26051053                0.00260275                0.00551570               -0.00199805
               6.99852125                8.00596574               40.10241648                0.26652945               -0.07801840               -0.07788262                0.25956837                0.00058557                0.00273863               -0.00319107
               7.99774314                8.00646376               40.10267306                0.41911328               -0.07763458               -0.07763427                0.25860315                0.00020767                0.00203736               -0.00233996
               8.99696856                8.00695676               40.10292344                0.63969053               -0.07730924               -0.07730563                0.25762625                0.00006319                0.00109720               -0.00073683
               9.99619695                8.00744598               40.10316166                0.89282135               -0.07716072               -0.07688015                0.25663719                0.00019606                0.00050795                0.00158528
              -0.00346726                8.99568292               40.08419121                1.00000000               -0.06336326               -0.06346931                0.21167060               -0.00010800                0.00015913               -0.00100806
               0.99589911                8.99610416               40.08425641                0.58717519               -0.06320593               -0.06324947                0.21074006               -0.00000580                0.00025131                0.00079643
               1.99526862                8.99652352               40.08432380                0.05604648               -0.04235274               -0.06296600                0.20977202                0.02244724                0.02576585                0.00157396
               2.99505205                8.99739013               40.08489943                0.01594886                0.25356865               -0.14657371                0.21227184                0.21818263                0.84542227               -0.17244546
               4.00033999                9.00348424               40.10134744                0.07615343                0.22669814               -0.02194055                0.26010079                0.41487471                0.82042625                0.39042893
               4.99958601                9.00414225               40.10178892                0.15618465               -0.07697804               -0.07855264                0.26032266                0.00779844                0.01098786               -0.00015700
               5.99880043                9.00467922               40.10205402                0.26641584               -0.07821074               -0.07793144                0.25948812                0.00137146                0.00135622               -0.00171303
               6.99802180                9.00518864               40.10230556                0.41902963               -0.07765903               -0.07758959                0.25855255                0.00029013                0.00048291               -0.00163524
               7.99724725                9.00568924               40.10255473                0.63968837               -0.07729482               -0.07729911                0.25759236                0.00006366                0.00040445               -0.00130865
               8.99647590                9.00618536               40.10280535                0.97889838               -0.07699182               -0.07699177                0.25661831                0.00000773                0.00042906               -0.00060079
               9.99570742                9.00667804               40.10305482                0.99246638               -0.07684879               -0.07665751                0.25563081                0.00015842                0.00042074                0.00120482
              -0.00389077                9.99504883               40.08408207                0.99446826               -0.06316357               -0.06340887                0.21105063                0.00005279               -0.00070459               -0.00079949
               0.99547759                9.99547287               40.08414973                0.86404831               -0.06302485               -0.06312872                0.21010283                0.00015660               -0.00119669                0.00056228
               1.99484873                9.99589499               40.08420802                0.55967966               -0.06309189               -0.06285348                0.20918762                0.01177988                0.01876273                0.00077718
               2.99421576                9.99654824               40.08467518                0.52794894                0.24154108               -0.08418911                0.21139475                0.25370831                0.84976373               -0.00853594
               3.99967955               10.00264175               40.10135323                0.56136518                0.24098250               -0.08424941                0.25923017                0.27430432                0.82662603                0.00445482
               4.99903541               10.00335521               40.10172587                0.60648731               -0.06975029               -0.07870435                0.25927961                0.00787921                0.00532844               -0.00069841
               5.99828455               10.00390055               40.10197625                0.67046806               -0.07591865               -0.07786701                0.25845274                0.00134889               -0.00146561               -0.00071228
               6.99751703               10.00441395               40.10221392                0.76036862               -0.07684306               -0.07746838                0.25752314                0.00038503               -0.00217581               -0.00070883
               7.99674769               10.00491778               40.10245079                0.89281682               -0.07685614               -0.07714575                0.25656850                0.00019210               -0.00211186               -0.00058607
               8.99597991               10.00541692               40.10268972                0.99246721               -0.07664643               -0.07684361                0.25559744                0.00015340               -0.00144440               -0.00043409
               9.99521476               10.00591283               40.10293912                1.00000000               -0.07651517               -0.07652077                0.25461060                0.00032529               -0.00083947                0.00084901
               0.00066360                0.00152200               41.08737310                0.78737538               -0.06492378               -0.06491093                0.21711494               -0.00015575                0.00094066               -0.00092030
               1.00001436                0.00204440               41.08731859                0.52702689               -0.06439164               -0.06500149                0.21657913                0.00029408                0.00133278                0.00069733
               1.99937577                0.00257711               41.08727095                0.48305035               -0.06366905               -0.06469127                0.21605013                0.00004758                0.00142649               -0.00002665
               2.99874098                0.00313193               41.08721692                0.50492677               -0.06350224               -0.06455305                0.21551459               -0.00014805                0.00119737               -0.00008218
               3.99810572                0.00370797               41.08716305                0.54351604               -0.06357677               -0.06438590                0.21498213               -0.00018363                0.00133331               -0.00010753
               4.99746945                0.00430044               41.08711019                0.59587826               -0.06366798               -0.06422228                0.21445554               -0.00017758                0.00151493               -0.00012120
               5.99683236                0.00490404               41.08705865                0.66403597               -0.06373014               -0.06405850                0.21393392               -0.00016264                0.00171730               -0.00013969
               6.99619484                0.00551413               41.08700885                0.75120706               -0.06375612               -0.06389596                0.21341885               -0.00014345                0.00196330               -0.00019436
               7.99555724                0.00612684               41.08696159                0.86198103               -0.06374643               -0.06373210                0.21291361               -0.00011878                0.00229562               -0.00028774
               8.99491992                0.00673907               41.08691816                1.00000000               -0.06369100               -0.06356935                0.21242386               -0.00009523                0.00206604               -0.00043128
               9.99428342                0.00734861               41.08686638                0.99431592               -0.06364941               -0.06340049                0.21190311                0.00008945                0.00163176                0.00121357
               0.00013965                1.00087289               41.08726021                0.52703433               -0.06498953               -0.06436615                0.21650409                0.00028417               -0.00070873               -0.00120798
               0.99948975                1.00139438               41.08720550                0.01303742               -0.06535842               -0.06536002                0.21596608                0.00113326               -0.00151773                0.00153662
               1.99883248                1.00193019               41.08713391                0.01000000               -0.06578431               -0.04399128                0.21542296                0.02312226               -0.00238107                0.01748496
               2.99817407                1.00248640               41.08706180                0.01000001               -0.06564247               -0.01435379                0.21485964                0.04626944               -0.00245541                0.04544203
               3.99751963                1.00306412               41.08698911                0.01000000               -0.06522134                0.00161825                0.21428473                0.04183176               -0.00250861                0.06048779
               4.99686964                1.00365822               41.08691651                0.02186982               -0.06478703               -0.03830770                0.21370229                0.01779148               -0.00251675                0.02186859
               5.99622389                1.00426345               41.08684429                0.10857350               -0.06438176               -0.06366472                0.21311427               -0.00049231               -0.00249406               -0.00213641
               6.99558201                1.00487517               41.08677274                0.22360659               -0.06401525               -0.06369088                0.21252439               -0.00030421               -0.00240108               -0.00200927
               7.99494359                1.00548952               41.08670287                0.37743886               -0.06369626               -0.06356227                0.21193851               -0.00011063               -0.00218035               -0.00165615
               8.99430808                1.00610338               41.08663611                0.58665681               -0.06344044               -0.06339219                0.21136389               -0.00000824               -0.00156394               -0.00096929
               9.99367478                1.00671460               41.08657885                0.86369911               -0.06333038               -0.06324261                0.21082265                0.00017721               -0.00110295                0.00180353
              -0.00037369                2.00023468               41.08714059                0.48306177               -0.06465752               -0.06361943                0.21589705                0.00003876               -0.00004532               -0.00136281
               0.99897973                2.00073720               41.08710849                0.01000000               -0.04400521               -0.06576430                0.21534957                0.02316285                0.01349016                0.00210087
               1.99874620                2.00169728               41.08734649                0.01000001               -0.02236413               -0.02223030                0.21597663                0.10617726                0.03793968                0.04594839
               2.99853245                2.00284485               41.08781668                0.01000000               -0.04878317                0.01996492                0.21706509                0.13775962                0.03537181                0.09192414
               3.99777054                2.00374034               41.08802670                0.01000000               -0.09532535                0.06367536                0.21728348                0.10462633               -0.03149034                0.15182005
               4.99662594                2.00353428               41.08716238                0.01000001               -0.10824892                0.05347760                0.21407742                0.06275943               -0.07016525                0.17641245
               5.99560556                2.00363074               41.08658986                0.01141955               -0.08316268                0.07552986                0.21214407                0.10815092               -0.03063987                0.24302812
               6.99496269                2.00424032               41.08650032                0.01620849               -0.06393671                0.00592045                0.21149729                0.10870159               -0.00618134                0.20920784
               7.99432683                2.00485560               41.08641691                0.01000000               -0.06340095                0.02124815                0.21086065                0.09329259               -0.00538002                0.23241680
               8.99369467                2.00547123               41.08634355                0.05593076               -0.06311581               -0.04313594                0.21026280                0.02209708               -0.00321824                0.02771472
               9.99306451                2.00608376               41.08630350                0.55958520               -0.06301590               -0.06364589                0.20978338                0.01187451               -0.00156179                0.02690001
              -0.00086461                2.99960051               41.08702320                0.50493951               -0.06449767               -0.06343106                0.21528631               -0.00015722               -0.00000907               -0.00120933
               0.99849041                3.00007910               41.08700658                0.01000001               -0.01435075               -0.06559975                0.21471525                0.04641215                0.04011728                0.00172583
               1.99884837                3.00148559               41.08779202                0.01000000                0.01978939               -0.04861712                0.21699586                0.13805298                0.08086806                0.04419908
               2.99888620                3.00288569               41.08863198                0.01000000                0.00371747                0.00415315                0.21927199                0.18082436                0.09509324                0.10687324
               3.99892272                3.00433762               41.08973234                0.01197034               -0.03258862                0.02102790                0.22220810                0.15936265                0.06893971                0.15292321
               4.99823443                3.00472777               41.09008473                0.01000000               -0.06209227                0.09950826                0.22272250                0.19849157                0.07344352                0.30215140
               5.99768088                3.00577405               41.09127943                0.01813540               -0.08516238                0.10323516                0.22580473                0.16043259                0.01557374                0.32454585
               6.99653118                3.00499358               41.09048861                0.01000001               -0.10511758                0.05711185                0.22293287                0.16445428               -0.02562011                0.37714726
               7.99557853                3.00591449               41.09083965                0.01284248               -0.15046587                0.11426001                0.22474296                0.20161492               -0.19573478                0.52832327
               8.99352186                3.00524066               41.08663528                0.01594910               -0.14456610                0.23516613                0.21304184                0.21847398               -0.21521554                1.00021098
               9.99268720                3.00544169               41.08651816                0.52791108               -0.08346581                0.22152977                0.21227850                0.25178381               -0.01131419                1.01608794
              -0.00133402                3.99896606               41.08690498                0.54353821               -0.06430843               -0.06348479                0.21467826               -0.00019311                0.00001054               -0.00120192
               0.99802289                3.99942520               41.08690254                0.01000000                0.00173436               -0.06515561                0.21406850                0.04202412                0.05466357                0.00149504
               1.99870067                4.00072494               41.08799284                0.01000000                0.06370028               -0.09535650                0.21715355                0.10517684                0.13810508               -0.01499267
               2.99929690                4.00292791               41.08971439                0.01197084                0.02075261               -0.03210202                0.22214254                0.15987897                0.13730250                0.08035566
               3.99911572                4.00416090               41.09084358                0.01000000               -0.00687759               -0.00646330                0.22508624                0.15609622                0.15360904                0.16704969
               4.99915935                4.00552445               41.09291898                0.01803298               -0.02836600                0.02227730                0.23071933                0.11985587                0.08776820                0.18193332
               5.99854840                4.00569544               41.09277352                0.01000001               -0.05240061               -0.01242896                0.22950490                0.04788399                0.02666702                0.20276912
               6.99811134                4.00538255               41.09363695                0.01176841               -0.02181743                0.07844777                0.23138042                0.18786140                0.17777445                0.44971544
               7.99811205                4.00714080               41.09653557                0.01009517                0.02128059                0.14940025                0.23884808                0.40970003                0.59449009                0.75700232
               8.99853695                4.01017455               41.10578183                0.07612828               -0.02069602                0.20866253                0.26050034                0.40235916                0.45662075                0.97430862
               9.99769813                4.01051435               41.10602308                0.56131117               -0.08388187                0.22111060                0.25953625                0.27001164                0.00622045                0.99061265
              -0.00178676                4.99833081               41.08678615                0.59591184               -0.06412219               -0.06355413                0.21407497               -0.00018714                0.00002390               -0.00118538
               0.99757202                4.99877599               41.08679672                0.02190589               -0.03820191               -0.06469875                0.21341286                0.01786369                0.02252496                0.00130042
               1.99744920                4.99957846               41.08725712                0.01000001                0.05379011               -0.10836975                0.21389516                0.06339157                0.15942194               -0.05040411
               2.99864782                5.00224365               41.09003133                0.01000000                0.09994553               -0.06163546                0.22259527                0.19986136                0.27344581                0.08293109
               3.99944811                5.00420836               41.09285341                0.01803416                0.02245893               -0.02807227                0.23066086                0.12018320                0.16345564                0.10082113
               4.99909700                5.00517331               41.09349859                0.01000001               -0.03338282               -0.03369397                0.23169729                0.02940148                0.09911050                0.11236722
               5.99878046                5.00552547               41.09505612                0.01175407               -0.01269722                0.01257924                0.23535290                0.08601107                0.26883573                0.34974401
               6.99884305                5.00656254               41.09912440                0.01000000                0.01000379                0.11152947                0.24583660                0.22791278                0.51312596                0.59487552
               7.99898053                5.00890249               41.10562559                0.07352479               -0.03237812                0.04942048                0.26180410                0.16260236                0.31875897                0.46105963
               8.99819549                5.00941391               41.10587317                0.15619441               -0.07863506               -0.07738592                0.26072950                0.00781310                0.00319044                0.01100828
               9.99740783                5.00986390               41.10606536                0.60649062               -0.07876617               -0.07014797                0.25959073                0.00771707                0.00036128                0.01025707
              -0.00222812                5.99769498               41.08666692                0.66408289               -0.06393629               -0.06359395                0.21347822               -0.00017226                0.00004197               -0.00116755
               0.99713252                5.99813123               41.08668956                0.10862686               -0.06355279               -0.06427199                0.21275305               -0.00048387                0.00151525                0.00115389
               1.99650083                5.99855754               41.08674160                0.01142250                0.07658523               -0.08314800                0.21188217                0.10904313                0.22155660               -0.01830616
               2.99866423                6.00169520               41.09116581                0.01813733                0.10444461               -0.08500446                0.22563122                0.16164438                0.28801393                0.02732681
               3.99858972                6.00359945               41.09267152                0.01000001               -0.01169806               -0.05238948                0.22939309                0.04774223                0.17942569                0.03728912
               4.99843027                6.00485057               41.09495903                0.01175500                0.01448369               -0.01402545                0.23530968                0.08583753                0.33006882                0.27086759
               5.99887940                6.00594703               41.09951257                0.01000000                0.04311517                0.03957523                0.24741747                0.17783447                0.49915945                0.50062402
               6.99929257                6.00761314               41.10525670                0.07354350               -0.01833346                0.01377117                0.26190678                0.10694344                0.28132142                0.31105355
               7.99851273                6.00812921               41.10553302                0.15613624               -0.07803839               -0.07782918                0.26089986                0.00257120                0.00515758               -0.00047158
               8.99773180                6.00862683               41.10575656                0.26643211               -0.07801181               -0.07832369                0.25978037                0.00136067                0.00152004               -0.00005033
               9.99695249                6.00911139               41.10596158                0.67047917               -0.07793114               -0.07603152                0.25865103                0.00133988                0.00055899                0.00229219
              -0.00266271                6.99705893               41.08654744                0.75127871               -0.06375159               -0.06359706                0.21288785               -0.00015343                0.00007521               -0.00115596
               0.99669978                6.99749055               41.08658153                0.22369427               -0.06356015               -0.06388447                0.21209095               -0.00030116                0.00094171                0.00105182
               1.99606609                6.99791550               41.08663304                0.01621274                0.00695112               -0.06384148                0.21116206                0.10947803                0.18646000                0.00224029
               2.99683880                7.00054356               41.09037759                0.01000001                0.05907510               -0.10513885                0.22267353                0.16558165                0.33244254               -0.01471930
               3.99724759                7.00316057               41.09341738                0.01177303                0.08136872               -0.02245201                0.23121323                0.18786595                0.40778884                0.17544281
               4.99846617                7.00489281               41.09872567                0.01000000                0.11634916                0.00698281                0.24578645                0.22880166                0.55694753                0.48322842
               5.99957457                7.00631697               41.10485569                0.07354495                0.01667859               -0.02051148                0.26190443                0.10713866                0.30034342                0.27086202
               6.99879974                7.00683796               41.10514817                0.15617600               -0.07781533               -0.07783378                0.26092597                0.00150302                0.00604604               -0.00243404
               7.99801827                7.00734591               41.10539539                0.26654809               -0.07796122               -0.07810057                0.25982786                0.00058589                0.00297819               -0.00270653
               8.99724052                7.00784743               41.10562824                0.41906957               -0.07763825               -0.07771257                0.25871622                0.00028754                0.00139792               -0.00068746
               9.99646550                7.00834327               41.10584478                0.76039861               -0.07750178               -0.07687619                0.25759198                0.00039797                0.00057515                0.00161297
              -0.00309441                7.99642304               41.08642782                0.86208956               -0.06356532               -0.06356400                0.21230667               -0.00012903                0.00011791               -0.00114979
               0.99626993                7.99685354               41.08647295                0.37757640               -0.06341080               -0.06354425                0.21143204               -0.00010992                0.00062272                0.00098288
               1.99563737                7.99728071               41.08652840                0.01000000                0.02304277               -0.06328197                0.21045610                0.09410719                0.20451173                0.00231915
               2.99673079                7.99959243               41.09065135                0.01284920                0.11802144               -0.15037232                0.22428425                0.20151250                0.46636853               -0.15609222
               3.99799780                8.00315041               41.09601120                0.01010379                0.15595517                0.01847551                0.23868530                0.41272809                0.67720515                0.53408459
               4.99984989                8.00499023               41.10445906                0.07352791                0.05396059               -0.03440625                0.26181003                0.16338339                0.41555934                0.29039066
               5.99907701                8.00553680               41.10476051                0.15613782               -0.07780986               -0.07805708                0.26089922                0.00261119                0.00562594               -0.00193775
               6.99829370                8.00605647               41.10501355                0.26654866               -0.07810206               -0.07796197                0.25982750                0.00059240                0.00276349               -0.00317689
               7.99751497                8.00656720               41.10525978                0.41915171               -0.07767525               -0.07767426                0.25873234                0.00020979                0.00205156               -0.00232318
               8.99674019                8.00707258               41.10549972                0.63978485               -0.07730943               -0.07730495                0.25762368                0.00006311                0.00110515               -0.00071736
               9.99596878                8.00757387               41.10572739                0.89289126               -0.07714086               -0.07683887                0.25650279                0.00020971                0.00051270                0.00160969
              -0.00352630                8.99578765               41.08630826                1.00000000               -0.06338035               -0.06348532                0.21174082               -0.00010609                0.00014382               -0.00093873
               0.99583990                8.99621966               41.08636403                0.58688503               -0.06321799               -0.06326721                0.21078476               -0.00000813                0.00021479                0.00074616
               1.99520934                8.99664986               41.08642158                0.05606016               -0.04202759               -0.06297452                0.20978723                0.02288144                0.02751449                0.00146975
               2.99499935                8.99753612               41.08702349                0.01622808                0.24475043               -0.14512978                0.21254691                0.21474945                0.87169934               -0.17817332
               4.00010435                9.00353008               41.10395084                0.07635889                0.21740519               -0.02323761                0.26053958                0.40479764                0.84552709                0.40194875
               4.99934745                9.00420468               41.10439429                0.15621491               -0.07718976               -0.07868542                0.26073133                0.00789501                0.01167424               -0.00012644
               5.99856056                9.00475583               41.10465042                0.26643352               -0.07831288               -0.07801894                0.25977875                0.00139076                0.00145007               -0.00170677
               6.99778119                9.00527872               41.10489195                0.41906483               -0.07771039               -0.07763879                0.25871431                0.00029260                0.00051824               -0.00162805
               7.99700635                9.00579242               41.10513084                0.63977722               -0.07730431               -0.07730915                0.25762302                0.00006395                0.00042449               -0.00129966
               8.99623511                9.00630134               41.10537104                0.97913115               -0.07696176               -0.07696190                0.25651672                0.00000759                0.00043802               -0.00059180
               9.99546711                9.00680649               41.10560996                0.99264651               -0.07679939               -0.07658603                0.25539706                0.00017304                0.00042393                0.00121481
              -0.00396055                9.99515333               41.08619304                0.99431895               -0.06318806               -0.06343220                0.21114539                0.00006082               -0.00066610               -0.00074551
               0.99540757                9.99558820               41.08625108                0.86384425               -0.06304516               -0.06314660                0.21017001                0.00016119               -0.00114235                0.00052647
               1.99477854                9.99602122               41.08630010                0.55969688               -0.06310037               -0.06286350                0.20923187                0.01200175                0.02046192                0.00072661
               2.99414556                9.99668983               41.08679056                0.52819277                0.23233238               -0.08462865                0.21169187                0.24784285                0.87584283               -0.00888226
               3.99942519               10.00268566               41.10394743                0.56154284                0.23182403               -0.08444177                0.25957648                0.26841814                0.85158788                0.00461056
               4.99878204               10.00341652               41.10432029                0.60651021               -0.06972028               -0.07881620                0.25958880                0.00799671                0.00593244               -0.00069500
               5.99803078               10.00397642               41.10456178                0.67048055               -0.07595407               -0.07794109                0.25864445                0.00138138               -0.00135822               -0.00070498
               6.99726296               10.00450369               41.10478950                0.76039383               -0.07685743               -0.07750318                0.25758633                0.00040591               -0.00212829               -0.00070286
               7.99649364               10.00502101               41.10501615                0.89288231               -0.07683421               -0.07714083                0.25650018                0.00021120               -0.00208316               -0.00058090
               8.99572627               10.00553334               41.10524469                0.99264611               -0.07658520               -0.07679945                0.25539699                0.00017326               -0.00143159               -0.00043051
               9.99496193               10.00604215               41.10548353                1.00000000               -0.07643409               -0.07643420                0.25427801                0.00036257               -0.00083593                0.00085092
               0.00073021                0.00162875               42.08954345                0.78749897               -0.06487356               -0.06486115                0.21695162               -0.00014890                0.00094289               -0.00092109
               1.00008147                0.00216752               42.08948369                0.52721459               -0.06432940               -0.06496547                0.21643578                0.00030516                0.00134251                0.00069620
               1.99944362                0.00271698               42.08943087                0.48315824               -0.06358827               -0.06465835                0.21592781                0.00005314                0.00144549               -0.00003176
               2.99880971                0.00328946               42.08937159                0.50500503               -0.06341802               -0.06452773                0.21541662               -0.00015097                0.00122457               -0.00008892
               3.99817526                0.00388429               42.08931250                0.54357791               -0.06350205               -0.06436671                0.21490819               -0.00018887                0.00137454               -0.00011384
               4.99753967                0.00449664               42.08925450                0.59592305               -0.06360793               -0.06420924                0.21440581               -0.00018287                0.00156887               -0.00012746
               5.99690310                0.00512107               42.08919787                0.66404972               -0.06368758               -0.06405204                0.21390927               -0.00016710                0.00178131               -0.00014613
               6.99626592                0.00575274               42.08914304                0.75117713               -0.06373243               -0.06389631                0.21341954               -0.00014646                0.00203826               -0.00020233
               7.99562845                0.00638751               42.08909085                0.86188094               -0.06374142               -0.06373906                0.21293988               -0.00011972                0.00238439               -0.00029882
               8.99499109                0.00702202               42.08904265                1.00000000               -0.06370176               -0.06358224                0.21247563               -0.00009360                0.00214586               -0.00044819
               9.99435442                0.00765389               42.08898577                0.99415937               -0.06366687               -0.06341988                0.21197710                0.00009570                0.00169396                0.00125811
               0.00018995                1.00098014               42.08942456                0.52721751               -0.06495383               -0.06430432                0.21636332                0.00029573               -0.00071024               -0.00120285
               0.99954041                1.00151787               42.08936457                0.01300321               -0.06533819               -0.06534069                0.21584526                0.00115963               -0.00151975                0.00153535
               1.99888318                1.00207040               42.08928767                0.01000000               -0.06579329               -0.04430304                0.21532281                0.02285022               -0.00240109                0.01808456
               2.99822454                1.00264418               42.08921002                0.01000001               -0.06567005               -0.01534719                0.21478199                0.04547302               -0.00250052                0.04689248
               3.99756978                1.00324063               42.08913167                0.01000000               -0.06525465                0.00032209                0.21422772                0.04102962               -0.00257038                0.06235689
               4.99691945                1.00385455               42.08905335                0.02191405               -0.06482000               -0.03892379                0.21366458                0.01726226               -0.00259097                0.02243461
               5.99627338                1.00448055               42.08897534                0.10858591               -0.06441089               -0.06367791                0.21309550               -0.00057843               -0.00257733               -0.00222218
               6.99563123                1.00511377               42.08889797                0.22357251               -0.06403846               -0.06369232                0.21252367               -0.00034388               -0.00248671               -0.00208691
               7.99499261                1.00575012               42.08882234                0.37731371               -0.06371351               -0.06356575                0.21195550               -0.00012459               -0.00226041               -0.00172037
               8.99435696                1.00638620               42.08874992                0.58636089               -0.06345498               -0.06340123                0.21139807               -0.00001035               -0.00162223               -0.00100814
               9.99372351                1.00701969               42.08868735                0.86348749               -0.06334483               -0.06325900                0.21087711                0.00018059               -0.00114448                0.00186869
              -0.00033933                2.00034266               42.08929899                0.48316849               -0.06462584               -0.06353800                0.21578004                0.00004421               -0.00005045               -0.00134770
               0.99901441                2.00086071               42.08926151                0.01000000               -0.04431772               -0.06577667                0.21525153                0.02289286                0.01408690                0.00208424
               1.99877431                2.00183092               42.08950612                0.01000001               -0.02327321               -0.02313542                0.21594993                0.10430396                0.03938849                0.04740547
               2.99854894                2.00298252               42.08998756                0.01000000               -0.04944105                0.01825383                0.21710371                0.13527447                0.03662126                0.09488313
               3.99778549                2.00389074               42.09019986                0.01000000               -0.09519763                0.06110008                0.21735195                0.10275178               -0.03245565                0.15661478
               4.99664499                2.00371817               42.08930317                0.01000001               -0.10765910                0.05104177                0.21403833                0.06180266               -0.07230665                0.18176425
               5.99563231                2.00384751               42.08871115                0.01141992               -0.08277592                0.07258509                0.21211747                0.10626823               -0.03152583                0.25024808
               6.99498947                2.00447889               42.08861523                0.01620668               -0.06393860                0.00436799                0.21147958                0.10677024               -0.00640690                0.21535038
               7.99435354                2.00511619               42.08852554                0.01000000               -0.06340803                0.01967530                0.21085832                0.09166393               -0.00558227                0.23988778
               8.99372131                2.00575400               42.08844625                0.05594264               -0.06312378               -0.04285229                0.21027572                0.02240815               -0.00334009                0.02967102
               9.99309106                2.00638871               42.08840154                0.55960227               -0.06302507               -0.06356865                0.20982299                0.01195312               -0.00162060                0.02882648
              -0.00084526                2.99970938               42.08917563                0.50502074               -0.06447323               -0.06334476                0.21519446               -0.00016094               -0.00001563               -0.00118463
               0.99851001                3.00020234               42.08915338                0.01000001               -0.01536430               -0.06563269                0.21463970                0.04562641                0.04156413                0.00168521
               1.99884746                3.00160769               42.08996222                0.01000000                0.01801056               -0.04926603                0.21703654                0.13558995                0.08381723                0.04546065
               2.99887022                3.00300926               42.09082538                0.01000000                0.00208581                0.00265776                0.21940325                0.17771763                0.09839836                0.11020205
               3.99888917                3.00446263               42.09195550                0.01197092               -0.03357464                0.01922188                0.22241461                0.15670201                0.07138559                0.15773271
               4.99819873                3.00487538               42.09231315                0.01000000               -0.06255752                0.09617224                0.22294151                0.19503782                0.07593734                0.31145079
               5.99763802                3.00593225               42.09353870                0.01813522               -0.08503852                0.09960337                0.22609769                0.15767809                0.01634729                0.33430336
               6.99649796                3.00520113               42.09271896                0.01000001               -0.10436181                0.05437551                0.22317498                0.16169898               -0.02548241                0.38811270
               7.99555079                3.00614362               42.09308918                0.01288244               -0.14826722                0.11035229                0.22515290                0.19815902               -0.20006947                0.54348242
               8.99353261                3.00552916               42.08876721                0.01623386               -0.14288104                0.22750949                0.21335706                0.21241615               -0.22105295                1.02650664
               9.99269316                3.00574831               42.08864254                0.52815684               -0.08394483                0.21317915                0.21261097                0.24359758               -0.01168582                1.04210310
              -0.00132847                3.99907577               42.08905144                0.54359945               -0.06429106               -0.06340795                0.21461351               -0.00019910                0.00000392               -0.00116460
               0.99802862                3.99954806               42.08904297                0.01000000                0.00038252               -0.06519551                0.21401587                0.04124466                0.05652983                0.00143570
               1.99867918                4.00084560               42.09016466                0.01000000                0.06098675               -0.09524780                0.21722070                0.10348767                0.14289963               -0.01592163
               2.99924836                4.00303567               42.09193706                0.01197156                0.01871114               -0.03290828                0.22236650                0.15737237                0.14210462                0.08282641
               3.99905341                4.00427517               42.09309598                0.01000000               -0.00861177               -0.00777664                0.22536578                0.15351107                0.15872714                0.17219649
               4.99907612                4.00564161               42.09522822                0.01803370               -0.02966441                0.02031986                0.23111586                0.11784392                0.09082557                0.18744297
               5.99846012                4.00583958               42.09507025                0.01000001               -0.05320216               -0.01369797                0.22985925                0.04735931                0.02781424                0.20859974
               6.99801208                4.00556640               42.09595238                0.01177565               -0.02357117                0.07526409                0.23174829                0.18399817                0.18330606                0.46221721
               7.99798870                4.00732324               42.09892594                0.01012487                0.01764316                0.14381019                0.23923855                0.39931697                0.60994052                0.77667762
               8.99836494                4.01030419               42.10838806                0.07633616               -0.02319999                0.20064890                0.26072170                0.39048026                0.46806838                0.99928603
               9.99752470                4.01065229               42.10861908                0.56149135               -0.08402473                0.21272116                0.25964289                0.26139908                0.00637807                1.01534531
              -0.00179381                4.99844122               42.08892671                0.59595511               -0.06411160               -0.06349279                0.21403694               -0.00019337                0.00001766               -0.00113471
               0.99756507                4.99889843               42.08893069                0.02194949               -0.03882969               -0.06473861                0.21338114                0.01734107                0.02311304                0.00122876
               1.99742959                4.99970274               42.08939637                0.01000001                0.05115135               -0.10782776                0.21388188                0.06276754                0.16477141               -0.05252904
               2.99858810                5.00235110               42.09225854                0.01000000                0.09619321               -0.06183050                0.22283562                0.19699033                0.28272421                0.08546592
               3.99935346                5.00430710               42.09516213                0.01803537                0.02015514               -0.02902038                0.23105496                0.11845705                0.16894141                0.10389929
               4.99899120                5.00528178               42.09581752                0.01000001               -0.03465203               -0.03454696                0.23208198                0.02951122                0.10237602                0.11566379
               5.99866042                5.00565829               42.09741171                0.01175875               -0.01484690                0.01095560                0.23575714                0.08458135                0.27686324                0.35976424
               6.99869426                5.00670642               42.10158477                0.01000000                0.00694610                0.10754414                0.24625800                0.22252770                0.52738462                0.61126943
               7.99879934                5.00901983               42.10824560                0.07353859               -0.03405470                0.04609365                0.26217580                0.15834975                0.32734963                0.47320572
               8.99801317                5.00954213               42.10848173                0.15622799               -0.07871953               -0.07749284                0.26096813                0.00781688                0.00320940                0.01177884
               9.99722495                5.01000274               42.10866190                0.60651605               -0.07882206               -0.07010557                0.25970666                0.00776270                0.00035975                0.01094371
              -0.00224674                5.99780591               42.08880165                0.66409907               -0.06393264               -0.06355137                0.21346695               -0.00017753                0.00003558               -0.00110547
               0.99711393                5.99825328               42.08881704                0.10863912               -0.06356957               -0.06430745                0.21274091               -0.00057994                0.00143503                0.00107396
               1.99648186                5.99868905               42.08886034                0.01142295                0.07349373               -0.08278554                0.21185375                0.10763983                0.22879622               -0.01920662
               2.99858380                6.00179906               42.09342371                0.01813901                0.10049987               -0.08469763                0.22594330                0.15964437                0.29777032                0.02812862
               3.99849186                6.00369477               42.09496722                0.01000001               -0.01343271               -0.05287843                0.22974862                0.04769682                0.18522758                0.03846039
               4.99831515                6.00495067               42.09731431                0.01176159                0.01176240               -0.01508632                0.23570014                0.08470739                0.34005921                0.27893020
               5.99872711                6.00605869               42.10198894                0.01000000                0.03929744                0.03744556                0.24784210                0.17392123                0.51350864                0.51499642
               6.99910110                6.00771728               42.10787791                0.07355405               -0.02035686                0.01171748                0.26231487                0.10440269                0.28919753                0.31972981
               7.99831997                6.00824511               42.10814355                0.15615080               -0.07813644               -0.07793988                0.26118737                0.00256571                0.00521320               -0.00035449
               8.99753837                6.00875433               42.10835526                0.26645711               -0.07806149               -0.07837871                0.25994298                0.00136673                0.00152351                0.00005542
               9.99675874                6.00925018               42.10854835                0.67049543               -0.07796270               -0.07603187                0.25869023                0.00135608                0.00056516                0.00240999
              -0.00269211                6.99717019               42.08867641                0.75124637               -0.06375561               -0.06357536                0.21290517               -0.00015695                0.00006704               -0.00108386
               0.99667034                6.99761228               42.08870249                0.22365432               -0.06356424               -0.06391325                0.21209898               -0.00034576                0.00086071                0.00096815
               1.99603661                6.99804702               42.08874452                0.01620996                0.00524637               -0.06384462                0.21114239                0.10803035                0.19261057                0.00201654
               2.99677527                7.00065714               42.09260569                0.01000001                0.05595877               -0.10435479                0.22294283                0.16380453                0.34342913               -0.01466261
               3.99715578                7.00324953               42.09573132                0.01177956                0.07730780               -0.02329857                0.23158714                0.18508070                0.42030186                0.18100439
               4.99832142                7.00498005               42.10118569                0.01000000                0.11082207                0.00573910                0.24621955                0.22394083                0.57336543                0.49753687
               5.99937223                7.00640720               42.10747705                0.07355501                0.01372370               -0.02165017                0.26234660                0.10475716                0.30904767                0.27874514
               6.99859590                7.00694077               42.10775911                0.15619081               -0.07793110               -0.07794308                0.26124345                0.00149876                0.00611550               -0.00236043
               7.99781360                7.00746103               42.10799474                0.26657118               -0.07802296               -0.07816322                0.26002503                0.00059050                0.00299041               -0.00267711
               8.99703544                7.00797456               42.10821583                0.41911308               -0.07766126               -0.07773581                0.25878950                0.00028805                0.00140385               -0.00065117
               9.99626038                7.00848210               42.10842048                0.76042854               -0.07750572               -0.07685899                0.25754142                0.00041097                0.00058043                0.00165726
              -0.00313405                7.99653441               42.08855110                0.86198247               -0.06357673               -0.06356332                0.21235270               -0.00013011                0.00010666               -0.00106414
               0.99623018                7.99697502               42.08858740                0.37744423               -0.06341725               -0.06356631                0.21145976               -0.00012546                0.00055749                0.00090485
               1.99559761                7.99741215               42.08863295                0.01000000                0.02136047               -0.06329025                0.21045487                0.09298951                0.21189884                0.00212719
               2.99665739                7.99971197               42.09289611                0.01288733                0.11364793               -0.14848453                0.22471032                0.19990781                0.48155925               -0.16048695
               3.99787056                8.00322879               42.09839992                0.01013412                0.14894487                0.01687299                0.23914065                0.40387206                0.69710162                0.54971941
               4.99963629                8.00506545               42.10707968                0.07354226                0.04954891               -0.03507807                0.26227810                0.15976913                0.42781913                0.29902310
               5.99886154                8.00562569               42.10737136                0.15615017               -0.07795208               -0.07816979                0.26125538                0.00262555                0.00573413               -0.00187596
               6.99807725                8.00615842               42.10761303                0.26657004               -0.07817763               -0.07803250                0.26005744                0.00060043                0.00279053               -0.00316014
               7.99729799                8.00668185               42.10784770                0.41919482               -0.07770938               -0.07770768                0.25883978                0.00021225                0.00206712               -0.00230592
               8.99652306                8.00719962               42.10807591                0.63988150               -0.07730534               -0.07730006                0.25760700                0.00006334                0.00111188               -0.00069726
               9.99575188                8.00771300               42.10829172                0.89296386               -0.07711781               -0.07679554                0.25636188                0.00022218                0.00051659                0.00163426
              -0.00357593                8.99589893               42.08842602                1.00000000               -0.06339854               -0.06350243                0.21181550               -0.00010418                0.00012738               -0.00086055
               0.99579008                8.99634095               42.08847211                0.58658266               -0.06323076               -0.06328618                0.21083187               -0.00001034                0.00017632                0.00069079
               1.99515945                8.99678122               42.08851954                0.05607479               -0.04166495               -0.06298409                0.20980371                0.02336946                0.02940657                0.00135413
               2.99495678                8.99768745               42.08915037                0.01652278                0.23601448               -0.14377563                0.21284165                0.21168306                0.89820199               -0.18396938
               3.99987974                9.00358699               42.10655823                0.07657127                0.20815640               -0.02440126                0.26092975                0.39510303                0.87081124                0.41353136
               4.99911991                9.00427849               42.10700355                0.15624779               -0.07739870               -0.07880782                0.26110362                0.00801156                0.01242693               -0.00010663
               5.99833177                9.00484381               42.10724960                0.26645516               -0.07840824               -0.07809805                0.26004101                0.00141258                0.00155265               -0.00169952
               6.99755175                9.00538012               42.10747985                0.41910370               -0.07775551               -0.07768149                0.25885411                0.00029596                0.00055464               -0.00161841
               7.99677666                9.00590688               42.10770719                0.63986807               -0.07730964               -0.07731504                0.25763984                0.00006459                0.00044477               -0.00129120
               8.99600555                9.00642856               42.10793568                0.97936956               -0.07692982               -0.07693018                0.25640889                0.00000748                0.00044713               -0.00058236
               9.99523806                9.00694619               42.10816276                0.99283053               -0.07674924               -0.07651509                0.25516466                0.00018644                0.00042718                0.00122534
              -0.00402018                9.99526436               42.08830498                0.99416188               -0.06321360               -0.06345689                0.21124510                0.00006912               -0.00062256               -0.00068418
               0.99534768                9.99570930               42.08835313                0.86363042               -0.06306635               -0.06316548                0.21024002                0.00016602               -0.00107979                0.00048760
               1.99471849                9.99615247               42.08839266                0.55971583               -0.06311985               -0.06287470                0.20927832                0.01226215                0.02231403                0.00067047
               2.99408529                9.99683645               42.08890902                0.52844677                0.22315454               -0.08509973                0.21200903                0.24226531                0.90208263               -0.00923662
               3.99918158               10.00274077               42.10654476                0.56172882                0.22272067               -0.08462179                0.25988138                0.26282638                0.87666613                0.00476465
               4.99853970               10.00348930               42.10691764                0.60653530               -0.06967063               -0.07891971                0.25987005                0.00812695                0.00659803               -0.00069342
               5.99778817               10.00406373               42.10714914                0.67049538               -0.07598001               -0.07800808                0.25881450                0.00141530               -0.00124115               -0.00069731
               6.99702010               10.00460479               42.10736565                0.76042007               -0.07686658               -0.07753228                0.25763461                0.00042645               -0.00207997               -0.00069607
               7.99625084               10.00513555               42.10758079                0.89295007               -0.07681014               -0.07713296                0.25642550                0.00022926               -0.00205434               -0.00057596
               8.99548390               10.00566101               42.10779766                0.99283025               -0.07652442               -0.07675459                0.25519772                0.00019199               -0.00141796               -0.00042668
               9.99472035               10.00618270               42.10802468                1.00000000               -0.07635463               -0.07634931                0.25395415                0.00039744               -0.00083181                0.00085307
               0.00080199                0.00174138               43.09171214                0.78763393               -0.06481962               -0.06480755                0.21677847               -0.00014139                0.00094369               -0.00092163
               1.00015380                0.00229655               43.09164731                0.52740493               -0.06426082               -0.06492801                0.21628431                0.00031887                0.00135076                0.00069533
               1.99951678                0.00286286               43.09158950                0.48326979               -0.06349758               -0.06462354                0.21579920                0.00005949                0.00146763               -0.00003691
               2.99888385                0.00345327               43.09152525                0.50509035               -0.06332381               -0.06450014                0.21531269               -0.00015430                0.00125956               -0.00009593
               3.99825030                0.00406735               43.09146121                0.54364596               -0.06341958               -0.06434654                0.21483172               -0.00019458                0.00142208               -0.00012098
               4.99761545                0.00470019               43.09139831                0.59596782               -0.06354242               -0.06419568                0.21435494               -0.00018885                0.00162875               -0.00013436
               5.99697945                0.00534617               43.09133684                0.66406543               -0.06364136               -0.06404534                0.21388450               -0.00017219                0.00185318               -0.00015326
               6.99634263                0.00600021               43.09127724                0.75114673               -0.06370670               -0.06389669                0.21342138               -0.00015004                0.00212178               -0.00021133
               7.99570532                0.00665789               43.09122039                0.86177913               -0.06373576               -0.06374600                0.21296804               -0.00012099                0.00248198               -0.00031148
               8.99506791                0.00731557               43.09116767                1.00000000               -0.06371320               -0.06359574                0.21253130               -0.00009188                0.00223305               -0.00046709
               9.99443106                0.00797062               43.09110593                0.99399522               -0.06368570               -0.06344057                0.21205696                0.00010285                0.00176179                0.00130707
               0.00024541                1.00109330               43.09158747                0.52741141               -0.06491666               -0.06423600                0.21621439                0.00030983               -0.00071283               -0.00119724
               0.99959624                1.00164727               43.09152241                0.01296766               -0.06532001               -0.06532335                0.21571767                0.00119324               -0.00152357                0.00153418
               1.99893901                1.00221663               43.09144037                0.01000000               -0.06580917               -0.04460128                0.21521730                0.02260752               -0.00242038                0.01871112
               2.99828006                1.00280827               43.09135744                0.01000001               -0.06570557               -0.01630572                0.21469912                0.04472728               -0.00254326                0.04838793
               3.99762490                1.00342389               43.09127367                0.01000000               -0.06529522               -0.00092748                0.21416858                0.04027347               -0.00263458                0.06428098
               4.99697415                1.00405823               43.09118980                0.02195717               -0.06485889               -0.03952119                0.21362570                0.01674495               -0.00267085                0.02297161
               5.99632772                1.00470572               43.09110620                0.10859868               -0.06444428               -0.06369172                0.21307599               -0.00067239               -0.00266673               -0.00231366
               6.99568527                1.00536125               43.09102321                0.22353341               -0.06406433               -0.06369364                0.21252284               -0.00038755               -0.00257961               -0.00217473
               7.99504643                1.00602043               43.09094198                0.37717854               -0.06373206               -0.06356885                0.21197229               -0.00014019               -0.00234844               -0.00179353
               8.99441063                1.00667961               43.09086407                0.58605042               -0.06347016               -0.06341032                0.21143305               -0.00001298               -0.00168672               -0.00105148
               9.99377703                1.00733621               43.09079640                0.86326556               -0.06335983               -0.06327613                0.21093399                0.00018450               -0.00119052                0.00194039
              -0.00029974                2.00045666               43.09145619                0.48327747               -0.06459233               -0.06344680                0.21565745                0.00005073               -0.00005594               -0.00133097
               0.99905433                2.00099008               43.09141352                0.01000000               -0.04461680               -0.06579617                0.21514863                0.02265191                0.01471019                0.00206617
               1.99880792                2.00197084               43.09166548                0.01000001               -0.02416004               -0.02401808                0.21591934                0.10253946                0.04089162                0.04891581
               2.99857113                2.00312716               43.09215876                0.01000000               -0.05010560                0.01659787                0.21713227                0.13293957                0.03791343                0.09794001
               3.99780581                2.00404880               43.09237374                0.01000000               -0.09513074                0.05861397                0.21740872                0.10101843               -0.03348199                0.16153845
               4.99666852                2.00390977               43.09144314                0.01000001               -0.10714089                0.04867514                0.21399484                0.06096804               -0.07451441                0.18723598
               5.99566299                2.00407234               43.09083221                0.01141992               -0.08241757                0.06976508                0.21209110                0.10454371               -0.03241365                0.25764186
               6.99502017                2.00472634               43.09072992                0.01620493               -0.06394193                0.00287184                0.21146014                0.10499770               -0.00665819                0.22163434
               7.99438415                2.00538651               43.09063408                0.01000000               -0.06341500                0.01816493                0.21085229                0.09017369               -0.00580261                0.24755956
               8.99375187                2.00604736               43.09054906                0.05595473               -0.06313098               -0.04253120                0.21028526                0.02277021               -0.00347174                0.03179213
               9.99312153                2.00670510               43.09049996                0.55961918               -0.06303336               -0.06350056                0.20986115                0.01206354               -0.00168442                0.03092431
              -0.00082042                2.99982436               43.09132709                0.50510260               -0.06444773               -0.06324853                0.21509860               -0.00016516               -0.00002270               -0.00115387
               0.99853510                3.00033134               43.09129938                0.01000001               -0.01634288               -0.06567386                0.21456082                0.04489198                0.04305788                0.00164362
               1.99885272                3.00173627               43.09213275                0.01000000                0.01628941               -0.04992404                0.21706648                0.13327633                0.08686827                0.04676318
               2.99886089                3.00314023               43.09302005                0.01000000                0.00049704                0.00120609                0.21951930                0.17482191                0.10179727                0.11361825
               3.99886266                3.00459616               43.09418063                0.01197067               -0.03454545                0.01746993                0.22261134                0.15423990                0.07388844                0.16265942
               4.99816998                3.00503174               43.09454356                0.01000000               -0.06303197                0.09295898                0.22315691                0.19189628                0.07852004                0.32100522
               5.99760202                3.00610102               43.09580138                0.01813912               -0.08494636                0.09610453                0.22639206                0.15522400                0.01717502                0.34431044
               6.99647105                3.00541868               43.09495211                0.01000001               -0.10365659                0.05173745                0.22341999                0.15921493               -0.02529707                0.39932977
               7.99552889                3.00638373               43.09534271                0.01292529               -0.14618017                0.10657108                0.22553159                0.19506632               -0.20437649                0.55885501
               8.99354745                3.00582898               43.09090242                0.01653279               -0.14130314                0.21991957                0.21370021                0.20678914               -0.22694464                1.05292293
               9.99270283                3.00606620               43.09077038                0.52841441               -0.08446220                0.20484013                0.21297608                0.23582747               -0.01206770                1.06816268
              -0.00131700                3.99919169               43.09119725                0.54366921               -0.06427252               -0.06332287                0.21454527               -0.00020576               -0.00000316               -0.00111885
               0.99804027                3.99967660               43.09118286                0.01000000               -0.00092177               -0.06524246                0.21396009                0.04050948                0.05845452                0.00137436
               1.99866456                4.00097236               43.09233725                0.01000000                0.05837006               -0.09520380                0.21728101                0.10193718                0.14782850               -0.01692481
               2.99920767                4.00315128               43.09416172                0.01197195                0.01672699               -0.03369494                0.22255720                0.15507500                0.14702056                0.08535826
               3.99899910                4.00439820               43.09535089                0.01000000               -0.01030427               -0.00905328                0.22562780                0.15114830                0.16397567                0.17746196
               4.99900159                4.00576895               43.09754130                0.01803757               -0.03092884                0.01843857                0.23145112                0.11605957                0.09398403                0.19307903
               5.99838053                4.00599443               43.09737070                0.01000001               -0.05399138               -0.01494820                0.23016206                0.04702976                0.02901742                0.21449532
               6.99792176                4.00576109               43.09827192                0.01178495               -0.02526731                0.07218592                0.23208779                0.18046548                0.18890749                0.47482745
               7.99787518                4.00751793               43.10132034                0.01015717                0.01417074                0.13826372                0.23962460                0.38931678                0.62535663                0.79637766
               8.99820518                4.01044575               43.11099626                0.07655430               -0.02557662                0.19266524                0.26089084                0.37899495                0.47946944                1.02429997
               9.99736365                4.01080190               43.11121594                0.56167970               -0.08415288                0.20436511                0.25970482                0.25320765                0.00653393                1.04003885
              -0.00179437                4.99855791               43.09106689                0.59599482               -0.06410099               -0.06342575                0.21399869               -0.00020011                0.00001083               -0.00107730
               0.99756462                4.99902649               43.09106435                0.02199180               -0.03944215               -0.06478447                0.21334907                0.01682696                0.02366919                0.00115027
               1.99741678                4.99983219               43.09153475                0.01000001                0.04859636               -0.10735503                0.21384194                0.06226789                0.17025347               -0.05473957
               2.99853654                5.00246633               43.09448804                0.01000000                0.09255886               -0.06203256                0.22304505                0.19439961                0.29225506                0.08806232
               3.99926796                5.00441510               43.09747451                0.01803658                0.01791979               -0.02993650                0.23142643                0.11693736                0.17456290                0.10707073
               4.99889494                5.00540051               43.09814023                0.01000001               -0.03587444               -0.03539744                0.23241993                0.02975479                0.10571440                0.11898718
               5.99855047                5.00580206               43.09977127                0.01176654               -0.01690413                0.00935915                0.23608875                0.08336683                0.28497880                0.36983692
               6.99855686                5.00686240               43.10404956                0.01000000                0.00400454                0.10361505                0.24662630                0.21735495                0.54168899                0.62769228
               7.99863056                5.00914900               43.11086911                0.07355527               -0.03567383                0.04275244                0.26249937                0.15421732                0.33594758                0.48537426
               8.99784338                5.00968229               43.11109253                0.15626603               -0.07879411               -0.07759558                0.26117174                0.00783969                0.00322335                0.01261274
               9.99705468                5.01015350               43.11125950                0.60654404               -0.07886999               -0.07004429                0.25979577                0.00781953                0.00035833                0.01168725
              -0.00225818                5.99792317               43.09093626                0.66411155               -0.06392932               -0.06350520                0.21345705               -0.00018349                0.00002879               -0.00103549
               0.99710253                5.99838091               43.09094438                0.10864912               -0.06358691               -0.06434747                0.21272940               -0.00068293                0.00134066                0.00098588
               1.99647008                5.99882526               43.09097868                0.01142278                0.07051142               -0.08244865                0.21182069                0.10640172                0.23619519               -0.02010812
               2.99851276                6.00191063               43.09568467                0.01814095                0.09667948               -0.08442096                0.22624463                0.15791268                0.30779226                0.02896067
               3.99840367                6.00379947               43.09726649                0.01000001               -0.01515154               -0.05335704                0.23008854                0.04780119                0.19112231                0.03968568
               4.99820973                6.00506100               43.09967304                0.01176657                0.00911474               -0.01611702                0.23605941                0.08374747                0.35014872                0.28707292
               5.99858597                6.00618161               43.10446941                0.01000000                0.03560949                0.03537029                0.24822923                0.17020146                0.52797766                0.52943267
               6.99892192                6.00783339               43.11050300                0.07356634               -0.02231648                0.00966136                0.26268363                0.10194424                0.29712244                0.32842307
               7.99813964                6.00837298               43.11075677                0.15616920               -0.07822246               -0.07803966                0.26143566                0.00256235                0.00526699               -0.00023316
               8.99735747                6.00889384               43.11095542                0.26648502               -0.07810162               -0.07842640                0.26007495                0.00137519                0.00152478                0.00016809
               9.99657761                6.00940101               43.11113539                0.67051297               -0.07798607               -0.07602288                0.25870680                0.00137374                0.00057054                0.00253335
              -0.00271353                6.99728780               43.09080554                0.75121293               -0.06375993               -0.06355162                0.21292403               -0.00016101                0.00005820               -0.00100067
               0.99664887                6.99773954               43.09082351                0.22361287               -0.06356851               -0.06394483                0.21210727               -0.00039418                0.00077383                0.00087770
               1.99601510                6.99818322               43.09085589                0.01620779                0.00358559               -0.06385095                0.21112719                0.10674626                0.19889905                0.00177371
               2.99672058                7.00077791               43.09483644                0.01000001                0.05292580               -0.10363145                0.22319904                0.16234980                0.35465629               -0.01452263
               3.99707362                7.00334796               43.09804912                0.01178786                0.07335814               -0.02407911                0.23196776                0.18264197                0.43298256                0.18671682
               4.99818775                7.00507817               43.10365006                0.01000000                0.10542452                0.00459200                0.24665032                0.21933071                0.58990838                0.51199483
               5.99918211                7.00650946               43.11010263                0.07356636                0.01083130               -0.02274375                0.26275316                0.10249198                0.31780599                0.28668041
               6.99840437                7.00705563               43.11037304                0.15620588               -0.07803732               -0.07804314                0.26153060                0.00149936                0.00618564               -0.00228457
               7.99762136                7.00758821               43.11059589                0.26659686               -0.07807597               -0.07821793                0.26019425                0.00059642                0.00300445               -0.00264708
               8.99684285                7.00811376               43.11080403                0.41916031               -0.07767777               -0.07775303                0.25884179                0.00028924                0.00141006               -0.00061233
               9.99606781                7.00863305               43.11099561                0.76046128               -0.07750471               -0.07683712                0.25747751                0.00042305                0.00058550                0.00170374
              -0.00316488                7.99665214               43.09067487                0.86187864               -0.06358878               -0.06356213                0.21240167               -0.00013164                0.00009390               -0.00096734
               0.99619923                7.99710202               43.09070215                0.37730864               -0.06342384               -0.06358985                0.21148825               -0.00014336                0.00048564                0.00081884
               1.99556664                7.99754824               43.09073750                0.01000000                0.01978905               -0.06329922                0.21045099                0.09200461                0.21952390                0.00191023
               2.99659501                7.99983800               43.09514555                0.01293011                0.10948079               -0.14670473                0.22512668                0.19868827                0.49707286               -0.16486331
               3.99775626                8.00331789               43.10079401                0.01016655                0.14199120                0.01539524                0.23960819                0.39543109                0.71710350                0.56542832
               4.99943484                8.00515284               43.10970463                0.07355769                0.04510442               -0.03567901                0.26269934                0.15628647                0.44009976                0.30770312
               5.99865835                8.00572674               43.10998562                0.15616863               -0.07808386               -0.07827021                0.26157091                0.00264448                0.00585467               -0.00181322
               6.99787316                8.00627253               43.11021469                0.26659411               -0.07824555               -0.07809461                0.26026056                0.00061035                0.00281458               -0.00314060
               7.99709343                8.00680862               43.11043658                0.41924263               -0.07773727               -0.07773489                0.25892577                0.00021505                0.00208225               -0.00228676
               8.99631841                8.00733878               43.11065186                0.63998463               -0.07729701               -0.07729117                0.25757635                0.00006363                0.00111945               -0.00067642
               9.99554749                8.00786427               43.11085462                0.89303885               -0.07709185               -0.07675030                0.25621487                0.00023389                0.00052098                0.00165873
              -0.00361592                8.99601656               43.09054457                1.00000000               -0.06341760               -0.06352038                0.21189477               -0.00010249                0.00010887               -0.00077481
               0.99574991                8.99646775               43.09058067                0.58626978               -0.06324361               -0.06330581                0.21087990               -0.00001341                0.00013356                0.00062746
               1.99511921                8.99691723               43.09061765                0.05609027               -0.04126034               -0.06299197                0.20981477                0.02391803                0.03145562                0.00122376
               2.99492470                8.99784382               43.09128032                0.01682880                0.22740969               -0.14250988                0.21316117                0.20893663                0.92492652               -0.18986646
               3.99966740                9.00365586               43.10916943                0.07679543                0.19899638               -0.02549922                0.26127408                0.38572015                0.89624223                0.42507015
               4.99890463                9.00436459               43.10961636                0.15628594               -0.07760479               -0.07891901                0.26143586                0.00814894                0.01323450               -0.00008254
               5.99811531                9.00494406               43.10985125                0.26647989               -0.07849662               -0.07816727                0.26027203                0.00143802                0.00166229               -0.00169598
               6.99733469                9.00549374               43.11006904                0.41914502               -0.07779477               -0.07771782                0.25897320                0.00029986                0.00059256               -0.00160960
               7.99655941                9.00603351               43.11028364                0.63996709               -0.07731078               -0.07731656                0.25764199                0.00006519                0.00046536               -0.00128125
               8.99578848                9.00656794               43.11049922                0.97961254               -0.07689569               -0.07689631                0.25629397                0.00000732                0.00045540               -0.00057321
               9.99502150                9.00709804               43.11071325                0.99301660               -0.07669801               -0.07644436                0.25493302                0.00019890                0.00042995                0.00123461
              -0.00406931                9.99538173               43.09041794                0.99399849               -0.06324045               -0.06348301                0.21135084                0.00007828               -0.00057368               -0.00061765
               0.99529829                9.99583590               43.09045588                0.86340311               -0.06308808               -0.06318472                0.21031190                0.00017181               -0.00100903                0.00044260
               1.99466893                9.99628840               43.09048567                0.55973406               -0.06315881               -0.06288350                0.20932078                0.01256749                0.02433073                0.00060799
               2.99403511                9.99698780               43.09103074                0.52871372                0.21404789               -0.08560139                0.21235119                0.23701676                0.92847926               -0.00960512
               3.99894989               10.00280790               43.10914506                0.56192426                0.21372524               -0.08479598                0.26014899                0.25758143                0.90183376                0.00492183
               4.99830962               10.00357446               43.10951769                0.60656305               -0.06959672               -0.07901298                0.26011867                0.00827365                0.00731367               -0.00068975
               5.99755796               10.00416339               43.10973807                0.67051061               -0.07599570               -0.07806669                0.25896133                0.00145061               -0.00111871               -0.00069053
               6.99678970               10.00471817               43.10994220                0.76045045               -0.07687093               -0.07755654                0.25766923                0.00044603               -0.00202909               -0.00068963
               7.99602054               10.00526229               43.11014466                0.89302027               -0.07678377               -0.07712182                0.25634342                0.00024662               -0.00202455               -0.00057016
               8.99525403               10.00580085               43.11034864                0.99301843               -0.07646363               -0.07670853                0.25499867                0.00020962               -0.00140526               -0.00042291
               9.99449127               10.00633538               43.11056262                1.00000000               -0.07627637               -0.07626572                0.25363834                0.00042988               -0.00082819                0.00085453
               0.00087874                0.00185964               44.09387902                0.78777051               -0.06476202               -0.06475043                0.21659637               -0.00013342                0.00094671               -0.00092117
               1.00023112                0.00243123               44.09380937                0.52761128               -0.06418541               -0.06488925                0.21612486                0.00033552                0.00136258                0.00069427
               1.99959503                0.00301451               44.09374685                0.48338461               -0.06339649               -0.06458711                0.21566523                0.00006719                0.00149297               -0.00004246
               2.99896319                0.00362315               44.09367784                0.50517490               -0.06321944               -0.06447205                0.21520617               -0.00015829                0.00129860               -0.00010326
               3.99833064                0.00425697               44.09360913                0.54371697               -0.06332856               -0.06432503                0.21475187               -0.00020133                0.00147756               -0.00012871
               4.99769662                0.00491096               44.09354160                0.59601364               -0.06347061               -0.06418145                0.21430304               -0.00019555                0.00169716               -0.00014190
               5.99706123                0.00557928               44.09347556                0.66408275               -0.06359100               -0.06403827                0.21385989               -0.00017799                0.00193324               -0.00016099
               6.99642480                0.00625657               44.09341146                0.75111381               -0.06367859               -0.06389699                0.21342417               -0.00015404                0.00221364               -0.00022117
               7.99578766                0.00693809               44.09335021                0.86166959               -0.06372950               -0.06375351                0.21299894               -0.00012241                0.00258906               -0.00032498
               8.99515021                0.00761988               44.09329327                1.00000000               -0.06372547               -0.06361008                0.21259130               -0.00009008                0.00232910               -0.00048769
               9.99451315                0.00829909               44.09322691                1.00000000               -0.06370590               -0.06346254                0.21214268                0.00011073                0.00183679                0.00136069
               0.00030582                1.00121214               44.09374884                0.52761396               -0.06487805               -0.06416085                0.21605745                0.00032669               -0.00071377               -0.00118868
               0.99965704                1.00178234               44.09367893                0.01293079               -0.06530401               -0.06530825                0.21558309                0.00123497               -0.00152428                0.00153352
               1.99899974                1.00236864               44.09359202                0.01000000               -0.06583298               -0.04488282                0.21510742                0.02239872               -0.00243892                0.01936137
               2.99834038                1.00297843               44.09350401                0.01000001               -0.06575063               -0.01722198                0.21461440                0.04404172               -0.00258800                0.04992701
               3.99768473                1.00361372               44.09341504                0.01000000               -0.06534384               -0.00212122                0.21410645                0.03957642               -0.00270039                0.06624750
               4.99703350                1.00426914               44.09332586                0.02200127               -0.06490426               -0.04009139                0.21358569                0.01624007               -0.00275492                0.02351961
               5.99638664                1.00493890               44.09323686                0.10861332               -0.06448244               -0.06370599                0.21305588               -0.00077543               -0.00276324               -0.00241307
               6.99574386                1.00561760               44.09314843                0.22349241               -0.06409313               -0.06369473                0.21252149               -0.00043522               -0.00268122               -0.00227003
               7.99510478                1.00630056               44.09306178                0.37703889               -0.06375219               -0.06357193                0.21198952               -0.00015720               -0.00244527               -0.00187164
               8.99446881                1.00698378               44.09297858                0.58572219               -0.06348623               -0.06341966                0.21146931               -0.00001567               -0.00175760               -0.00109879
               9.99383506                1.00766446               44.09290603                0.86303451               -0.06337553               -0.06329409                0.21099356                0.00018896               -0.00124107                0.00201883
              -0.00025512                2.00057643               44.09361214                0.48339586               -0.06455638               -0.06334462                0.21552781                0.00005841               -0.00006221               -0.00130834
               0.99909932                2.00112506               44.09356448                0.01000000               -0.04489860               -0.06582328                0.21503962                0.02244476                0.01535897                0.00204938
               1.99884691                2.00211686               44.09382451                0.01000001               -0.02501829               -0.02487281                0.21588467                0.10090313                0.04244575                0.05047447
               2.99859895                2.00327871               44.09433020                0.01000000               -0.05077231                0.01501138                0.21715119                0.13077955                0.03923417                0.10108559
               3.99783146                2.00421454               44.09454804                0.01000000               -0.09513585                0.05624755                0.21744833                0.09945565               -0.03454185                0.16659531
               4.99669623                2.00410913               44.09358307                0.01000001               -0.10671005                0.04640942                0.21399728                0.06027487               -0.07679452                0.19283855
               5.99569726                2.00430516               44.09295298                0.01141935               -0.08208969                0.06705316                0.21205613                0.10299395               -0.03334503                0.26516366
               6.99505444                2.00498268               44.09284443                0.01620382               -0.06394623                0.00140604                0.21143955                0.10341584               -0.00693294                0.22802649
               7.99441834                2.00566665               44.09274258                0.01000000               -0.06342240                0.01669513                0.21084383                0.08884844               -0.00604538                0.25541308
               8.99378599                2.00635149               44.09265196                0.05596836               -0.06313806               -0.04216848                0.21029312                0.02318926               -0.00361884                0.03409434
               9.99315558                2.00703320               44.09259876                0.55963653               -0.06304164               -0.06344382                0.20989982                0.01221292               -0.00175621                0.03321382
              -0.00079028                2.99994525               44.09347760                0.50518915               -0.06442094               -0.06314159                0.21499882               -0.00016965               -0.00003050               -0.00111836
               0.99856551                3.00046587               44.09344459                0.01000001               -0.01727816               -0.06572443                0.21447867                0.04421641                0.04459527                0.00159945
               1.99886415                3.00187119               44.09430355                0.01000000                0.01463906               -0.05058759                0.21708654                0.13113880                0.09000898                0.04809200
               2.99885829                3.00327866               44.09521576                0.01000000               -0.00103630               -0.00019381                0.21961945                0.17218291                0.10528844                0.11711785
               3.99884343                3.00473867               44.09640773                0.01197178               -0.03549547                0.01579933                0.22278460                0.15202744                0.07647143                0.16772279
               4.99814838                3.00519733               44.09677629                0.01000000               -0.06352269                0.08986951                0.22334631                0.18905279                0.08114424                0.33073752
               5.99757297                3.00627997               44.09806654                0.01814188               -0.08488469                0.09272162                0.22664235                0.15304890                0.01801126                0.35447500
               6.99645068                3.00564573               44.09718736                0.01000001               -0.10300169                0.04914107                0.22362738                0.15703236               -0.02504867                0.41069123
               7.99551294                3.00663446               44.09759981                0.01296917               -0.14423191                0.10288708                0.22587484                0.19239185               -0.20862337                0.57439053
               8.99356605                3.00614041               44.09304121                0.01684637               -0.13985249                0.21242952                0.21406312                0.20169306               -0.23285959                1.07942841
               9.99271589                3.00639558               44.09290206                0.52868448               -0.08501570                0.19653749                0.21336473                0.22853883               -0.01245391                1.09424264
              -0.00129976                3.99931359               44.09334234                0.54373593               -0.06425341               -0.06322911                0.21447524               -0.00021327               -0.00001090               -0.00106652
               0.99805771                3.99981057               44.09332217                0.01000000               -0.00216734               -0.06529780                0.21390278                0.03982971                0.06042265                0.00130829
               1.99865689                4.00110510               44.09451028                0.01000000                0.05587112               -0.09523332                0.21732382                0.10055368                0.15288503               -0.01795533
               2.99917513                4.00327484               44.09638821                0.01197217                0.01482238               -0.03446355                0.22273424                0.15302861                0.15208284                0.08794723
               3.99895334                4.00453053               44.09760853                0.01000000               -0.01195687               -0.01028779                0.22586640                0.14903923                0.16931932                0.18284308
               4.99893599                4.00590652               44.09985725                0.01803720               -0.03217475                0.01662275                0.23177235                0.11447122                0.09717308                0.19879307
               5.99830985                4.00615960               44.09967349                0.01000001               -0.05476988               -0.01618217                0.23043056                0.04683360                0.03025718                0.22044157
               6.99784059                4.00596550               44.10059414                0.01179335               -0.02691802                0.06917275                0.23238395                0.17721574                0.19462296                0.48750041
               7.99777149                4.00772439               44.10371844                0.01019221                0.01090676                0.13282113                0.24003789                0.37984781                0.64077294                0.81611986
               8.99805873                4.01060008               44.11360588                0.07678064               -0.02777366                0.18474073                0.26101469                0.36803794                0.49080843                1.04930993
               9.99721601                4.01096395               44.11381318                0.56187844               -0.08427161                0.19607259                0.25972836                0.24550191                0.00668788                1.06465270
              -0.00178851                4.99868066               44.09320668                0.59604120               -0.06408994               -0.06335228                0.21395944               -0.00020754                0.00000292               -0.00100964
               0.99757059                4.99915991               44.09319767                0.02203785               -0.04002637               -0.06483707                0.21331573                0.01632350                0.02424183                0.00106731
               1.99741096                4.99996652               44.09367321                0.01000001                0.04614232               -0.10696784                0.21380632                0.06190278                0.17585018               -0.05701840
               2.99849344                5.00258939               44.09671944                0.01000000                0.08907837               -0.06224805                0.22323795                0.19215488                0.30200581                0.09072520
               3.99919253                5.00453291               44.09979066                0.01803914                0.01576484               -0.03083295                0.23176776                0.11564990                0.18031199                0.11030619
               4.99880873                5.00552979               44.10046592                0.01000001               -0.03709330               -0.03621100                0.23273321                0.03013116                0.10906993                0.12240623
               5.99845066                5.00595632               44.10213348                0.01177264               -0.01892657                0.00781948                0.23640937                0.08231232                0.29315613                0.38001822
               6.99843020                5.00702918               44.10651729                0.01000000                0.00123258                0.09983804                0.24695621                0.21250785                0.55608843                0.64420288
               7.99847532                5.00929088               44.11349559                0.07357257               -0.03714779                0.03946326                0.26278329                0.15037275                0.34459923                0.49755267
               8.99768725                5.00983523               44.11370516                0.15630830               -0.07885661               -0.07769458                0.26133512                0.00788362                0.00323442                0.01351585
               9.99689818                5.01031704               44.11385781                0.60657342               -0.07890630               -0.06996102                0.25985190                0.00789110                0.00035632                0.01249440
              -0.00226241                5.99804655               44.09307079                0.66412257               -0.06392681               -0.06345508                0.21344919               -0.00019012                0.00002065               -0.00095619
               0.99709832                5.99851383               44.09307162                0.10865984               -0.06360582               -0.06439278                0.21271899               -0.00079607                0.00123889                0.00088962
               1.99646547                5.99896575               44.09309676                0.01142297                0.06767567               -0.08214221                0.21179121                0.10533715                0.24374819               -0.02106498
               2.99845184                6.00202988               44.09794860                0.01814505                0.09302349               -0.08417908                0.22650077                0.15649200                0.31801723                0.02982618
               3.99832594                6.00391387               44.09956899                0.01000001               -0.01683158               -0.05382849                0.23037589                0.04808573                0.19710168                0.04094100
               4.99811520                6.00518230               44.10203549                0.01177291                0.00653780               -0.01707116                0.23640119                0.08297359                0.36034002                0.29534075
               5.99845670                6.00631599               44.10695353                0.01000000                0.03204937                0.03341417                0.24859526                0.16673307                0.54251612                0.54401575
               6.99875619                6.00796226               44.11313158                0.07358123               -0.02419031                0.00771007                0.26300568                0.09969050                0.30509083                0.33718562
               7.99797289                6.00851366               44.11337226                0.15618849               -0.07829717               -0.07813023                0.26165007                0.00256555                0.00531740               -0.00010236
               8.99719025                6.00904619               44.11355676                0.26651526               -0.07813363               -0.07846794                0.26017990                0.00138767                0.00152768                0.00029093
               9.99641022                6.00956473               44.11372249                0.67053308               -0.07800270               -0.07600487                0.25870376                0.00139245                0.00057625                0.00266525
              -0.00272688                6.99741156               44.09293489                0.75117988               -0.06376485               -0.06352560                0.21294510               -0.00016602                0.00004808               -0.00090891
               0.99663547                6.99787206               44.09294463                0.22356850               -0.06357288               -0.06397963                0.21211594               -0.00044705                0.00067791                0.00077617
               1.99600166                6.99832367               44.09296707                0.01620637                0.00198430               -0.06385767                0.21110731                0.10564777                0.20531716                0.00149936
               2.99667516                7.00090581               44.09706967                0.01000001                0.05000804               -0.10295287                0.22341325                0.16115837                0.36608718               -0.01434906
               3.99700182                7.00345634               44.10037068                0.01179829                0.06954656               -0.02484076                0.23229114                0.18050871                0.44576581                0.19249826
               4.99806609                7.00518836               44.10611870                0.01000000                0.10017708                0.00354569                0.24703234                0.21498706                0.60651820                0.52652448
               5.99900536                7.00662461               44.11273212                0.07358141                0.00801257               -0.02375915                0.26311091                0.10034428                0.32659694                0.29466128
               6.99822634                7.00718338               44.11298973                0.15622527               -0.07813322               -0.07813235                0.26178393                0.00150302                0.00624934               -0.00220842
               7.99744270                7.00772828               44.11319862                0.26662786               -0.07812063               -0.07826477                0.26033528                0.00060296                0.00301386               -0.00261191
               8.99666393                7.00826587               44.11339266                0.41921280               -0.07768768               -0.07776425                0.25887241                0.00029099                0.00141515               -0.00057110
               9.99588895                7.00879694               44.11357003                0.76049493               -0.07749809               -0.07681025                0.25739944                0.00043500                0.00059028                0.00175123
              -0.00318672                7.99677604               44.09279913                0.86176395               -0.06360088               -0.06356000                0.21245282               -0.00013355                0.00007983               -0.00086004
               0.99617727                7.99723424               44.09281717                0.37716394               -0.06342993               -0.06361469                0.21151607               -0.00016230                0.00040597                0.00072224
               1.99554468                7.99768859               44.09284197                0.01000000                0.01825341               -0.06330743                0.21044198                0.09119137                0.22733825                0.00166709
               2.99654234                7.99997082               44.09739864                0.01297386                0.10544420               -0.14504374                0.22550284                0.19784189                0.51276383               -0.16919921
               3.99765356                8.00341705               44.10319208                0.01020119                0.13521719                0.01405030                0.24000124                0.38745615                0.73712100                0.58110003
               4.99924668                8.00525321               44.11233367                0.07357489                0.04075021               -0.03622937                0.26308580                0.15302240                0.45243960                0.31640447
               5.99846857                8.00584080               44.11260277                0.15618739               -0.07820505               -0.07835862                0.26184758                0.00266864                0.00597618               -0.00175721
               6.99768258                8.00639962               44.11281824                0.26662303               -0.07830511               -0.07814799                0.26043477                0.00062109                0.00284420               -0.00312337
               7.99690246                8.00694836               44.11302622                0.41929609               -0.07775867               -0.07775543                0.25898907                0.00021864                0.00209650               -0.00226801
               8.99612741                8.00749090               44.11322744                0.64009253               -0.07728405               -0.07727774                0.25753035                0.00006449                0.00112566               -0.00065574
               9.99535678                8.00802853               44.11341602                0.89311621               -0.07706226               -0.07670251                0.25606020                0.00024477                0.00052489                0.00168261
              -0.00364596                8.99614036               44.09266392                1.00000000               -0.06343734               -0.06353903                0.21197849               -0.00010055                0.00008809               -0.00067844
               0.99571967                8.99659976               44.09268970                0.58593424               -0.06325656               -0.06332613                0.21092883               -0.00001647                0.00008509                0.00055728
               1.99508891                8.99705753               44.09271584                0.05610540               -0.04080658               -0.06299976                0.20982367                0.02453694                0.03367778                0.00107752
               2.99490353                8.99800493               44.09341360                0.01715014                0.21898213               -0.14136528                0.21350717                0.20664841                0.95184673               -0.19579698
               3.99946855                9.00373735               44.11178371                0.07703081                0.18996252               -0.02645508                0.26154547                0.37682948                0.92177790                0.43660276
               4.99870279                9.00446378               44.11223226                0.15632629               -0.07781081               -0.07901899                0.26172845                0.00831808                0.01410851               -0.00006896
               5.99791233                9.00505743               44.11245504                0.26650858               -0.07857927               -0.07822732                0.26047318                0.00146856                0.00178433               -0.00168838
               6.99713120                9.00562042               44.11265931                0.41919457               -0.07782763               -0.07774680                0.25906859                0.00030435                0.00063284               -0.00159953
               7.99635578                9.00617317               44.11286003                0.64006894               -0.07730738               -0.07731315                0.25762840                0.00006648                0.00048461               -0.00127219
               8.99558505                9.00672032               44.11306156                0.97986028               -0.07685943               -0.07686021                0.25617189                0.00000753                0.00046373               -0.00056410
               9.99481859                9.00726289               44.11326142                0.99320944               -0.07664586               -0.07637385                0.25470195                0.00021016                0.00043304                0.00124378
              -0.00410754                9.99550526               44.09253200                1.00000000               -0.06326861               -0.06351063                0.21146284                0.00008836               -0.00051993               -0.00054214
               0.99525978                9.99596772               44.09255937                0.86317087               -0.06311065               -0.06320469                0.21038642                0.00017805               -0.00093191                0.00039316
               1.99463025                9.99642860               44.09257908                0.55975707               -0.06321455               -0.06289271                0.20936382                0.01292384                0.02653085                0.00053688
               2.99399548                9.99714351               44.09315604                0.52899210                0.20505308               -0.08614191                0.21272402                0.23216259                0.95501243               -0.00998355
               3.99873131               10.00288795               44.11174774                0.56212768                0.20487359               -0.08493950                0.26035170                0.25274187                0.92704471                0.00507834
               4.99809296               10.00367283               44.11212002                0.60659241               -0.06950089               -0.07909419                0.26033357                0.00843237                0.00808969               -0.00068936
               5.99734129               10.00427626               44.11232836                0.67052905               -0.07600127               -0.07811755                0.25908587                0.00148798               -0.00098352               -0.00068260
               6.99657293               10.00484468               44.11251903                0.76048076               -0.07686955               -0.07757429                0.25768709                0.00046531               -0.00197656               -0.00068215
               7.99580390               10.00540210               44.11270766                0.89309153               -0.07675468               -0.07710670                0.25625292                0.00026296               -0.00199592               -0.00056487
               8.99503784               10.00595370               44.11289763                0.99321130               -0.07640304               -0.07666145                0.25480000                0.00022598               -0.00139183               -0.00041905
               9.99427584               10.00650105               44.11309744                1.00000000               -0.07619966               -0.07618367                0.25333060                0.00045978               -0.00082378                0.00085615
               0.00096023                0.00198331               45.09604406                0.78791554               -0.06470108               -0.06468995                0.21640587               -0.00012498                0.00094801               -0.00092056
               1.00031322                0.00257132               45.09596980                0.52781964               -0.06410304               -0.06484951                0.21595800                0.00035515                0.00137416                0.00069334
               1.99967817                0.00317168               45.09590281                0.48350512               -0.06328393               -0.06454870                0.21552529                0.00007612                0.00152444               -0.00004857
               2.99904754                0.00379888               45.09582937                0.50526768               -0.06310370               -0.06444291                0.21509600               -0.00016279                0.00134627               -0.00011175
               3.99841609                0.00445296               45.09575625                0.54379001               -0.06322838               -0.06430280                0.21466990               -0.00020901                0.00153996               -0.00013708
               4.99778297                0.00512882               45.09568437                0.59606103               -0.06339213               -0.06416696                0.21425082               -0.00020311                0.00177369               -0.00015020
               5.99714825                0.00582035               45.09561403                0.66409780               -0.06353626               -0.06403149                0.21383657               -0.00018462                0.00202212               -0.00016958
               6.99651225                0.00652186               45.09554572                0.75108120               -0.06364802               -0.06389765                0.21342883               -0.00015876                0.00231542               -0.00023196
               7.99587529                0.00722824               45.09548037                0.86155711               -0.06372261               -0.06376161                0.21303306               -0.00012411                0.00270665               -0.00034012
               8.99523779                0.00793520               45.09541950                1.00000000               -0.06373865               -0.06362534                0.21265614               -0.00008815                0.00243364               -0.00051035
               9.99460052                0.00863960               45.09534878                1.00000000               -0.06372762               -0.06348576                0.21223441                0.00011937                0.00191836                0.00141980
               0.00037097                1.00133641               45.09590862                0.52782606               -0.06483848               -0.06407877                0.21589310                0.00034657               -0.00071579               -0.00117962
               0.99972258                1.00192283               45.09583407                0.01289270               -0.06529078               -0.06529603                0.21544212                0.00128554               -0.00152553                0.00153284
               1.99906515                1.00252620               45.09574252                0.01000000               -0.06586534               -0.04514456                0.21499252                0.02222841               -0.00245427                0.02003831
               2.99840528                1.00315445               45.09564973                0.01000001               -0.06580599               -0.01808818                0.21452678                0.04342406               -0.00263067                0.05150322
               3.99774903                1.00380993               45.09555580                0.01000000               -0.06540170               -0.00324685                0.21404262                0.03893579               -0.00276971                0.06825402
               4.99709724                1.00448715               45.09546152                0.02205068               -0.06495721               -0.04063562                0.21354520                0.01574155               -0.00284482                0.02408566
               5.99644989                1.00518004               45.09536731                0.10862768               -0.06452625               -0.06372136                0.21303620               -0.00088946               -0.00286770               -0.00252558
               6.99580672                1.00588288               45.09527364                0.22344911               -0.06412544               -0.06369568                0.21252026               -0.00048800               -0.00279183               -0.00237496
               7.99516738                1.00659062               45.09518177                0.37688945               -0.06377414               -0.06357476                0.21200725               -0.00017547               -0.00255160               -0.00195954
               8.99453123                1.00729895               45.09509346                0.58537658               -0.06350329               -0.06342926                0.21150702               -0.00001817               -0.00183613               -0.00115075
               9.99389731                1.00800474               45.09501627                0.86279127               -0.06339205               -0.06331290                0.21105572                0.00019405               -0.00129693                0.00210599
              -0.00020567                2.00070173               45.09576675                0.48351317               -0.06451858               -0.06323091                0.21539253                0.00006718               -0.00006825               -0.00128231
               0.99914914                2.00126540               45.09571432                0.01000000               -0.04516064               -0.06585912                0.21492596                0.02227634                0.01603472                0.00203224
               1.99889111                2.00226879               45.09598318                0.01000001               -0.02584259               -0.02569284                0.21584174                0.09941447                0.04404661                0.05207808
               2.99863229                2.00343711               45.09650178                0.01000000               -0.05145044                0.01350674                0.21715928                0.12882145                0.04058219                0.10431415
               3.99786211                2.00438802               45.09672271                0.01000000               -0.09522992                0.05400997                0.21748323                0.09807616               -0.03562665                0.17176324
               4.99672769                2.00431611               45.09572309                0.01000001               -0.10636860                0.04425801                0.21394622                0.05973591               -0.07914878                0.19852234
               5.99573473                2.00454593               45.09507333                0.01141904               -0.08178944                0.06449847                0.21201618                0.10165631               -0.03433006                0.27281706
               6.99509190                2.00524794               45.09495871                0.01620013               -0.06395089               -0.00000401                0.21141208                0.10204531               -0.00723211                0.23452571
               7.99445572                2.00595674               45.09485095                0.01000000               -0.06342943                0.01525304                0.21083026                0.08769295               -0.00631231                0.26343555
               8.99382331                2.00666661               45.09475492                0.05598290               -0.06314529               -0.04176566                0.21029920                0.02366856               -0.00377885                0.03658573
               9.99319281                2.00737334               45.09469796                0.55965729               -0.06305037               -0.06340531                0.20993921                0.01240940               -0.00183380                0.03570348
              -0.00075502                3.00007179               45.09562707                0.50528027               -0.06439267               -0.06302316                0.21489479               -0.00017478               -0.00003909               -0.00107419
               0.99860105                3.00060564               45.09558895                0.01000001               -0.01816244               -0.06578563                0.21439296                0.04360996                0.04617232                0.00155557
               1.99888173                3.00201234               45.09647448                0.01000000                0.01307140               -0.05125994                0.21709488                0.12920245                0.09323571                0.04944715
               2.99886248                3.00342458               45.09741243                0.01000000               -0.00250844               -0.00152817                0.21970556                0.16982865                0.10885495                0.12069862
               3.99883156                3.00489013               45.09863632                0.01197121               -0.03642135                0.01420569                0.22294819                0.15010375                0.07910039                0.17289733
               4.99813405                3.00537231               45.09901048                0.01000000               -0.06401899                0.08695369                0.22351749                0.18661418                0.08383532                0.34067395
               5.99755118                3.00647001               45.10033423                0.01814439               -0.08486230                0.08951954                0.22687383                0.15122661                0.01888430                0.36486368
               6.99643681                3.00588280               45.09942465                0.01000001               -0.10243062                0.04666098                0.22384162                0.15515229               -0.02476003                0.42226581
               7.99550257                3.00689568               45.09986021                0.01301332               -0.14243982                0.09939063                0.22630069                0.19020065               -0.21279332                0.59030855
               8.99358801                3.00646363               45.09518369                0.01717281               -0.13852590                0.20506921                0.21444795                0.19721180               -0.23876979                1.10602341
               9.99273205                3.00673663               45.09503768                0.52896626               -0.08559600                0.18829294                0.21377080                0.22179969               -0.01284837                1.12033132
              -0.00127687                3.99944127               45.09548675                0.54380906               -0.06423353               -0.06312610                0.21440316               -0.00022189               -0.00001984               -0.00100458
               0.99808079                3.99994969               45.09546092                0.01000000               -0.00334515               -0.06536285                0.21384368                0.03921000                0.06243345                0.00123956
               1.99865622                4.00124359               45.09668373                0.01000000                0.05351416               -0.09534983                0.21736275                0.09935778                0.15805957               -0.01904935
               2.99915108                4.00340655               45.09861641                0.01197311                0.01301134               -0.03520689                0.22287653                0.15126355                0.15724370                0.09059227
               3.99891645                4.00467213               45.09986822                0.01000000               -0.01354911               -0.01146810                0.22607713                0.14723985                0.17478164                0.18832960
               4.99888009                4.00605518               45.10217675                0.01803839               -0.03338368                0.01490354                0.23211152                0.11318234                0.10046538                0.20466736
               5.99824878                4.00633632               45.10197932                0.01000001               -0.05554103               -0.01738131                0.23072087                0.04685096                0.03153026                0.22652186
               6.99776927                4.00618116               45.10291960                0.01180438               -0.02849407                0.06631081                0.23268744                0.17439786                0.20045530                0.50032122
               7.99767890                4.00794456               45.10612110                0.01023121                0.00786636                0.12752727                0.24041531                0.37094730                0.65615462                0.83596379
               8.99792660                4.01076800               45.11621656                0.07701736               -0.02980476                0.17690466                0.26109116                0.35762370                0.50201595                1.07428688
               9.99708280                4.01113920               45.11641051                0.56208287               -0.08437988                0.18787247                0.25971253                0.23834265                0.00684310                1.08916066
              -0.00177630                4.99880927               45.09534608                0.59609240               -0.06407770               -0.06327141                0.21391802               -0.00021641               -0.00000600               -0.00093295
               0.99758293                4.99929839               45.09533066                0.02208337               -0.04058411               -0.06489707                0.21327985                0.01583103                0.02478854                0.00097731
               1.99741202                5.00010534               45.09581088                0.01000001                0.04381417               -0.10667478                0.21375540                0.06169528                0.18156282               -0.05937096
               2.99845921                5.00272044               45.09895280                0.01000000                0.08578509               -0.06248118                0.22340442                0.19026068                0.31196765                0.09341531
               3.99912772                5.00466077               45.10210987                0.01804208                0.01371513               -0.03169295                0.23204263                0.11461488                0.18615856                0.11359432
               4.99873351                5.00567038               45.10279489                0.01000001               -0.03827525               -0.03700783                0.23303003                0.03067563                0.11251344                0.12585992
               5.99836222                5.00612238               45.10449946                0.01177933               -0.02084946                0.00634883                0.23675368                0.08150305                0.30143248                0.39031842
               6.99831652                5.00720902               45.10898868                0.01000000               -0.00137705                0.09617527                0.24728116                0.20797870                0.57054404                0.66080172
               7.99833468                5.00944623               45.11612477                0.07359364               -0.03853410                0.03616718                0.26302104                0.14673107                0.35324249                0.50967715
               8.99754584                5.01000173               45.11631923                0.15635356               -0.07890883               -0.07779214                0.26146140                0.00795232                0.00323239                0.01448598
               9.99675650                5.01049408               45.11645653                0.60660529               -0.07893403               -0.06985480                0.25987864                0.00797917                0.00035182                0.01336203
              -0.00225943                5.99817584               45.09520524                0.66414036               -0.06392262               -0.06339941                0.21343910               -0.00019764                0.00001126               -0.00086701
               0.99710134                5.99865175               45.09519876                0.10867313               -0.06362465               -0.06444301                0.21270514               -0.00092107                0.00112703                0.00078406
               1.99646807                5.99911010               45.09521450                0.01142213                0.06497643               -0.08186775                0.21175188                0.10447845                0.25141785               -0.02203608
               2.99840087                6.00215693               45.10021469                0.01814742                0.08953694               -0.08397781                0.22673868                0.15538424                0.32842825                0.03068564
               3.99825881                6.00403827               45.10187401                0.01000001               -0.01844395               -0.05429654                0.23062709                0.04851371                0.20317159                0.04220764
               4.99803199                6.00531503               45.10440106                0.01178058                0.00406973               -0.01799505                0.23670178                0.08240883                0.37062818                0.30366144
               5.99834021                6.00646329               45.10944132                0.01000000                0.02865056                0.03155299                0.24894097                0.16352230                0.55713264                0.55866679
               6.99860500                6.00810467               45.11576312                0.07359748               -0.02596988                0.00578901                0.26328879                0.09754694                0.31308064                0.34595372
               7.99782081                6.00866790               45.11598977                0.15621327               -0.07836036               -0.07821093                0.26182663                0.00257555                0.00536920                0.00003044
               8.99703779                6.00921216               45.11615902                0.26654965               -0.07815692               -0.07850335                0.26025621                0.00140539                0.00152653                0.00042480
               9.99625767                6.00974210               45.11630946                0.67055503               -0.07801230               -0.07597707                0.25867992                0.00141360                0.00058112                0.00280671
              -0.00273206                6.99754128               45.09506445                0.75114351               -0.06376931               -0.06349675                0.21296721               -0.00017125                0.00003680               -0.00080659
               0.99663025                6.99800953               45.09506583                0.22352500               -0.06357659               -0.06401788                0.21212342               -0.00050607                0.00057298                0.00066371
               1.99599641                6.99846799               45.09507803                0.01620350                0.00042351               -0.06386448                0.21107885                0.10476106                0.21183490                0.00119454
               2.99663872                7.00104089               45.09930471                0.01000001                0.04717435               -0.10234201                0.22362181                0.16030797                0.37770064               -0.01409008
               3.99693990                7.00357483               45.10269495                0.01180818                0.06589743               -0.02557119                0.23257459                0.17872157                0.45865971                0.19836708
               4.99795667                7.00531048               45.10859070                0.01000000                0.09515622                0.00261686                0.24736326                0.21097762                0.62323204                0.54110836
               5.99884302                7.00675344               45.11536484                0.07359761                0.00530940               -0.02473106                0.26341947                0.09837025                0.33543809                0.30266572
               6.99806286                7.00732480               45.11560872                0.15624915               -0.07821604               -0.07820984                0.26199632                0.00150830                0.00631893               -0.00212615
               7.99727870                7.00788201               45.11580260                0.26666320               -0.07815545               -0.07830237                0.26044264                0.00061125                0.00302222               -0.00257817
               8.99649975                7.00843166               45.11598148                0.41926725               -0.07769115               -0.07776961                0.25888175                0.00029336                0.00141887               -0.00052930
               9.99572488                7.00897454               45.11614359                0.76053542               -0.07748688               -0.07677872                0.25730873                0.00044644                0.00059461                0.00179892
              -0.00319935                7.99690591               45.09492393                0.86164767               -0.06361396               -0.06355767                0.21250823               -0.00013554                0.00006421               -0.00074061
               0.99616451                7.99737139               45.09493247                0.37701370               -0.06343593               -0.06364179                0.21154483               -0.00018310                0.00031749                0.00061512
               1.99553193                7.99783281               45.09494634                0.01000000                0.01678355               -0.06331540                0.21042725                0.09055798                0.23535549                0.00139599
               2.99650018                8.00011009               45.09965561                0.01301944                0.10158588               -0.14352076                0.22593019                0.19745395                0.52878600               -0.17346482
               3.99756365                8.00352685               45.10559404                0.01023734                0.12863758                0.01287134                0.24039648                0.38008361                0.75727378                0.59684139
               4.99907293                8.00536736               45.11496634                0.07359493                0.03648234               -0.03668113                0.26342135                0.15003141                0.46482368                0.32514811
               5.99829330                8.00596867               45.11522257                0.15620890               -0.07831678               -0.07843707                0.26209263                0.00270148                0.00610196               -0.00169503
               6.99750660                8.00654047               45.11542339                0.26665646               -0.07835626               -0.07819213                0.26057739                0.00063407                0.00287239               -0.00310613
               7.99672617                8.00710185               45.11561636                0.41935080               -0.07777343               -0.07776927                0.25903030                0.00022229                0.00210926               -0.00224871
               8.99595113                8.00765676               45.11580247                0.64020640               -0.07726693               -0.07726010                0.25747034                0.00006436                0.00113263               -0.00063402
               9.99518083                8.00820653               45.11597583                0.89319628               -0.07702967               -0.07665263                0.25589864                0.00025443                0.00052916                0.00170666
              -0.00366573                8.99627013               45.09478414                1.00000000               -0.06345821               -0.06355892                0.21206773               -0.00009860                0.00006530               -0.00057226
               0.99569969                8.99673669               45.09479925                0.58558702               -0.06326976               -0.06334762                0.21097914               -0.00001925                0.00003268                0.00047872
               1.99506887                8.99720168               45.09481413                0.05612029               -0.04029643               -0.06300738                0.20982959                0.02523624                0.03608928                0.00091568
               2.99489376                8.99817047               45.09555047                0.01748521                0.21077099               -0.14034257                0.21388137                0.20485502                0.97892236               -0.20176629
               3.99928429                9.00383226               45.11440034                0.07726997                0.18108577               -0.02727125                0.26178106                0.36847748                0.94737967                0.44809490
               4.99851547                9.00457686               45.11485093                0.15636993               -0.07801745               -0.07910998                0.26198740                0.00851457                0.01506550               -0.00006289
               5.99772394                9.00518470               45.11506071                0.26653981               -0.07865576               -0.07827937                0.26064654                0.00150340                0.00191538               -0.00168233
               6.99694236                9.00576095               45.11525041                0.41924400               -0.07785441               -0.07776918                0.25914163                0.00031026                0.00067418               -0.00159191
               7.99616686                9.00632663               45.11543621                0.64017632               -0.07729991               -0.07730589                0.25760145                0.00006755                0.00050565               -0.00126172
               8.99539636                9.00688646               45.11562265                0.98011709               -0.07682095               -0.07682185                0.25604232                0.00000720                0.00047243               -0.00055413
               9.99463044                9.00744149               45.11580729                0.99340905               -0.07659229               -0.07630309                0.25446996                0.00022029                0.00043614                0.00125272
              -0.00413445                9.99563473               45.09464720                1.00000000               -0.06329798               -0.06353991                0.21158114                0.00009919               -0.00045932               -0.00045964
               0.99523257                9.99610444               45.09466361                0.86292245               -0.06313397               -0.06322539                0.21046309                0.00018526               -0.00084342                0.00033743
               1.99460287                9.99657266               45.09467295                0.55977881               -0.06329359               -0.06290193                0.20940648                0.01333990                0.02893282                0.00045929
               2.99396670                9.99730323               45.09528522                0.52928074                0.19619697               -0.08672384                0.21312535                0.22773251                0.98163840               -0.01037169
               3.99852681               10.00298142               45.11435209                0.56233821                0.19620418               -0.08508363                0.26052519                0.24834840                0.95226256                0.00522869
               4.99789078               10.00378516               45.11472436                0.60662307               -0.06937719               -0.07916954                0.26052322                0.00861420                0.00894331               -0.00069046
               5.99713927               10.00440309               45.11491979                0.67054866               -0.07599533               -0.07816150                0.25918866                0.00152869               -0.00084019               -0.00067533
               6.99637088               10.00498509               45.11509594                0.76051559               -0.07686252               -0.07758661                0.25769006                0.00048447               -0.00192227               -0.00067631
               7.99560202               10.00555574               45.11526972                0.89316652               -0.07672346               -0.07708903                0.25615606                0.00027819               -0.00196449               -0.00055899
               8.99483641               10.00612033               45.11544464                0.99340921               -0.07634232               -0.07661308                0.25460060                0.00024146               -0.00137799               -0.00041467
               9.99407517               10.00668047               45.11562923                1.00000000               -0.07612365               -0.07610230                0.25302872                0.00048759               -0.00081920                0.00085768
               0.00104622                0.00211211               46.09820714                0.78806463               -0.06463607               -0.06462517                0.21620531               -0.00011583                0.00095114               -0.00091929
               1.00039986                0.00271656               46.09812853                0.52804229               -0.06401325               -0.06480835                0.21578293                0.00037798                0.00138971                0.00069199
               1.99976595                0.00333412               46.09805736                0.48363252               -0.06315920               -0.06450832                0.21537932                0.00008602                0.00156105               -0.00005531
               2.99913667                0.00398020               46.09797976                0.50536403               -0.06297536               -0.06441129                0.21497945               -0.00016790                0.00140031               -0.00012113
               3.99850645                0.00465513               46.09790253                0.54386385               -0.06311823               -0.06427964                0.21458568               -0.00021747                0.00161238               -0.00014658
               4.99787431                0.00535365               46.09782661                0.59611539               -0.06330647               -0.06415178                0.21419769               -0.00021183                0.00186101               -0.00015967
               5.99724032                0.00606933               46.09775229                0.66411513               -0.06347672               -0.06402422                0.21381371               -0.00019216                0.00212044               -0.00017921
               6.99660478                0.00679611               46.09768004                0.75104605               -0.06361502               -0.06389837                0.21343580               -0.00016406                0.00242630               -0.00024387
               7.99596802                0.00752848               46.09761087                0.86143699               -0.06371532               -0.06377014                0.21307080               -0.00012617                0.00283515               -0.00035666
               8.99533047                0.00826176               46.09754640                1.00000000               -0.06375292               -0.06364153                0.21272632               -0.00008638                0.00254832               -0.00053496
               9.99469296                0.00899251               46.09747160                1.00000000               -0.06375102               -0.06351021                0.21233252                0.00012883                0.00200797                0.00148502
               0.00044061                1.00146586               46.09806671                0.52804556               -0.06479765               -0.06398900                0.21572020                0.00036981               -0.00071654               -0.00116684
               0.99979263                1.00206848               46.09798777                0.01285325               -0.06528077               -0.06528687                0.21529412                0.00134498               -0.00152329                0.00153333
               1.99913500                1.00268904               46.09789187                0.01000000               -0.06590720               -0.04538343                0.21487240                0.02210153               -0.00246743                0.02073485
               2.99847449                1.00333609               46.09779454                0.01000001               -0.06587244               -0.01889540                0.21443357                0.04288427               -0.00267407                0.05311470
               3.99781755                1.00401234               46.09769589                0.01000000               -0.06546997               -0.00429261                0.21397697                0.03836102               -0.00284036                0.07029982
               4.99716509                1.00471213               46.09759677                0.02210041               -0.06501888               -0.04115211                0.21350364                0.01525409               -0.00293917                0.02461005
               5.99651717                1.00542909               46.09749758                0.10864297               -0.06457646               -0.06373705                0.21301601               -0.00101434               -0.00298113               -0.00265042
               6.99587356                1.00615712               46.09739884                0.22339828               -0.06416201               -0.06369640                0.21251949               -0.00054553               -0.00291399               -0.00249292
               7.99523393                1.00689078               46.09730193                0.37673047               -0.06379846               -0.06357763                0.21202589               -0.00019608               -0.00266881               -0.00205579
               8.99459759                1.00762534               46.09720872                0.58501733               -0.06352140               -0.06343904                0.21154584               -0.00002157               -0.00192233               -0.00120663
               9.99396350                1.00835740               46.09712714                0.86253539               -0.06340915               -0.06333215                0.21111953                0.00019984               -0.00135807                0.00220291
              -0.00015162                2.00083233               46.09791999                0.48363919               -0.06447973               -0.06310516                0.21525239                0.00007715               -0.00007567               -0.00124855
               0.99920358                2.00141083               46.09786300                0.01000000               -0.04540013               -0.06590498                0.21480830                0.02215115                0.01673194                0.00201751
               1.99894038                2.00242645               46.09814135                0.01000001               -0.02662594               -0.02647310                0.21578829                0.09809274                0.04569045                0.05372175
               2.99867106                2.00360229               46.09867339                0.01000000               -0.05213775                0.01209600                0.21715356                0.12709420                0.04195880                0.10761685
               3.99789762                2.00456928               46.09889770                0.01000000               -0.09542134                0.05193829                0.21750853                0.09690768               -0.03677188                0.17704702
               4.99676264                2.00453061               46.09786200                0.01000001               -0.10612891                0.04225092                0.21385680                0.05937007               -0.08155410                0.20432424
               5.99577504                2.00479459               46.09719330                0.01142049               -0.08152294                0.06210819                0.21196742                0.10054437               -0.03531488                0.28058082
               6.99513218                2.00552218               46.09707267                0.01619833               -0.06395846               -0.00134866                0.21138569                0.10091381               -0.00756043                0.24114231
               7.99449587                2.00625693               46.09695919                0.01000000               -0.06343824                0.01398533                0.21081713                0.08674567               -0.00660316                0.27172655
               8.99386341                2.00699298               46.09685794                0.05599582               -0.06315186               -0.04130468                0.21030118                0.02422610               -0.00395427                0.03928567
               9.99323284                2.00772586               46.09679754                0.55967646               -0.06305759               -0.06338734                0.20997514                0.01266019               -0.00191879                0.03840840
              -0.00071483                3.00020376               46.09777549                0.50537790               -0.06436303               -0.06289207                0.21478629               -0.00018115               -0.00004864               -0.00102233
               0.99864154                3.00075038               46.09773245                0.01000001               -0.01898926               -0.06585852                0.21430351                0.04308165                0.04778414                0.00151066
               1.99890538                3.00215958               46.09864545                0.01000000                0.01160047               -0.05193660                0.21709144                0.12749236                0.09653817                0.05082881
               2.99887355                3.00357801               46.09960987                0.01000000               -0.00389997               -0.00279894                0.21977334                0.16779866                0.11251078                0.12433808
               3.99882738                3.00505110               46.10086669                0.01197269               -0.03731839                0.01271463                0.22308602                0.14850781                0.08179915                0.17818637
               4.99812718                3.00555715               46.10124664                0.01000000               -0.06454475                0.08424246                0.22368066                0.18458606                0.08655249                0.35083680
               5.99753649                3.00667126               46.10260402                0.01814813               -0.08488383                0.08651065                0.22706668                0.14977761                0.01977634                0.37540811
               6.99642950                3.00613015               46.10166419                0.01000001               -0.10192235                0.04428611                0.22402198                0.15374852               -0.02432664                0.43398248
               7.99549804                3.00717049               46.10212583                0.01306437               -0.14081620                0.09610888                0.22673664                0.18854246               -0.21685549                0.60637630
               8.99361318                3.00679925               46.09733017                0.01751426               -0.13735525                0.19786468                0.21486875                0.19326975               -0.24476094                1.13267923
               9.99275094                3.00708966               46.09717748                0.52926130               -0.08622425                0.18012247                0.21421436                0.21564713               -0.01325988                1.14640983
              -0.00124849                3.99957449               46.09763041                0.54388418               -0.06421154               -0.06301214                0.21432671               -0.00023177               -0.00002966               -0.00093410
               0.99810940                4.00009366               46.09759904                0.01000000               -0.00444584               -0.06543803                0.21378048                0.03866254                0.06448526                0.00116590
               1.99866260                4.00138772               46.09885753                0.01000000                0.05130570               -0.09556245                0.21738952                0.09836752                0.16333238               -0.02017240
               2.99913551                4.00354631               46.10084574                0.01197200                0.01130188               -0.03592969                0.22301190                0.14980519                0.16251708                0.09327875
               3.99888863                4.00482357               46.10213007                0.01000000               -0.01506536               -0.01260467                0.22627582                0.14576861                0.18037323                0.19388398
               4.99883420                4.00621546               46.10449948                0.01804132               -0.03455170                0.01327588                0.23238593                0.11217346                0.10380993                0.21060361
               5.99819760                4.00652481               46.10428791                0.01000001               -0.05631432               -0.01852836                0.23096496                0.04707388                0.03281099                0.23266125
               6.99770792                4.00640790               46.10524789                0.01181544               -0.02999886                0.06357748                0.23295463                0.17202805                0.20632628                0.51316308
               7.99759762                4.00817910               46.10852674                0.01026901                0.00508593                0.12226330                0.24064356                0.36269716                0.67140452                0.85556230
               8.99780964                4.01095027               46.11882770                0.07726460               -0.03163275                0.16916169                0.26110680                0.34780806                0.51313886                1.09918611
               9.99696497                4.01132831               46.11900743                0.56229596               -0.08446692                0.17978329                0.25964607                0.23178805                0.00699665                1.11352847
              -0.00175779                4.99894352               46.09748504                0.59614428               -0.06406451               -0.06318259                0.21387527               -0.00022620               -0.00001564               -0.00084609
               0.99760156                4.99944162               46.09746327                0.02213002               -0.04110651               -0.06496571                0.21324220                0.01535074                0.02533871                0.00087986
               1.99742008                5.00024833               46.09794832                0.01000001                0.04161197               -0.10649254                0.21372958                0.06165493                0.18736697               -0.06179407
               2.99843380                5.00285941               46.10118753                0.01000000                0.08267681               -0.06273143                0.22356459                0.18880306                0.32209462                0.09618543
               3.99907361                5.00479901               46.10443151                0.01804257                0.01178081               -0.03253144                0.23232635                0.11388119                0.19212053                0.11694554
               4.99866942                5.00582267               46.10512652                0.01000001               -0.03940429               -0.03778707                0.23328912                0.03139671                0.11602981                0.12933446
               5.99828553                5.00630069               46.10686856                0.01178796               -0.02268255                0.00495642                0.23702503                0.08093636                0.30975553                0.40065802
               6.99821577                5.00740170               46.11146291                0.01000000               -0.00379562                0.09266993                0.24754130                0.20382481                0.58498033                0.67740498
               7.99820961                5.00961575               46.11875601                0.07361462               -0.03978158                0.03286680                0.26321862                0.14337681                0.36189260                0.52179646
               8.99742013                5.01018248               46.11893439                0.15640299               -0.07894975               -0.07789181                0.26155065                0.00805105                0.00322926                0.01553016
               9.99663062                5.01068532               46.11905539                0.60664031               -0.07895152               -0.06972531                0.25987513                0.00808321                0.00034641                0.01429723
              -0.00224922                5.99831084               46.09733957                0.66415360               -0.06391803               -0.06333875                0.21342960               -0.00020607                0.00000156               -0.00076649
               0.99711160                5.99879434               46.09732573                0.10868805               -0.06364407               -0.06450003                0.21269051               -0.00105951                0.00100124                0.00066871
               1.99647790                5.99925787               46.09733179                0.01142240                0.06246456               -0.08163003                0.21169658                0.10383759                0.25922722               -0.02305702
               2.99836089                6.00229169               46.10248337                0.01815200                0.08625508               -0.08381652                0.22695441                0.15467654                0.33902766                0.03159391
               3.99820300                6.00417294               46.10418153                0.01000001               -0.02002166               -0.05476775                0.23086828                0.04917202                0.20930687                0.04353075
               4.99796046                6.00545972               46.10676953                0.01178935                0.00171485               -0.01887098                0.23700984                0.08212024                0.38101164                0.31206717
               5.99823730                6.00662393               46.11193235                0.01000000                0.02544460                0.02979897                0.24921964                0.16060829                0.57180482                0.57332684
               6.99846935                6.00826130               46.11839735                0.07361784               -0.02764627                0.00394428                0.26351776                0.09558513                0.32108066                0.35474543
               7.99768437                6.00883644               46.11860879                0.15623703               -0.07841322               -0.07828137                0.26196815                0.00259516                0.00541244                0.00017352
               8.99690109                6.00939244               46.11876188                0.26658956               -0.07817089               -0.07853262                0.26030158                0.00142702                0.00152853                0.00057067
               9.99612096                6.00993381               46.11889609                0.67058079               -0.07801310               -0.07593852                0.25863153                0.00143672                0.00058708                0.00295883
              -0.00272892                6.99767674               46.09719423                0.75110553               -0.06377407               -0.06346533                0.21299209               -0.00017721                0.00002451               -0.00069164
               0.99663334                6.99815162               46.09718710                0.22347531               -0.06357991               -0.06406060                0.21213119               -0.00057038                0.00045308                0.00054023
               1.99599948                6.99861573               46.09718864                0.01620144               -0.00105418               -0.06387236                0.21104421                0.10411068                0.21848050                0.00085628
               2.99661226                7.00118308               46.10154210                0.01000001                0.04447683               -0.10179606                0.22381464                0.15986962                0.38950619               -0.01374767
               3.99688902                7.00370365               46.10502217                0.01181808                0.06242868               -0.02622278                0.23284123                0.17737364                0.47164914                0.20433342
               4.99786083                7.00544525               46.11106597                0.01000000                0.09035454                0.00181177                0.24767129                0.20735890                0.64003114                0.55576674
               5.99869611                7.00689667               46.11800051                0.07361599                0.00270649               -0.02564478                0.26369028                0.09657963                0.34431423                0.31068603
               6.99791496                7.00748058               46.11822965                0.15627641               -0.07828656               -0.07827475                0.26216624                0.00151712                0.00638472               -0.00204858
               7.99713038                7.00805012               46.11840747                0.26669756               -0.07818259               -0.07833298                0.26052544                0.00062212                0.00303048               -0.00253730
               8.99635131                7.00861183               46.11857030                0.41932959               -0.07768835               -0.07776918                0.25886972                0.00029673                0.00142708               -0.00048434
               9.99557661                7.00916655               46.11871620                0.76057544               -0.07746964               -0.07674190                0.25720202                0.00045696                0.00060125                0.00184741
              -0.00320252                7.99704153               46.09704930                0.86152729               -0.06362728               -0.06355460                0.21256694               -0.00013808                0.00004655               -0.00060831
               0.99616121                7.99751313               46.09704806                0.37685069               -0.06344160               -0.06367108                0.21157358               -0.00020607                0.00021747                0.00049587
               1.99552865                7.99798042               46.09705052                0.01000000                0.01545754               -0.06332460                0.21041098                0.09013118                0.24361824                0.00109698
               2.99647036                8.00025576               46.10191724                0.01306969                0.09798297               -0.14215443                0.22635478                0.19757881                0.54505325               -0.17766037
               3.99748831                8.00364849               46.10800001                0.01027679                0.12221321                0.01187701                0.24074680                0.37334267                0.77738512                0.61256692
               4.99891462                8.00549595               46.11760210                0.07361612                0.03226250               -0.03703771                0.26371365                0.14727227                0.47721823                0.33391410
               5.99813356                8.00611104               46.11784463                0.15623230               -0.07841930               -0.07850509                0.26230264                0.00274508                0.00623535               -0.00163489
               6.99734624                8.00669580               46.11802979                0.26669237               -0.07839947               -0.07822744                0.26069037                0.00064823                0.00290181               -0.00308707
               7.99656557                8.00726978               46.11820682                0.41941189               -0.07778221               -0.07777741                0.25905189                0.00022585                0.00212382               -0.00222435
               8.99579059                8.00783705               46.11837684                0.64032486               -0.07724572               -0.07723856                0.25739657                0.00006498                0.00113903               -0.00061246
               9.99502065                8.00839897               46.11853399                0.89327973               -0.07699386               -0.07660052                0.25572970                0.00026337                0.00053314                0.00172833
              -0.00367487                8.99640565               46.09690527                1.00000000               -0.06347973               -0.06357966                0.21216197               -0.00009680                0.00003976               -0.00045490
               0.99569033                8.99687820               46.09690929                0.58522187               -0.06328279               -0.06336981                0.21102954               -0.00002313               -0.00002590                0.00039091
               1.99505947                8.99734923               46.09691243                0.05613586               -0.03972811               -0.06301386                0.20982972                0.02602217                0.03870899                0.00073681
               2.99489577                8.99834000               46.09769122                0.01783155                0.20281063               -0.13945976                0.21428436                0.20353537                1.00616366               -0.20780403
               3.99911568                9.00394119               46.11701934                0.07752247                0.17239789               -0.02797325                0.26196933                0.36068073                0.97301037                0.45952690
               4.99834373                9.00470450               46.11747201                0.15641839               -0.07822613               -0.07919000                0.26220633                0.00874355                0.01608289               -0.00005891
               5.99755116                9.00532657               46.11766797                0.26657476               -0.07872718               -0.07832271                0.26079113                0.00154475                0.00205615               -0.00167693
               6.99676918                9.00591604               46.11784215                0.41930029               -0.07787569               -0.07778560                0.25919450                0.00031652                0.00071774               -0.00158071
               7.99599365                9.00649458               46.11801206                0.64029220               -0.07728802               -0.07729407                0.25755934                0.00006815                0.00052582               -0.00125071
               8.99522342                9.00706706               46.11818241                0.98037858               -0.07677998               -0.07678115                0.25590473                0.00000714                0.00047968               -0.00054463
               9.99445805                9.00763454               46.11835082                0.99361362               -0.07653733               -0.07623219                0.25423725                0.00022972                0.00043849                0.00126075
              -0.00414955                9.99576994               46.09676362                1.00000000               -0.06332878               -0.06357082                0.21170667                0.00011120               -0.00039224               -0.00036805
               0.99521716                9.99624573               46.09676863                0.86266604               -0.06315767               -0.06324639                0.21054133                0.00019311               -0.00074544                0.00027547
               1.99458729                9.99672015               46.09676720                0.55980017               -0.06340260               -0.06290889                0.20944387                0.01382393                0.03155480                0.00037323
               2.99394911                9.99746657               46.09741855                0.52958178                0.18750639               -0.08734262                0.21355539                0.22377772                1.00837910               -0.01077148
               3.99833742               10.00308902               46.11695824                0.56255584                0.18775072               -0.08521701                0.26066173                0.24445284                0.97745816                0.00538594
               4.99770412               10.00391215               46.11733048                0.60665736               -0.06922539               -0.07923434                0.26067965                0.00881757                0.00985030               -0.00069013
               5.99695291               10.00454458               46.11751214                0.67056898               -0.07597823               -0.07819812                0.25926940                0.00157206               -0.00068753               -0.00066755
               6.99618456               10.00514009               46.11767283                0.76055125               -0.07685037               -0.07759439                0.25767986                0.00050322               -0.00186582               -0.00066884
               7.99541591               10.00572390               46.11783078                0.89324568               -0.07668940               -0.07706755                0.25605023                0.00029265               -0.00193435               -0.00055288
               8.99465077               10.00630143               46.11798965                0.99361582               -0.07628101               -0.07656314                0.25439959                0.00025589               -0.00136501               -0.00041038
               9.99389029               10.00687432               46.11815802                1.00000000               -0.07604829               -0.07602176                0.25273268                0.00051321               -0.00081487                0.00085884
               0.00113647                0.00224579               47.10036817                0.78821799               -0.06456749               -0.06455681                0.21599603               -0.00010642                0.00095378               -0.00091664
               1.00049079                0.00286669               47.10028546                0.52827092               -0.06391537               -0.06476626                0.21559977                0.00040444                0.00140689                0.00069115
               1.99985816                0.00350156               47.10021039                0.48376488               -0.06302088               -0.06446517                0.21522541                0.00009738                0.00160473               -0.00006275
               2.99923038                0.00416689               47.10012896                0.50546510               -0.06283367               -0.06437801                0.21485854               -0.00017384                0.00146576               -0.00013071
               3.99860149                0.00486329               47.10004796                0.54394692               -0.06299713               -0.06425443                0.21449811               -0.00022733                0.00169581               -0.00015669
               4.99797043                0.00558532               47.09996832                0.59616969               -0.06321264               -0.06413511                0.21414301               -0.00022152                0.00195800               -0.00016976
               5.99733723                0.00632619               47.09989031                0.66413189               -0.06341215               -0.06401662                0.21379197               -0.00020039                0.00222942               -0.00018976
               6.99670219                0.00707939               47.09981444                0.75100594               -0.06357977               -0.06389979                0.21344658               -0.00017002                0.00254894               -0.00025690
               7.99606564                0.00783899               47.09974178                0.86131440               -0.06370777               -0.06377979                0.21311356               -0.00012883                0.00297607               -0.00037467
               8.99542803                0.00859985               47.09967403                1.00000000               -0.06376822               -0.06365867                0.21280194               -0.00008478                0.00267335               -0.00056228
               9.99479027                0.00935821               47.09959543                1.00000000               -0.06377597               -0.06353583                0.21243702                0.00013925                0.00210554                0.00155641
               0.00051451                1.00160022               47.10022303                0.52828068               -0.06475555               -0.06389085                0.21553841                0.00039614               -0.00071774               -0.00115014
               0.99986695                1.00221902               47.10013995                0.01281226               -0.06527391               -0.06528089                0.21513820                0.00141575               -0.00152022                0.00153624
               1.99920903                1.00285691               47.10003997                0.01000000               -0.06595924               -0.04559563                0.21474549                0.02202319               -0.00247686                0.02145177
               2.99854777                1.00352311               47.09993840                0.01000001               -0.06595162               -0.01963873                0.21433689                0.04242885               -0.00271346                0.05475317
               3.99789000                1.00422075               47.09983533                0.01000000               -0.06554984               -0.00525676                0.21390847                0.03787175               -0.00291236                0.07237703
               4.99723677                1.00494397               47.09973159                0.02214618               -0.06509008               -0.04163012                0.21346037                0.01479250               -0.00304057                0.02511483
               5.99658820                1.00568602               47.09962763                0.10865280               -0.06463422               -0.06375398                0.21299584               -0.00115261               -0.00310416               -0.00279610
               6.99594409                1.00644039               47.09952403                0.22334816               -0.06420389               -0.06369770                0.21252035               -0.00061056               -0.00304707               -0.00261820
               7.99530412                1.00720119               47.09942229                0.37656624               -0.06382559               -0.06358058                0.21204591               -0.00021916               -0.00279807               -0.00215939
               8.99466758                1.00796327               47.09932438                0.58463739               -0.06354051               -0.06344878                0.21158531               -0.00002500               -0.00201835               -0.00126856
               9.99403331                1.00872285               47.09923866                0.86226803               -0.06342669               -0.06335189                0.21118478                0.00020667               -0.00142638                0.00230886
              -0.00009321                2.00096797               47.10007179                0.48377486               -0.06443665               -0.06296480                0.21510148                0.00008832               -0.00008381               -0.00120821
               0.99926242                2.00156107               47.10001048                0.01000000               -0.04561278               -0.06596043                0.21468096                0.02207479                0.01744919                0.00200456
               1.99899453                2.00258965               47.10029894                0.01000001               -0.02736577               -0.02720883                0.21572629                0.09695445                0.04736976                0.05540213
               2.99871511                2.00377412               47.10084485                0.01000000               -0.05282362                0.01079416                0.21713411                0.12560976                0.04335461                0.11098208
               3.99793806                2.00475816               47.10107288                0.01000000               -0.09570477                0.05003666                0.21750542                0.09596900               -0.03796540                0.18240436
               4.99680101                2.00475272               47.10000023                0.01000001               -0.10601505                0.04037985                0.21386592                0.05919763               -0.08403822                0.21021028
               5.99581776                2.00505111               47.09931268                0.01142025               -0.08131034                0.05987725                0.21192794                0.09968386               -0.03632275                0.28843788
               6.99517481                2.00580544               47.09918642                0.01619442               -0.06396903               -0.00265782                0.21135906                0.10003241               -0.00791139                0.24783524
               7.99453838                2.00656738               47.09906730                0.01000000               -0.06344668                0.01272321                0.21079795                0.08604002               -0.00692773                0.28020208
               8.99390587                2.00733088               47.09896095                0.05601020               -0.06315732               -0.04079036                0.21029813                0.02486810               -0.00415044                0.04221780
               9.99327523                2.00809117               47.09889746                0.55969754               -0.06306382               -0.06339547                0.21000845                0.01297615               -0.00201358                0.04135913
              -0.00066991                3.00034093               47.09992279                0.50547513               -0.06433107               -0.06274671                0.21467207               -0.00018770               -0.00005904               -0.00096121
               0.99868678                3.00089981               47.09987502                0.01000001               -0.01975091               -0.06594396                0.21420911                0.04263761                0.04942667                0.00146540
               1.99893507                3.00231273               47.10081631                0.01000000                0.01023364               -0.05261834                0.21707791                0.12604117                0.09991009                0.05223134
               2.99889145                3.00373900               47.10180790                0.01000000               -0.00521472               -0.00398226                0.21981837                0.16612601                0.11621784                0.12805633
               3.99883078                3.00522148               47.10309804                0.01197349               -0.03818364                0.01134178                0.22317752                0.14723452                0.08452919                0.18355181
               4.99812778                3.00575157               47.10348410                0.01000000               -0.06508088                0.08173299                0.22378236                0.18297646                0.08930844                0.36114087
               5.99752916                3.00688356               47.10487556                0.01815015               -0.08496568                0.08369483                0.22726605                0.14872470                0.02067735                0.38614175
               6.99642846                3.00638724               47.10390509                0.01000001               -0.10148403                0.04201318                0.22420400                0.15271239               -0.02380929                0.44587882
               7.99549948                3.00745566               47.10439494                0.01311500               -0.13936609                0.09291223                0.22713715                0.18745073               -0.22079755                0.62253197
               8.99364114                3.00714746               47.09948106                0.01786865               -0.13636189                0.19083117                0.21531797                0.19010520               -0.25073322                1.15936442
               9.99277224                3.00745494               47.09932197                0.52956589               -0.08689023                0.17203418                0.21468835                0.21015053               -0.01367415                1.17245529
              -0.00121474                3.99971304               47.09977329                0.54396338               -0.06418888               -0.06288713                0.21424872               -0.00024268               -0.00004022               -0.00085150
               0.99814337                4.00024219               47.09973653                0.01000000               -0.00545422               -0.06552563                0.21371603                0.03819447                0.06657062                0.00108975
               1.99867618                4.00153728               47.10103152                0.01000000                0.04927512               -0.09587645                0.21739107                0.09761594                0.16871991               -0.02134141
               2.99912888                4.00369447               47.10307664                0.01197184                0.00970011               -0.03662374                0.22315787                0.14870871                0.16791480                0.09604629
               3.99887018                4.00498499               47.10439374                0.01000000               -0.01652072               -0.01366322                0.22644160                0.14466387                0.18603184                0.19956128
               4.99879846                4.00638738               47.10682447                0.01804386               -0.03567955                0.01177247                0.23261181                0.11146468                0.10720184                0.21662964
               5.99815659                4.00672500               47.10659862                0.01000001               -0.05707490               -0.01962314                0.23117970                0.04750463                0.03413714                0.23887372
               6.99765696                4.00664570               47.10757869                0.01182658               -0.03147086                0.06102055                0.23320072                0.17004188                0.21222251                0.52610376
               7.99752717                4.00842562               47.11093397                0.01030867                0.00258630                0.11722258                0.24090080                0.35516900                0.68660929                0.87518888
               8.99770869                4.01114750               47.12143869                0.07752035               -0.03319475                0.16153448                0.26107152                0.33880703                0.52421534                1.12396529
               9.99686328                4.01153186               47.12160343                0.56251864               -0.08454126                0.17182140                0.25953635                0.22589537                0.00715090                1.13770602
              -0.00173306                4.99908318               47.09962358                0.59619749               -0.06405098               -0.06308575                0.21383269               -0.00023709               -0.00002634               -0.00074650
               0.99762643                4.99958930               47.09959550                0.02217722               -0.04159163               -0.06504488                0.21320421                0.01488925                0.02588994                0.00077580
               1.99743510                5.00039520               47.10008547                0.01000001                0.03957405               -0.10643241                0.21371633                0.06180063                0.19327637               -0.06431239
               2.99841791                5.00300652               47.10342410                0.01000000                0.07980203               -0.06301211                0.22372091                0.18779129                0.33244594                0.09898333
               3.99903115                5.00494822               47.10675640                0.01804333                0.00995772               -0.03333807                0.23261362                0.11345544                0.19817191                0.12034824
               4.99861706                5.00598702               47.10746068                0.01000001               -0.04051071               -0.03852302                0.23353791                0.03229142                0.11956160                0.13289736
               5.99822093                5.00649110               47.10923996                0.01179674               -0.02441908                0.00364399                0.23724966                0.08062588                0.31813028                0.41104721
               6.99812868                5.00760765               47.11393951                0.01000000               -0.00599377                0.08935701                0.24777347                0.20011051                0.59948660                0.69405225
               7.99810106                5.00980011               47.12138915                0.07363991               -0.04088167                0.02971412                0.26337069                0.14039308                0.37054784                0.53396389
               8.99731105                5.01037815               47.12155025                0.15645427               -0.07898106               -0.07799205                0.26160446                0.00818226                0.00320818                0.01665920
               9.99652143                5.01089137               47.12165404                0.60667673               -0.07896134               -0.06956975                0.25984363                0.00820854                0.00033874                0.01530673
              -0.00223171                5.99845132               47.09947383                0.66416836               -0.06391443               -0.06327309                0.21342368               -0.00021553               -0.00000948               -0.00065339
               0.99712914                5.99894129               47.09945257                0.10869672               -0.06366572               -0.06456529                0.21267797               -0.00121116                0.00085120                0.00054276
               1.99649497                5.99940863               47.09944843                0.01142362                0.06012710               -0.08144052                0.21165505                0.10344273                0.26713328               -0.02412911
               2.99833168                6.00243423               47.10475378                0.01815319                0.08319098               -0.08372287                0.22715853                0.15435077                0.34982688                0.03249949
               3.99815879                6.00431823               47.10649138                0.01000001               -0.02151385               -0.05525967                0.23112632                0.05002805                0.21558638                0.04485509
               4.99790141                6.00561692               47.10914126                0.01179855               -0.00051566               -0.01968835                0.23728321                0.08207691                0.39145664                0.32052248
               5.99814848                6.00679788               47.11442571                0.01000000                0.02243806                0.02818908                0.24944673                0.15803054                0.58648079                0.58802972
               6.99835017                6.00843284               47.12103347                0.07363602               -0.02919736                0.00218716                0.26370933                0.09384629                0.32911944                0.36355492
               7.99756453                6.00901991               47.12122913                0.15626604               -0.07845487               -0.07834373                0.26207698                0.00262153                0.00546778                0.00031890
               8.99678107                6.00958766               47.12136505                0.26663094               -0.07817645               -0.07855694                0.26031966                0.00145342                0.00152462                0.00072989
               9.99600100                6.01014046               47.12148209                0.67060647               -0.07800686               -0.07588923                0.25856225                0.00146308                0.00059013                0.00312178
              -0.00271731                6.99781772               47.09932429                0.75106631               -0.06377965               -0.06343118                0.21302072               -0.00018436                0.00001056               -0.00056466
               0.99664490                6.99829800               47.09930846                0.22342350               -0.06358374               -0.06410854                0.21214010               -0.00064167                0.00031992                0.00040313
               1.99601102                6.99876639               47.09929892                0.01619910               -0.00247885               -0.06388337                0.21101021                0.10371050                0.22521395                0.00049416
               2.99659532                7.00133206               47.10378100                0.01000001                0.04189984               -0.10132363                0.22399559                0.15983535                0.40148488               -0.01330707
               3.99684902                7.00384303               47.10735177                0.01182815                0.05918152               -0.02686064                0.23313444                0.17644487                0.48477563                0.21037903
               4.99777895                7.00559325               47.11354413                0.01000000                0.08583026                0.00113400                0.24794277                0.20415659                0.65688770                0.57045362
               5.99856562                7.00705488               47.12063865                0.07363544                0.00023164               -0.02646840                0.26392030                0.09499851                0.35321058                0.31874517
               6.99778358                7.00765139               47.12085204                0.15630297               -0.07834780               -0.07833021                0.26230693                0.00153086                0.00645496               -0.00195486
               7.99699867                7.00823323               47.12101311                0.26674059               -0.07820127               -0.07835622                0.26058052                0.00063421                0.00304457               -0.00249719
               8.99621956                7.00880701               47.12115888                0.41939497               -0.07767870               -0.07776288                0.25883564                0.00030147                0.00142965               -0.00043588
               9.99544509                7.00937359               47.12128764                0.76061808               -0.07744672               -0.07669932                0.25708005                0.00046779                0.00060438                0.00189937
              -0.00319595                7.99718270               47.09917527                0.86140163               -0.06364121               -0.06355071                0.21262981               -0.00014124                0.00002756               -0.00046275
               0.99616764                7.99765912               47.09916394                0.37668649               -0.06344689               -0.06370274                0.21160235               -0.00023129                0.00011041                0.00036252
               1.99553511                7.99813096               47.09915456                0.01000000                0.01420577               -0.06333305                0.21038763                0.08993676                0.25208812                0.00076537
               2.99645175                8.00040776               47.10418271                0.01312114                0.09456932               -0.14094886                0.22674419                0.19824309                0.56146900               -0.18174570
               3.99742650                8.00378102               47.11040898                0.01031766                0.11604625                0.01107713                0.24107375                0.36732687                0.79749020                0.62824576
               4.99877268                8.00563960               47.12024061                0.07363924                0.02819043               -0.03729776                0.26396932                0.14485202                0.48965049                0.34269338
               5.99799031                8.00626851               47.12046862                0.15626025               -0.07851224               -0.07856160                0.26247493                0.00279736                0.00637164               -0.00157317
               6.99720244                8.00686624               47.12063720                0.26673157               -0.07843574               -0.07825474                0.26077752                0.00066518                0.00293058               -0.00306075
               7.99642159                8.00745278               47.12079740                0.41947962               -0.07778451               -0.07777886                0.25905032                0.00023057                0.00213846               -0.00220338
               8.99564674                8.00803240               47.12095040                0.64045150               -0.07721955               -0.07721245                0.25730689                0.00006632                0.00114460               -0.00059008
               9.99487720                8.00860648               47.12109042                0.89336623               -0.07695422               -0.07654555                0.25555235                0.00027171                0.00053655                0.00175198
              -0.00367297                8.99654671               47.09902738                1.00000000               -0.06350220               -0.06360140                0.21226208               -0.00009497                0.00001177               -0.00032533
               0.99569201                8.99702394               47.09901984                0.58483663               -0.06329574               -0.06339293                0.21108053               -0.00002699               -0.00009004                0.00029264
               1.99506112                8.99749973               47.09901072                0.05615486               -0.03909423               -0.06301936                0.20982492                0.02690393                0.04155582                0.00053417
               2.99491013                8.99851309               47.09983615                0.01819205                0.19512973               -0.13873043                0.21470543                0.20281656                1.03354612               -0.21383927
               3.99896371                9.00406457               47.11963973                0.07778237                0.16391863               -0.02848435                0.26208996                0.35358781                0.99862922                0.47090343
               4.99818850                9.00484730               47.12009505                0.15647047               -0.07843894               -0.07925884                0.26238430                0.00901484                0.01718781               -0.00006578
               5.99739493                9.00548365               47.12027653                0.26661496               -0.07879381               -0.07835593                0.26090397                0.00159277                0.00221058               -0.00167338
               6.99661262                9.00608630               47.12043430                0.41935977               -0.07789115               -0.07779508                0.25922534                0.00032437                0.00076185               -0.00156951
               7.99583711                9.00667766               47.12058740                0.64041348               -0.07727159               -0.07727731                0.25750096                0.00006963                0.00054604               -0.00124066
               8.99506719                9.00726276               47.12074075                0.98064777               -0.07673653               -0.07673799                0.25575902                0.00000738                0.00048757               -0.00053535
               9.99430238                9.00784268               47.12089203                0.99382762               -0.07648106               -0.07616113                0.25400393                0.00023803                0.00044118                0.00126853
              -0.00415231                9.99591067               47.09888133                1.00000000               -0.06336083               -0.06360353                0.21183920                0.00012428               -0.00031803               -0.00026664
               0.99521408                9.99639126               47.09887444                0.86239499               -0.06318195               -0.06326798                0.21062122                0.00020197               -0.00063676                0.00020614
               1.99458405                9.99687058               47.09886182                0.55982330               -0.06354154               -0.06291536                0.20947930                0.01438742                0.03441698                0.00027520
               2.99394325                9.99763315               47.09955633                0.52989436                0.17899993               -0.08799368                0.21400521                0.22035007                1.03520156               -0.01118300
               3.99816405               10.00321133               47.11956533                0.56278222                0.17953229               -0.08532346                0.26073823                0.24109714                1.00258365                0.00554122
               4.99753389               10.00405442               47.11993796                0.60669251               -0.06904407               -0.07928727                0.26080075                0.00904265                0.01083483               -0.00069235
               5.99678316               10.00470140               47.12010518                0.67059375               -0.07594875               -0.07822556                0.25932511                0.00161873               -0.00052205               -0.00066043
               6.99601492               10.00531033               47.12024954                0.76058954               -0.07683224               -0.07759611                0.25765367                0.00052156               -0.00180844               -0.00066144
               7.99524652               10.00590723               47.12039072                0.89332758               -0.07665232               -0.07704215                0.25593503                0.00030648               -0.00190348               -0.00054699
               8.99448187               10.00649764               47.12053264                0.99382953               -0.07621936               -0.07651183                0.25419741                0.00026914               -0.00135101               -0.00040624
               9.99372213               10.00708325               47.12068388                1.00000000               -0.07597390               -0.07594231                0.25244293                0.00053640               -0.00080997                0.00085972
               0.00123071                0.00238407               48.10252706                0.78838187               -0.06449373               -0.06448339                0.21577408               -0.00009631                0.00095665               -0.00091505
               1.00058577                0.00302141               48.10244053                0.52851525               -0.06380787               -0.06472225                0.21540531                0.00043473                0.00142707                0.00068857
               1.99995455                0.00367372               48.10236187                0.48390127               -0.06286749               -0.06441986                0.21506331                0.00011061                0.00165539               -0.00007052
               2.99932842                0.00435870               48.10227693                0.50556590               -0.06267743               -0.06434445                0.21473460               -0.00018032                0.00154101               -0.00014165
               3.99870100                0.00507726               48.10219249                0.54402303               -0.06286475               -0.06422958                0.21441085               -0.00023857                0.00179183               -0.00016762
               4.99807113                0.00582372               48.10210948                0.59622639               -0.06311075               -0.06411905                0.21409063               -0.00023288                0.00206988               -0.00018070
               5.99743879                0.00659089               48.10202813                0.66415179               -0.06334231               -0.06400908                0.21377288               -0.00021020                0.00235239               -0.00020121
               6.99680428                0.00737179               48.10194897                0.75096841               -0.06354174               -0.06390135                0.21346090               -0.00017712                0.00268372               -0.00027131
               7.99616795                0.00815997               48.10187314                0.86118806               -0.06369957               -0.06378968                0.21316038               -0.00013200                0.00312897               -0.00039490
               8.99553029                0.00894982               48.10180244                1.00000000               -0.06378448               -0.06367639                0.21288273               -0.00008310                0.00280924               -0.00059213
               9.99489226                0.00973718               48.10172034                1.00000000               -0.06380255               -0.06356256                0.21254803                0.00015076                0.00221224                0.00163518
               0.00059240                1.00173923               48.10237747                0.52851858               -0.06471143               -0.06378329                0.21534571                0.00042628               -0.00071786               -0.00113228
               0.99994529                1.00237419               48.10229053                0.01276936               -0.06526978               -0.06527798                0.21497266                0.00149692               -0.00151349                0.00153780
               1.99928701                1.00302953               48.10218678                0.01000000               -0.06602189               -0.04577867                0.21461183                0.02199625               -0.00248159                0.02218565
               2.99862485                1.00371526               48.10208128                0.01000001               -0.06604493               -0.02031347                0.21423831                0.04206155               -0.00275131                0.05641583
               3.99796611                1.00443496               48.10197406                0.01000000               -0.06564355               -0.00612975                0.21384082                0.03746024               -0.00298533                0.07446674
               4.99731198                1.00518253               48.10186597                0.02220110               -0.06517308               -0.04207045                0.21341907                0.01433911               -0.00314565                0.02567764
               5.99666265                1.00595080               48.10175750                0.10866565               -0.06470081               -0.06377318                0.21297700               -0.00130721               -0.00323573               -0.00294428
               6.99601797                1.00673278               48.10164924                0.22329676               -0.06425140               -0.06369871                0.21252197               -0.00068321               -0.00319350               -0.00275615
               7.99537762                1.00752208               48.10154285                0.37639051               -0.06385548               -0.06358283                0.21206592               -0.00024432               -0.00294208               -0.00227542
               8.99474086                1.00831305               48.10144043                0.58424042               -0.06356060               -0.06345829                0.21162482               -0.00002865               -0.00212501               -0.00133585
               9.99410641                1.00910155               48.10135084                0.86199508               -0.06344472               -0.06337197                0.21125112                0.00021406               -0.00150149                0.00242688
              -0.00003067                2.00110840               48.10222202                0.48391426               -0.06439117               -0.06280945                0.21494225                0.00010115               -0.00009217               -0.00115857
               0.99932542                2.00171585               48.10215662                0.01000000               -0.04579639               -0.06602708                0.21454657                0.02205064                0.01818699                0.00199515
               1.99905340                2.00275815               48.10245587                0.01000001               -0.02805997               -0.02789493                0.21565713                0.09601416                0.04908536                0.05711643
               2.99876422                2.00395244               48.10301607                0.01000000               -0.05352306                0.00960415                0.21710499                0.12439155                0.04475526                0.11439729
               3.99798294                2.00495466               48.10324781                0.01000000               -0.09610732                0.04831607                0.21748755                0.09527668               -0.03915746                0.18784021
               4.99684207                2.00498231               48.10213931                0.01000001               -0.10602738                0.03866015                0.21385622                0.05923062               -0.08659645                0.21612891
               5.99586239                2.00531542               48.10143186                0.01142193               -0.08113684                0.05786797                0.21189478                0.09909496               -0.03743665                0.29641394
               6.99521934                2.00609782               48.10129985                0.01619217               -0.06398001               -0.00386616                0.21132258                0.09944331               -0.00831029                0.25465116
               7.99458279                2.00688832               48.10117515                0.01000000               -0.06345470                0.01161870                0.21077288                0.08556682               -0.00728570                0.28891633
               8.99395024                2.00768065               48.10106391                0.05602530               -0.06316246               -0.04021280                0.21029066                0.02560271               -0.00436453                0.04539521
               9.99331954                2.00846974               48.10099771                0.55972051               -0.06306975               -0.06343807                0.21003893                0.01337065               -0.00211663                0.04456579
              -0.00062047                3.00048304               48.10206894                0.50557963               -0.06429793               -0.06258645                0.21455323               -0.00019519               -0.00007049               -0.00088552
               0.99873655                3.00105364               48.10201663                0.01000001               -0.02044142               -0.06604404                0.21411105                0.04228699                0.05109778                0.00142443
               1.99897071                3.00247163               48.10298701                0.01000000                0.00898098               -0.05332083                0.21704963                0.12485869                0.10333516                0.05363737
               2.99891617                3.00390734               48.10400624                0.01000000               -0.00644671               -0.00506946                0.21984963                0.16485127                0.11997644                0.13184328
               3.99884177                3.00540128               48.10533024                0.01197371               -0.03901715                0.01008922                0.22325614                0.14634475                0.08729057                0.18901460
               4.99813583                3.00595573               48.10572229                0.01000000               -0.06563657                0.07945831                0.22387076                0.18190830                0.09213672                0.37155412
               5.99752904                3.00710816               48.10714934                0.01815574               -0.08509465                0.08112306                0.22743452                0.14817235                0.02164636                0.39702434
               6.99643394                3.00665545               48.10614827                0.01000001               -0.10114574                0.03988732                0.22436797                0.15219873               -0.02317284                0.45793419
               7.99550612                3.00775445               48.10666857                0.01316979               -0.13812241                0.09001802                0.22755907                0.18701781               -0.22463814                0.63899093
               8.99367149                3.00750880               48.10163653                0.01823641               -0.13552400                0.18398719                0.21579532                0.18762898               -0.25671582                1.18608761
               9.99279564                3.00783279               48.10147124                0.52988327               -0.08758449                0.16403122                0.21518654                0.20534766               -0.01410450                1.19845862
              -0.00117577                3.99985667               48.10191538                0.54404461               -0.06416509               -0.06275026                0.21416947               -0.00025527               -0.00005190               -0.00075586
               0.99818258                4.00039497               48.10187336                0.01000000               -0.00636748               -0.06562746                0.21365062                0.03779897                0.06867255                0.00101057
               1.99869688                4.00169173               48.10320535                0.01000000                0.04745073               -0.09632304                0.21739908                0.09711925                0.17420389               -0.02252817
               2.99913159                4.00385105               48.10530890                0.01197413                0.00822861               -0.03726969                0.22323562                0.14801651                0.17339767                0.09884498
               3.99886145                4.00515644               48.10665891                0.01000000               -0.01791133               -0.01464730                0.22656468                0.14395636                0.19174947                0.20532445
               4.99877336                4.00657147               48.10915171                0.01804883               -0.03676665                0.01040475                0.23280106                0.11113489                0.11066091                0.22276583
               5.99812612                4.00693788               48.10891150                0.01000001               -0.05781746               -0.02068097                0.23133816                0.04821746                0.03549750                0.24511465
               6.99761701                4.00689556               48.10991190                0.01183897               -0.03281538                0.05862555                0.23339208                0.16865816                0.21820578                0.53905951
               7.99746981                4.00868868               48.11334476                0.01035149                0.00037336                0.11227064                0.24120474                0.34842682                0.70174669                0.89479466
               8.99762448                4.01136039               48.12404913                0.07778718               -0.03456508                0.15402569                0.26098007                0.33048008                0.53511612                1.14859679
               9.99677851                4.01175036               48.12419816                0.56274798               -0.08459748                0.16400020                0.25937978                0.22070530                0.00730314                1.16167061
              -0.00170216                4.99922804               48.10176170                0.59625324               -0.06403653               -0.06298021                0.21379096               -0.00024969               -0.00003793               -0.00063296
               0.99765747                4.99974109               48.10172735                0.02223419               -0.04204130               -0.06513613                0.21316645                0.01442875                0.02645769                0.00066443
               1.99745701                5.00054517               48.10222264                0.01000001                0.03771604               -0.10649472                0.21360846                0.06216673                0.19925946               -0.06687712
               2.99841179                5.00316195               48.10566195                0.01000000                0.07717289               -0.06331380                0.22382765                0.18730331                0.34291692                0.10181445
               3.99900047                5.00510833               48.10908378                0.01804668                0.00826475               -0.03408870                0.23282140                0.11338369                0.20431040                0.12381767
               4.99857709                5.00616383               48.10979727                0.01000001               -0.04155848               -0.03923807                0.23372605                0.03340470                0.12311963                0.13648151
               5.99816930                5.00669454               48.11161355                0.01180672               -0.02603903                0.00239752                0.23743464                0.08063631                0.32654004                0.42146529
               6.99805631                5.00782797               48.11641838                0.01000000               -0.00797345                0.08621486                0.24797262                0.19683148                0.61397246                0.71069701
               7.99800983                5.00999986               48.12402342                0.07366440               -0.04184506                0.02650887                0.26348416                0.13768415                0.37918805                0.54604902
               8.99721941                5.01058931               48.12416648                0.15651138               -0.07900094               -0.07809953                0.26161855                0.00835340                0.00318958                0.01787236
               9.99642981                5.01111279               48.12425226                0.60671639               -0.07895939               -0.06938600                0.25977896                0.00835679                0.00033164                0.01639200
              -0.00220688                5.99859707               48.10160804                0.66418958               -0.06390974               -0.06320138                0.21341901               -0.00022643               -0.00002174               -0.00052609
               0.99715402                5.99909225               48.10157929                0.10871330               -0.06368821               -0.06463937                0.21266489               -0.00137968                0.00070086                0.00040551
               1.99651936                5.99956184               48.10156489                0.01142429                0.05802319               -0.08128413                0.21160703                0.10333655                0.27517026               -0.02527163
               2.99831449                6.00258477               48.10702654                0.01815797                0.08039450               -0.08369682                0.22735317                0.15450702                0.36083158                0.03344365
               3.99812725                6.00447467               48.10880406                0.01000001               -0.02296158               -0.05573502                0.23133757                0.05114385                0.22190447                0.04623614
               4.99785526                6.00578671               48.11151519                0.01180644               -0.00262723               -0.02044288                0.23749460                0.08228912                0.40192033                0.32900392
               5.99807470                6.00698583               48.11692128                0.01000000                0.01965301                0.02670611                0.24968311                0.15581281                0.60122236                0.60278578
               6.99824832                6.00861986               48.12367154                0.07365702               -0.03062771                0.00048977                0.26387362                0.09231564                0.33717307                0.37237056
               7.99746215                6.00921885               48.12385033                0.15629574               -0.07848486               -0.07839742                0.26214946                0.00265742                0.00551052                0.00047870
               8.99667862                6.00979840               48.12396827                0.26667565               -0.07817380               -0.07857731                0.26031157                0.00148784                0.00152216                0.00090124
               9.99589867                6.01036264               48.12406733                0.67063486               -0.07799470               -0.07582912                0.25847439                0.00149250                0.00059440                0.00329510
              -0.00269704                6.99796401               48.10145465                0.75102551               -0.06378480               -0.06339388                0.21305215               -0.00019224               -0.00000472               -0.00042449
               0.99666511                6.99844831               48.10142990                0.22336884               -0.06358693               -0.06416223                0.21214860               -0.00072139                0.00017404                0.00025044
               1.99603122                6.99891948               48.10140885                0.01619505               -0.00380026               -0.06389550                0.21096852                0.10359975                0.23206843                0.00007368
               2.99658910                7.00148801               48.10602201                0.01000001                0.03950930               -0.10095365                0.22418543                0.16024933                0.41371137               -0.01278492
               3.99682140                7.00399363               48.10968486                0.01183986                0.05613018               -0.02746110                0.23343001                0.17599558                0.49799371                0.21649142
               4.99771171                7.00575497               48.11602482                0.01000000                0.08155027                0.00060920                0.24822526                0.20138761                0.67378477                0.58521562
               5.99845241                7.00722866               48.12327891                0.07365829               -0.00210531               -0.02720707                0.26409950                0.09362493                0.36213110                0.32682418
               6.99766960                7.00783776               48.12347579                0.15633349               -0.07839857               -0.07837628                0.26241639                0.00155066                0.00651993               -0.00186789
               7.99688444                7.00843192               48.12361908                0.26678351               -0.07821121               -0.07837142                0.26060543                0.00064928                0.00305237               -0.00245282
               8.99610538                7.00901776               48.12374701                0.41946631               -0.07766271               -0.07775121                0.25878055                0.00030697                0.00143555               -0.00038573
               9.99533118                7.00959621               48.12385780                0.76066359               -0.07741926               -0.07665164                0.25694479                0.00047863                0.00060978                0.00195184
              -0.00317932                7.99732919               48.10130189                0.86126874               -0.06365604               -0.06354659                0.21269854               -0.00014471                0.00000618               -0.00030284
               0.99618412                7.99780900               48.10128011                0.37650714               -0.06345191               -0.06373767                0.21163222               -0.00025922               -0.00001186                0.00021330
               1.99555165                7.99828393               48.10125827                0.01000000                0.01305996               -0.06334139                0.21035737                0.08998747                0.26077569                0.00039424
               2.99644532                8.00056570               48.10645213                0.01317424                0.09142787               -0.13992134                0.22717722                0.19950505                0.57820669               -0.18574898
               3.99738020                8.00392545               48.11282148                0.01036028                0.11013303                0.01046389                0.24143114                0.36205831                0.81768740                0.64386624
               4.99864798                8.00579890               48.12288148                0.07366445                0.02421019               -0.03745640                0.26418059                0.14276080                0.50206595                0.35147911
               5.99786441                8.00644169               48.12309413                0.15628998               -0.07859558               -0.07860582                0.26260939                0.00285794                0.00651204               -0.00151541
               6.99707607                8.00705233               48.12324534                0.26677598               -0.07846379               -0.07827265                0.26083414                0.00068437                0.00296151               -0.00303800
               7.99629513                8.00765143               48.12338783                0.41955072               -0.07778053               -0.07777391                0.25902664                0.00023615                0.00215151               -0.00217824
               8.99552046                8.00824338               48.12352298                0.64058189               -0.07718926               -0.07718205                0.25720287                0.00006715                0.00115043               -0.00056726
               9.99475135                8.00882961               48.12364504                0.89345851               -0.07691154               -0.07648798                0.25536750                0.00027912                0.00054020                0.00177421
              -0.00365956                8.99669308               48.10115051                1.00000000               -0.06352574               -0.06362466                0.21236893               -0.00009321               -0.00001931               -0.00018284
               0.99570519                8.99717355               48.10113090                0.58443188               -0.06330863               -0.06341740                0.21113228               -0.00003080               -0.00016097                0.00018313
               1.99507427                8.99765266               48.10110893                0.05617055               -0.03837502               -0.06302422                0.20981463                0.02790633                0.04463865                0.00031292
               2.99493768                8.99868959               48.10198533                0.01857076                0.18775500               -0.13815701                0.21515968                0.20272844                1.06105308               -0.21987738
               3.99882937                9.00420291               48.12226113                0.07805067                0.15564963               -0.02883994                0.26216722                0.34717597                1.02420459                0.48217546
               4.99805068                9.00500584               48.12271970                0.15652380               -0.07866200               -0.07931975                0.26252932                0.00933049                0.01837577               -0.00008371
               5.99725613                9.00565654               48.12288605                0.26665667               -0.07885615               -0.07838074                0.26098867                0.00164770                0.00237974               -0.00166975
               6.99647355                9.00627231               48.12302665                0.41942838               -0.07790064               -0.07779738                0.25923272                0.00033328                0.00081014               -0.00155780
               7.99569812                9.00687644               48.12316208                0.64053944               -0.07725091               -0.07725619                0.25742812                0.00007095                0.00056535               -0.00122912
               8.99492854                9.00747412               48.12329759                0.98092599               -0.07669067               -0.07669229                0.25560502                0.00000723                0.00049521               -0.00052529
               9.99416430                9.00806645               48.12343090                0.99405053               -0.07642324               -0.07608944                0.25376848                0.00024533                0.00044415                0.00127638
              -0.00414213                9.99605670               48.10100040                1.00000000               -0.06339396               -0.06363820                0.21197859                0.00013838               -0.00023557               -0.00015492
               0.99522393                9.99654065               48.10098105                0.86210977               -0.06320656               -0.06329015                0.21070192                0.00021205               -0.00051492                0.00012935
               1.99459374                9.99702344               48.10095679                0.55984921               -0.06371482               -0.06292106                0.20951152                0.01504229                0.03753040                0.00016889
               2.99394964                9.99780256               48.10169866                0.53022018                0.17068643               -0.08870289                0.21448989                0.21745531                1.06208067               -0.01160444
               3.99800747               10.00334865               48.12217300                0.56301358                0.17156640               -0.08542624                0.26077639                0.23830717                1.02760957                0.00569249
               4.99738096               10.00421250               48.12254650                0.60673139               -0.06882880               -0.07933375                0.26089609                0.00930008                0.01189426               -0.00069710
               5.99663089               10.00487408               48.12269864                0.67062062               -0.07590605               -0.07824632                0.25935960                0.00167057               -0.00034216               -0.00065421
               6.99586284               10.00549639               48.12282591                0.76063079               -0.07680783               -0.07759203                0.25761101                0.00054005               -0.00174665               -0.00065337
               7.99509474               10.00610630               48.12294948                0.89341097               -0.07661259               -0.07701340                0.25581210                0.00031919               -0.00187325               -0.00054106
               8.99433059               10.00670953               48.12307359                0.99405205               -0.07615724               -0.07645891                0.25399323                0.00028135               -0.00133691               -0.00040151
               9.99357159               10.00730782               48.12320688                1.00000000               -0.07589991               -0.07586317                0.25215720                0.00055760               -0.00080439                0.00086120
               0.00132867                0.00252666               49.10468365                0.78855289               -0.06441395               -0.06440441                0.21553636               -0.00008519                0.00095924               -0.00091167
               1.00068453                0.00318044               49.10459357                0.52876574               -0.06369012               -0.06467589                0.21519720                0.00046839                0.00145063                0.00068695
               2.00005486                0.00385033               49.10451166                0.48404779               -0.06269780               -0.06437111                0.21489130                0.00012484                0.00171798               -0.00007919
               2.99943057                0.00455536               49.10442365                0.50568168               -0.06250423               -0.06430757                0.21460248               -0.00018776                0.00163320               -0.00015392
               3.99880478                0.00529680               49.10433618                0.54411267               -0.06271885               -0.06420332                0.21432037               -0.00025103                0.00190317               -0.00018067
               4.99817619                0.00606871               49.10425013                0.59628697               -0.06299975               -0.06410240                0.21403892               -0.00024567                0.00219469               -0.00019355
               5.99754478                0.00686342               49.10416576                0.66416710               -0.06326724               -0.06400190                0.21375799               -0.00022132                0.00248880               -0.00021395
               6.99691085                0.00767342               49.10408366                0.75092850               -0.06350144               -0.06390338                0.21348038               -0.00018530                0.00283266               -0.00028705
               7.99627476                0.00849168               49.10400499                0.86105476               -0.06369129               -0.06380012                0.21321274               -0.00013584                0.00329591               -0.00041659
               8.99563702                0.00931203               49.10393168                1.00000000               -0.06380213               -0.06369502                0.21296981               -0.00008183                0.00295719               -0.00062456
               9.99499871                0.01012992               49.10384639                1.00000000               -0.06383102               -0.06359011                0.21266515                0.00016327                0.00232885                0.00172170
               0.00067403                1.00188262               49.10452994                0.52876765               -0.06466534               -0.06366609                0.21514134                0.00046060               -0.00071832               -0.00110912
               1.00002738                1.00253368               49.10443940                0.01272440               -0.06526897               -0.06527875                0.21479714                0.00158902               -0.00150457                0.00154292
               1.99936865                1.00320661               49.10433220                0.01000000               -0.06609610               -0.04592907                0.21447006                0.02202640               -0.00247864                0.02293798
               2.99870546                1.00391229               49.10422317                0.01000001               -0.06615286               -0.02091311                0.21413294                0.04179267               -0.00278146                0.05809724
               3.99804560                1.00465476               49.10411215                0.01000000               -0.06575161               -0.00690077                0.21377046                0.03711447               -0.00305829                0.07657273
               4.99739042                1.00542768               49.10399997                0.02226616               -0.06526909               -0.04248620                0.21337789                0.01387412               -0.00325838                0.02620108
               5.99674021                1.00622340               49.10388717                0.10868012               -0.06477790               -0.06379395                0.21296054               -0.00147946               -0.00337891               -0.00310694
               6.99609487                1.00703439               49.10377447                0.22324067               -0.06430600               -0.06369952                0.21252562               -0.00076300               -0.00335376               -0.00290992
               7.99545409                1.00785368               49.10366361                0.37620733               -0.06388902               -0.06358492                0.21208717               -0.00027262               -0.00310149               -0.00240143
               8.99481709                1.00867508               49.10355687                0.58382767               -0.06358186               -0.06346752                0.21166437               -0.00003349               -0.00224355               -0.00140868
               9.99418246                1.00949402               49.10346368                0.86169405               -0.06346295               -0.06339173                0.21131672                0.00022262               -0.00158459                0.00255731
               0.00003574                2.00125334               49.10437064                0.48406305               -0.06434334               -0.06263823                0.21477602                0.00011528               -0.00010086               -0.00109929
               0.99939231                2.00187487               49.10430141                0.01000000               -0.04594770               -0.06610633                0.21440691                0.02208426                0.01894293                0.00198991
               1.99911679                2.00293174               49.10461209                0.01000001               -0.02870184               -0.02853096                0.21558327                0.09528722                0.05083115                0.05885572
               2.99881827                2.00413710               49.10518695                0.01000000               -0.05425597                0.00853748                0.21705990                0.12346623                0.04617035                0.11786138
               3.99803167                2.00515878               49.10542263                0.01000000               -0.09666183                0.04679578                0.21749459                0.09484145               -0.04038220                0.19333936
               4.99688504                2.00521898               49.10427735                0.01000001               -0.10615901                0.03712843                0.21363997                0.05948768               -0.08916980                0.22211152
               5.99590849                2.00558754               49.10355058                0.01142065               -0.08098623                0.05605033                0.21184295                0.09881689               -0.03856237                0.30445596
               6.99526531                2.00639943               49.10341287                0.01619065               -0.06399387               -0.00502586                0.21128200                0.09916740               -0.00874747                0.26152849
               7.99462861                2.00721998               49.10328275                0.01000000               -0.06346483                0.01060917                0.21074659                0.08538037               -0.00767874                0.29784305
               8.99399602                2.00804268               49.10316676                0.05603676               -0.06316620               -0.03955465                0.21027536                0.02645838               -0.00460232                0.04884313
               9.99336529                2.00886208               49.10309824                0.55974233               -0.06307268               -0.06351729                0.21006103                0.01385375               -0.00223099                0.04805427
              -0.00056672                3.00062985               49.10421386                0.50568957               -0.06426201               -0.06240895                0.21442705               -0.00020374               -0.00008307               -0.00079670
               0.99879066                3.00121156               49.10415724                0.01000001               -0.02105572               -0.06615945                0.21400682                0.04203416                0.05278744                0.00138498
               1.99901217                3.00263600               49.10515730                0.01000000                0.00785414               -0.05403319                0.21700582                0.12397054                0.10681555                0.05507007
               2.99894774                3.00408304               49.10620489                0.01000000               -0.00758128               -0.00607160                0.21986052                0.16398437                0.12379198                0.13565206
               3.99886054                3.00559068               49.10756316                0.01197372               -0.03981629                0.00895807                0.22330350                0.14589498                0.09009651                0.19454288
               4.99815142                3.00617025               49.10796151                0.01000000               -0.06622181                0.07743628                0.22396680                0.18138889                0.09498729                0.38209948
               5.99753610                3.00734441               49.10942425                0.01816068               -0.08528209                0.07877700                0.22755774                0.14807393                0.02261312                0.40800771
               6.99644578                3.00693387               49.10839245                0.01000001               -0.10088245                0.03786714                0.22446892                0.15219808               -0.02242384                0.47008134
               7.99551846                3.00806586               49.10894612                0.01322831               -0.13708114                0.08733412                0.22793213                0.18731870               -0.22828006                0.65552426
               8.99370415                3.00788399               49.10379697                0.01862111               -0.13488664                0.17734045                0.21632982                0.18597019               -0.26266321                1.21281386
               9.99282072                3.00822367               49.10362570                0.53021498               -0.08834306                0.15610847                0.21574368                0.20126846               -0.01454851                1.22439848
              -0.00113174                4.00000516               49.10405667                0.54412651               -0.06414069               -0.06259955                0.21408858               -0.00026894               -0.00006509               -0.00064403
               0.99822685                4.00055168               49.10400954                0.01000000               -0.00717679               -0.06574449                0.21358383                0.03749468                0.07081538                0.00092977
               1.99872472                4.00185108               49.10537950                0.01000000                0.04582120               -0.09689387                0.21738084                0.09687629                0.17973423               -0.02381682
               2.99914328                4.00401567               49.10754136                0.01197313                0.00688152               -0.03789367                0.22329214                0.14771137                0.17893451                0.10166697
               3.99886235                4.00533794               49.10892503                0.01000000               -0.01920952               -0.01556298                0.22666990                0.14367629                0.19756898                0.21115479
               4.99875909                4.00676771               49.11148049                0.01804940               -0.03780013                0.00914562                0.23297838                0.11117052                0.11416535                0.22896044
               5.99810635                4.00716308               49.11122538                0.01000001               -0.05856323               -0.02168919                0.23146283                0.04917916                0.03688773                0.25140696
               6.99758782                4.00715678               49.11224653                0.01185055               -0.03407388                0.05640366                0.23356923                0.16780333                0.22428137                0.55208466
               7.99742487                4.00896667               49.11575806                0.01039774               -0.00151046                0.10748250                0.24141038                0.34254900                0.71668922                0.91417605
               8.99755761                4.01158949               49.12665829                0.07806165               -0.03567927                0.14662336                0.26083038                0.32297183                0.54585752                1.17302563
               9.99671129                4.01198425               49.12679103                0.56298301               -0.08463241                0.15631832                0.25917403                0.21626568                0.00745327                1.18536940
              -0.00166514                4.99937786               49.10389940                0.59630532               -0.06402290               -0.06286534                0.21375277               -0.00026391               -0.00005089               -0.00050353
               0.99769463                4.99989667               49.10385883                0.02228395               -0.04245803               -0.06524134                0.21313133                0.01398558                0.02693206                0.00054534
               1.99748570                5.00069812               49.10435764                0.01000001                0.03602359               -0.10670435                0.21353428                0.06274453                0.20531671               -0.06952600
               2.99841511                5.00332516               49.10790065                0.01000000                0.07481604               -0.06363168                0.22391215                0.18735892                0.35360956                0.10470034
               3.99898202                5.00527942               49.11141282                0.01804828                0.00672909               -0.03480298                0.23300796                0.11369391                0.21054799                0.12733802
               4.99854969                5.00635317               49.11213520                0.01000001               -0.04257008               -0.03991298                0.23388722                0.03473546                0.12673345                0.14013332
               5.99813062                5.00691063               49.11398865                0.01181558               -0.02757139                0.00125766                0.23765124                0.08095030                0.33504168                0.43200931
               6.99799826                5.00806195               49.11889896                0.01000000               -0.00969500                0.08330346                0.24820824                0.19408220                0.62851149                0.72739152
               7.99793672                5.01021551               49.12665883                0.07369436               -0.04261296                0.02335758                0.26354604                0.13538214                0.38781353                0.55808385
               8.99714600                5.01081645               49.12678262                0.15656871               -0.07901085               -0.07821675                0.26159731                0.00857134                0.00314525                0.01918559
               9.99635651                5.01135004               49.12684961                0.60675866               -0.07894960               -0.06917170                0.25968712                0.00853284                0.00031895                0.01756348
              -0.00217463                5.99874785               49.10374221                0.66420664               -0.06390598               -0.06312393                0.21341914               -0.00023898               -0.00003514               -0.00038335
               0.99718631                5.99924685               49.10370587                0.10872698               -0.06371243               -0.06472436                0.21265426               -0.00156600                0.00052140                0.00025535
               1.99655112                5.99971699               49.10368057                0.01142497                0.05614217               -0.08118145                0.21153444                0.10353780                0.28329667               -0.02638379
               2.99830915                6.00274303               49.10930084                0.01816110                0.07785548               -0.08371920                0.22751553                0.15516632                0.37197590                0.03439800
               3.99810823                6.00464188               49.11111813                0.01000001               -0.02432810               -0.05619964                0.23149465                0.05252374                0.22829306                0.04765227
               4.99782259                6.00596945               49.11389115                0.01181628               -0.00458257               -0.02109452                0.23771733                0.08286270                0.41251371                0.33762590
               5.99801658                6.00718824               49.11941937                0.01000000                0.01709943                0.02539487                0.24993086                0.15400231                0.61599788                0.61760708
               6.99816458                6.00882284               49.12631094                0.07367987               -0.03192849               -0.00108561                0.26398297                0.09105659                0.34520560                0.38118983
               7.99737801                6.00943382               49.12647212                0.15633007               -0.07850319               -0.07844178                0.26218548                0.00270397                0.00555117                0.00063693
               8.99659451                6.01002515               49.12657128                0.26672779               -0.07816161               -0.07859322                0.26027218                0.00152753                0.00151641                0.00109097
               9.99581478                6.01060082               49.12665158                0.67066619               -0.07797387               -0.07575593                0.25836183                0.00152631                0.00059853                0.00348501
              -0.00266791                6.99811538               49.10358533                0.75097892               -0.06379109               -0.06335388                0.21308986               -0.00020140               -0.00002148               -0.00026795
               0.99669418                6.99860218               49.10355143                0.22330727               -0.06359047               -0.06422313                0.21215963               -0.00080887                0.00000994                0.00008271
               1.99606028                6.99907449               49.10351829                0.01619376               -0.00503171               -0.06391123                0.21092676                0.10380434                0.23902546               -0.00037719
               2.99659354                7.00165078               49.10826471                0.01000001                0.03729027               -0.10067875                0.22433354                0.16122314                0.42609625               -0.01213951
               3.99680608                7.00415543               49.11202037                0.01185496                0.05335242               -0.02799087                0.23366289                0.17615808                0.51129740                0.22270049
               4.99766059                7.00593128               49.11850864                0.01000000                0.07755961                0.00024273                0.24848036                0.19909320                0.69064510                0.59994973
               5.99835727                7.00741852               49.12592064                0.07367887               -0.00433889               -0.02785824                0.26424848                0.09245356                0.37101322                0.33488497
               6.99757381                7.00804023               49.12610037                0.15636404               -0.07843909               -0.07841158                0.26249076                0.00157677                0.00659622               -0.00177960
               7.99678849                7.00864668               49.12622522                0.26683269               -0.07821315               -0.07837976                0.26060441                0.00066660                0.00306261               -0.00240727
               8.99600955                7.00924459               49.12633449                0.41954293               -0.07763971               -0.07773371                0.25870271                0.00031379                0.00143849               -0.00033312
               9.99523570                7.00983492               49.12642653                0.76071146               -0.07738502               -0.07659777                0.25679233                0.00048907                0.00061373                0.00200571
              -0.00315226                7.99748078               49.10342924                0.86113550               -0.06367185               -0.06354210                0.21277362               -0.00014915               -0.00001739               -0.00012639
               0.99621103                7.99796239               49.10339659                0.37632484               -0.06345678               -0.06377615                0.21166313               -0.00029043               -0.00014471                0.00004767
               1.99557861                7.99843877               49.10336171                0.01000000                0.01208246               -0.06335108                0.21032260                0.09031242                0.26972229               -0.00001418
               2.99645267                8.00072946               49.10872625                0.01323140                0.08861428               -0.13908842                0.22759627                0.20143691                0.59514985               -0.18961470
               3.99735089                8.00408207               49.11523760                0.01040385                0.10443415                0.01005642                0.24173358                0.35761002                0.83774242                0.65937060
               4.99854136                8.00597431               49.12552423                0.07369342                0.02028985               -0.03753340                0.26433461                0.14097576                0.51443912                0.36021569
               5.99775669                8.00663107               49.12572081                0.15632251               -0.07866992               -0.07863908                0.26270805                0.00293025                0.00665694               -0.00144797
               6.99696796                8.00725461               49.12585388                0.26682129               -0.07848538               -0.07828309                0.26086500                0.00070657                0.00299432               -0.00301199
               7.99618698                8.00786622               49.12597793                0.41962870               -0.07777054               -0.07776272                0.25898167                0.00024269                0.00216705               -0.00215422
               8.99541255                8.00847048               49.12609446                0.64072352               -0.07715436               -0.07714735                0.25708367                0.00006822                0.00115628               -0.00054374
               9.99464390                8.00906886               49.12619777                0.89355353               -0.07686521               -0.07642774                0.25517396                0.00028547                0.00054397                0.00179686
              -0.00363412                8.99684454               49.10327475                1.00000000               -0.06355010               -0.06364912                0.21248220               -0.00009186               -0.00005350               -0.00002713
               0.99573038                8.99732666               49.10324248                0.58401246               -0.06332101               -0.06344274                0.21118321               -0.00003539               -0.00023785                0.00006005
               1.99509946                8.99780747               49.10320701                0.05618818               -0.03756972               -0.06302699                0.20979507                0.02903990                0.04799330                0.00006483
               2.99497898                8.99886901               49.10413935                0.01896084                0.18069905               -0.13775236                0.21565152                0.20325308                1.08865788               -0.22594003
               3.99871344                9.00435656               49.12488307                0.07833082                0.14760596               -0.02903124                0.26218044                0.34145497                1.04968392                0.49330650
               4.99793110                9.00518061               49.12534564                0.15658109               -0.07889324               -0.07937106                0.26263745                0.00969856                0.01965313               -0.00011045
               5.99713557                9.00584574               49.12549630                0.26670314               -0.07891532               -0.07839724                0.26104628                0.00170911                0.00255983               -0.00166595
               6.99635279                9.00647457               49.12561895                0.41950077               -0.07790459               -0.07779284                0.25921721                0.00034329                0.00085922               -0.00154473
               7.99557748                9.00709142               49.12573596                0.64067116               -0.07722613               -0.07723073                0.25734117                0.00007282                0.00058649               -0.00121776
               8.99480827                9.00770164               49.12585285                0.98121510               -0.07664212               -0.07664385                0.25544179                0.00000660                0.00050299               -0.00051592
               9.99404464                9.00830636               49.12596740                0.99428294               -0.07636328               -0.07601681                0.25352956                0.00025155                0.00044687                0.00128295
              -0.00411833                9.99620779               49.10312090                1.00000000               -0.06342809               -0.06367472                0.21212511                0.00015378               -0.00014394               -0.00003289
               0.99524739                9.99669354               49.10308848                0.86181744               -0.06323095               -0.06331229                0.21078195                0.00022337               -0.00037831                0.00004302
               1.99461705                9.99717823               49.10305205                0.55987217               -0.06393726               -0.06292386                0.20953520                0.01580362                0.04093308                0.00005024
               2.99396865                9.99797441               49.10384613                0.53055900                0.16256714               -0.08945982                0.21501126                0.21512727                1.08901004               -0.01203657
               3.99786840               10.00350144               49.12478085                0.56325744                0.16387482               -0.08551143                0.26075894                0.23611955                1.05249315                0.00584669
               4.99724614               10.00438688               49.12515588                0.60677344               -0.06857437               -0.07937230                0.26096272                0.00958854                0.01303424               -0.00070157
               5.99649691               10.00506313               49.12529237                0.67064773               -0.07584999               -0.07826150                0.25937412                0.00172727               -0.00015238               -0.00064665
               6.99572914               10.00569876               49.12540176                0.76067599               -0.07677703               -0.07758151                0.25755085                0.00055896               -0.00168412               -0.00064522
               7.99496137               10.00632161               49.12550697                0.89350167               -0.07657023               -0.07698166                0.25568175                0.00033109               -0.00184115               -0.00053455
               8.99419774               10.00693760               49.12561250                0.99428118               -0.07609433               -0.07640403                0.25378618                0.00029281               -0.00132249               -0.00039715
               9.99343948               10.00754853               49.12572703                1.00000000               -0.07582568               -0.07578370                0.25187416                0.00057695               -0.00079902                0.00086156
               0.00143006                0.00267325               50.10683779                0.78873011               -0.06432838               -0.06431933                0.21528317               -0.00007301                0.00096361               -0.00090653
               1.00078677                0.00334347               50.10674447                0.52902744               -0.06356153               -0.06462747                0.21497659                0.00050630                0.00147889                0.00068609
               2.00015883                0.00403106               50.10665969                0.48419813               -0.06251040               -0.06431965                0.21470945                0.00014074                0.00178973               -0.00008849
               2.99953657                0.00475660               50.10656898                0.50579269               -0.06231213               -0.06426905                0.21446383               -0.00019697                0.00173980               -0.00016666
               3.99891258                0.00552170               50.10647890                0.54420841               -0.06255652               -0.06417364                0.21422322               -0.00026579                0.00203459               -0.00019407
               4.99828544                0.00632017               50.10639025                0.59634759               -0.06287726               -0.06408366                0.21398606               -0.00025969                0.00234161               -0.00020690
               5.99765504                0.00714379               50.10630329                0.66419083               -0.06318633               -0.06399456                0.21374791               -0.00023338                0.00264495               -0.00022782
               6.99702171                0.00798443               50.10621858                0.75088395               -0.06345956               -0.06390654                0.21350795               -0.00019437                0.00299675               -0.00030431
               7.99638585                0.00883441               50.10613740                0.86091685               -0.06368385               -0.06381231                0.21327399               -0.00014054                0.00347690               -0.00044015
               8.99574803                0.00968694               50.10606183                1.00000000               -0.06382133               -0.06371445                0.21306329               -0.00008094                0.00311731               -0.00066035
               9.99510942                0.01053703               50.10597364                1.00000000               -0.06386105               -0.06361802                0.21278713                0.00017676                0.00245518                0.00181627
               0.00075911                1.00203006               50.10668030                0.52902733               -0.06461721               -0.06353788                0.21492384                0.00049917               -0.00071800               -0.00108212
               1.00011294                1.00269720               50.10658648                0.01267751               -0.06527174               -0.06528322                0.21461143                0.00169271               -0.00149245                0.00154921
               1.99945367                1.00338786               50.10647618                0.01000000               -0.06618309               -0.04604463                0.21432072                0.02211824               -0.00247174                0.02370785
               2.99878927                1.00411391               50.10636394                0.01000001               -0.06627669               -0.02143295                0.21402248                0.04163085               -0.00280821                0.05979106
               3.99812814                1.00487996               50.10624947                0.01000000               -0.06587411               -0.00756327                0.21369370                0.03688709               -0.00312864                0.07871736
               4.99747179                1.00567933               50.10613353                0.02231184               -0.06537824               -0.04285855                0.21333444                0.01345893               -0.00337215                0.02657560
               5.99682058                1.00650385               50.10601671                0.10869184               -0.06486678               -0.06381632                0.21294629               -0.00166922               -0.00353003               -0.00329189
               6.99617446                1.00734536               50.10589976                0.22317805               -0.06436940               -0.06370146                0.21253366               -0.00085306               -0.00352960               -0.00308014
               7.99553319                1.00819628               50.10578459                0.37602112               -0.06392729               -0.06358723                0.21211172               -0.00030432               -0.00327937               -0.00253814
               8.99489591                1.00904980               50.10567371                0.58339044               -0.06360435               -0.06347625                0.21170366               -0.00003779               -0.00237637               -0.00148910
               9.99426110                1.00990085               50.10557717                0.86138777               -0.06348112               -0.06341116                0.21138064                0.00023283               -0.00167770                0.00269981
               0.00010577                2.00140250               50.10651754                0.48420601               -0.06429356               -0.06244931                0.21460182                0.00013107               -0.00011062               -0.00102994
               0.99946283                2.00203781               50.10644476                0.01000000               -0.04606399               -0.06619905                0.21426151                0.02217936                0.01971886                0.00198785
               1.99918449                2.00311016               50.10676754                0.01000001               -0.02928753               -0.02911235                0.21549865                0.09479089                0.05259796                0.06061486
               2.99887708                2.00432794               50.10735727                0.01000000               -0.05497936                0.00760373                0.21700162                0.12285742                0.04761572                0.12135811
               3.99808490                2.00537043               50.10759770                0.01000000               -0.09731743                0.04548880                0.21744228                0.09470016               -0.04175153                0.19887775
               4.99693073                2.00546300               50.10641211                0.01000001               -0.10646380                0.03576250                0.21363373                0.05998649               -0.09183078                0.22818114
               5.99595562                2.00586746               50.10566872                0.01142435               -0.08092611                0.05448308                0.21179842                0.09885946               -0.03959737                0.31257095
               6.99531221                2.00671040               50.10552549                0.01618896               -0.06401468               -0.00609722                0.21125047                0.09921658               -0.00922062                0.26846881
               7.99467533                2.00756266               50.10539008                0.01000000               -0.06347492                0.00966702                0.21071156                0.08549195               -0.00811115                0.30696758
               8.99404271                2.00841742               50.10526941                0.05605269               -0.06316790               -0.03881284                0.21025235                0.02744418               -0.00486734                0.05260564
               9.99341197                2.00926881               50.10519893                0.55976521               -0.06307391               -0.06364400                0.21007700                0.01444490               -0.00235900                0.05187272
              -0.00050889                3.00078108               50.10635748                0.50580733               -0.06422477               -0.06221249                0.21429586               -0.00021421               -0.00009627               -0.00068971
               0.99884886                3.00137322               50.10629677                0.01000001               -0.02158704               -0.06629190                0.21389893                0.04188815                0.05449420                0.00135048
               1.99905936                3.00280561               50.10732713                0.01000000                0.00686475               -0.05475509                0.21694723                0.12340094                0.11033056                0.05648102
               2.99898615                3.00426598               50.10840345                0.01000000               -0.00861413               -0.00696529                0.21984105                0.16358983                0.12763723                0.13951462
               3.99888708                3.00578974               50.10979631                0.01197287               -0.04058308                0.00797237                0.22334676                0.14587009                0.09295622                0.20012990
               4.99817449                3.00639458               50.11020162                0.01000000               -0.06683602                0.07570010                0.22401582                0.18146802                0.09790395                0.39291591
               5.99755036                3.00759351               50.11170049                0.01816366               -0.08554505                0.07670803                0.22767093                0.14855193                0.02359567                0.41913159
               6.99646359                3.00722342               50.11063765                0.01000001               -0.10071756                0.03601752                0.22456177                0.15269324               -0.02157844                0.48240068
               7.99553601                3.00838963               50.11122721                0.01328802               -0.13624697                0.08484142                0.22831522                0.18833118               -0.23173277                0.67224995
               8.99373865                3.00827354               50.10596313                0.01902017               -0.13443969                0.17089199                0.21690109                0.18521519               -0.26853009                1.23952688
               9.99284722                3.00862797               50.10578612                0.53056115               -0.08914343                0.14825121                0.21633599                0.19794970               -0.01499183                1.25025733
              -0.00108280                4.00015825               50.10619715                0.54421941               -0.06411401               -0.06243224                0.21400272               -0.00028489               -0.00007977               -0.00051002
               0.99827606                4.00071197               50.10614504                0.01000000               -0.00787265               -0.06587716                0.21351213                0.03729167                0.07294943                0.00085079
               1.99875974                4.00201506               50.10755297                0.01000000                0.04443471               -0.09760197                0.21732636                0.09694129                0.18533886               -0.02510284
               2.99916475                4.00418863               50.10977474                0.01197516                0.00569774               -0.03847533                0.22331861                0.14787336                0.18457506                0.10452415
               3.99887370                4.00552988               50.11119230                0.01000000               -0.02042138               -0.01638700                0.22674275                0.14390843                0.20346005                0.21708114
               4.99875632                4.00697700               50.11381128                0.01805185               -0.03879372                0.00806228                0.23313501                0.11165931                0.11771670                0.23523704
               5.99809782                4.00740163               50.11354076                0.01000001               -0.05931835               -0.02263901                0.23161158                0.05048805                0.03831549                0.25782666
               6.99756996                4.00743075               50.11458328                0.01186401               -0.03529954                0.05439830                0.23378872                0.16753170                0.23040115                0.56530013
               7.99739183                4.00925949               50.11817297                0.01044280               -0.00306434                0.10289278                0.24160537                0.33754697                0.73149672                0.93351583
               8.99750867                4.01183526               50.12926574                0.07834511               -0.03648641                0.13932455                0.26063562                0.31636071                0.55645757                1.19720122
               9.99666210                4.01223383               50.12938164                0.56322976               -0.08465643                0.14877690                0.25892884                0.21260644                0.00760186                1.20875329
              -0.00162204                4.99953243               50.10603675                0.59636753               -0.06400821               -0.06273871                0.21371474               -0.00027979               -0.00006582               -0.00035341
               0.99773788                5.00005568               50.10598998                0.02234041               -0.04282141               -0.06536074                0.21309486                0.01355881                0.02745543                0.00042045
               1.99752153                5.00085357               50.10649333                0.01000001                0.03454617               -0.10707739                0.21352345                0.06356854                0.21142987               -0.07224403
               2.99842880                5.00349647               50.11014019                0.01000000                0.07276752               -0.06399810                0.22394590                0.18800638                0.36439592                0.10761581
               3.99897688                5.00546200               50.11374394                0.01805123                0.00535663               -0.03548563                0.23315286                0.11442269                0.21686814                0.13089696
               4.99853593                5.00655583               50.11447502                0.01000001               -0.04352550               -0.04056038                0.23403812                0.03633447                0.13042872                0.14383931
               5.99810637                5.00714073               50.11636658                0.01182639               -0.02897876                0.00021801                0.23785306                0.08163007                0.34365764                0.44264896
               6.99795636                5.00831139               50.12138255                0.01000000               -0.01119635                0.08057469                0.24860452                0.19182377                0.64305857                0.74416824
               7.99788244                5.01044748               50.12929434                0.07372123               -0.04324164                0.02028563                0.26357298                0.13348217                0.39633679                0.57009044
               8.99709153                5.01106003               50.12939842                0.15663248               -0.07901247               -0.07834528                0.26154210                0.00884237                0.00311169                0.02059905
               9.99630220                5.01160351               50.12944600                0.60680312               -0.07893300               -0.06892026                0.25956719                0.00874469                0.00030994                0.01882347
              -0.00213489                5.99890347               50.10587643                0.66422962               -0.06390222               -0.06304026                0.21342423               -0.00025299               -0.00005046               -0.00022194
               0.99722609                5.99940476               50.10583237                0.10873656               -0.06373982               -0.06482173                0.21264556               -0.00177440                0.00031676                0.00009263
               1.99659032                5.99987351               50.10579558                0.01142435                0.05451812               -0.08113837                0.21148564                0.10404133                0.29152247               -0.02760306
               2.99831645                6.00290867               50.11157685                0.01816604                0.07562406               -0.08383309                0.22766079                0.15634003                0.38329347                0.03535816
               3.99810280                6.00482017               50.11343395                0.01000001               -0.02560843               -0.05669130                0.23164102                0.05418340                0.23477868                0.04910261
               4.99780428                6.00616579               50.11626954                0.01182685               -0.00639650               -0.02174708                0.23791573                0.08371123                0.42319080                0.34629787
               5.99797487                6.00740599               50.12191990                0.01000000                0.01476970                0.02420962                0.25021664                0.15255093                0.63075406                0.63239890
               6.99809968                6.00904224               50.12895120                0.07370344               -0.03310177               -0.00260773                0.26405703                0.08999036                0.35319582                0.38993000
               7.99731283                6.00966520               50.12909404                0.15636692               -0.07850943               -0.07847598                0.26218130                0.00276174                0.00559132                0.00082113
               8.99652949                6.01026835               50.12917372                0.26678238               -0.07813938               -0.07860542                0.26020107                0.00157649                0.00151083                0.00129316
               9.99575004                6.01085543               50.12923457                0.67069671               -0.07794450               -0.07566863                0.25822472                0.00156639                0.00060199                0.00368262
              -0.00262967                6.99827163               50.10571644                0.75093425               -0.06379833               -0.06331168                0.21313565               -0.00021198               -0.00004004               -0.00009495
               0.99673235                6.99875924               50.10567310                0.22325132               -0.06359431               -0.06429283                0.21217391               -0.00090741               -0.00016584               -0.00010342
               1.99609845                6.99923081               50.10562738                0.01619271               -0.00617011               -0.06392958                0.21087573                0.10433412                0.24606650               -0.00087231
               2.99660895                7.00181981               50.11050868                0.01000001                0.03524902               -0.10049522                0.22445967                0.16266723                0.43864427               -0.01140960
               3.99680343                7.00432817               50.11435811                0.01186707                0.05076971               -0.02850038                0.23382787                0.17676773                0.52467833                0.22892994
               4.99762434                7.00612089               50.12099443                0.01000000                0.07387558                0.00002067                0.24891711                0.19730079                0.70765663                0.61474067
               5.99828094                7.00762492               50.12856388                0.07370409               -0.00636970               -0.02844584                0.26435734                0.09156852                0.37989776                0.34290417
               6.99749695                7.00825923               50.12872561                0.15640070               -0.07846821               -0.07843651                0.26252862                0.00161010                0.00665835               -0.00168403
               7.99671157                7.00887796               50.12883117                0.26688436               -0.07820569               -0.07838015                0.26057173                0.00068760                0.00306628               -0.00235706
               8.99593283                7.00948792               50.12892106                0.41962308               -0.07761008               -0.07771046                0.25860342                0.00032166                0.00144120               -0.00027617
               9.99515937                7.01009014               50.12899365                0.76076687               -0.07734609               -0.07653759                0.25662605                0.00049924                0.00061754                0.00206264
              -0.00311436                7.99763724               50.10555737                0.86099851               -0.06368810               -0.06353761                0.21285557               -0.00015459               -0.00004344                0.00006578
               0.99624876                7.99811890               50.10551337                0.37612889               -0.06346076               -0.06381880                0.21169442               -0.00032480               -0.00029321               -0.00013900
               1.99561643                7.99859492               50.10546472                0.01000000                0.01118342               -0.06335996                0.21027900                0.09093441                0.27888234               -0.00047483
               2.99647243                8.00089876               50.11100405                0.01329053                0.08603246               -0.13844519                0.22799665                0.20405386                0.61231372               -0.19331433
               3.99733708                8.00425016               50.11765616                0.01045143                0.09905614                0.00988069                0.24202275                0.35403860                0.85778245                0.67479639
               4.99845355                8.00616621               50.12816817                0.07372119                0.01654078               -0.03744537                0.26445372                0.13965368                0.52680225                0.36893674
               5.99766789                8.00683707               50.12834829                0.15635670               -0.07873574               -0.07866286                0.26277385                0.00301932                0.00682205               -0.00139389
               6.99687884                8.00747351               50.12846264                0.26687325               -0.07849998               -0.07828468                0.26086696                0.00073353                0.00302941               -0.00299030
               7.99609789                8.00809760               50.12856746                0.41970968               -0.07775453               -0.07774571                0.25891616                0.00025013                0.00217853               -0.00212783
               8.99532375                8.00871414               50.12866465                0.64087335               -0.07711451               -0.07710793                0.25694779                0.00006964                0.00116238               -0.00051923
               9.99455560                8.00932467               50.12874852                0.89365136               -0.07681452               -0.07636395                0.25496954                0.00029145                0.00054827                0.00181916
              -0.00359608                8.99700087               50.10540016                1.00000000               -0.06357483               -0.06367483                0.21260170               -0.00009075               -0.00009137                0.00014275
               0.99576817                8.99748286               50.10535456                0.58357193               -0.06333243               -0.06346888                0.21123235               -0.00004063               -0.00032344               -0.00007828
               1.99513727                8.99796361               50.10530483                0.05620459               -0.03666926               -0.06302764                0.20976541                0.03031831                0.05163606               -0.00020984
               2.99503478                8.99905091               50.10629836                0.01936619                0.17397434               -0.13752497                0.21618240                0.20453935                1.11636323               -0.23195474
               3.99861676                9.00452579               50.12750474                0.07861805                0.13978607               -0.02900714                0.26213412                0.33657889                1.07503941                0.50431515
               4.99783051                9.00537198               50.12797245                0.15664481               -0.07913707               -0.07941053                0.26270241                0.01012266                0.02103732               -0.00013467
               5.99703402                9.00605166               50.12810697                0.26675608               -0.07897107               -0.07840289                0.26106988                0.00178175                0.00275540               -0.00165943
               6.99625108                9.00669354               50.12821100                0.41957739               -0.07790330               -0.07778195                0.25918109                0.00035560                0.00091175               -0.00153487
               7.99547595                9.00732305               50.12830890                0.64081776               -0.07719663               -0.07720029                0.25723692                0.00007516                0.00060748               -0.00120402
               8.99470715                9.00794576               50.12840642                0.98150550               -0.07659072               -0.07659260                0.25526930                0.00000720                0.00050882               -0.00050623
               9.99394413                9.00856286               50.12850149                0.99452495               -0.07630173               -0.07594351                0.25328898                0.00025707                0.00044834                0.00128833
              -0.00408015                9.99636374               50.10524291                1.00000000               -0.06346296               -0.06371304                0.21227830                0.00017070               -0.00004305                0.00010118
               0.99528522                9.99684952               50.10519669                0.86150743               -0.06325475               -0.06333416                0.21086012                0.00023590               -0.00022723               -0.00005308
               1.99465475                9.99733437               50.10514750                0.55989760               -0.06420896               -0.06292372                0.20954883                0.01668519                0.04464111               -0.00008109
               2.99400104                9.99814827               50.10599888                0.53090986                0.15464163               -0.09026425                0.21556687                0.21340762                1.11597774               -0.01248156
               3.99774758               10.00367002               50.12738818                0.56350452                0.15645467               -0.08557686                0.26069226                0.23456916                1.07720292                0.00599575
               4.99713013               10.00457800               50.12776575                0.60681690               -0.06828075               -0.07939836                0.26099195                0.00991205                0.01427037               -0.00070590
               5.99638197               10.00526901               50.12788612                0.67067798               -0.07577824               -0.07826514                0.25935974                0.00178930                0.00004998               -0.00063787
               6.99561457               10.00591788               50.12797693                0.76072420               -0.07673993               -0.07756623                0.25747687                0.00057728               -0.00161803               -0.00063836
               7.99484717               10.00655360               50.12806312                0.89359620               -0.07652418               -0.07694516                0.25553958                0.00034273               -0.00180756               -0.00052678
               8.99408408               10.00718229               50.12814932                0.99452515               -0.07603059               -0.07634745                0.25357711                0.00030340               -0.00130995               -0.00039267
               9.99332656               10.00780580               50.12824436                1.00000000               -0.07575239               -0.07570525                0.25159731                0.00059378               -0.00079494                0.00086105
               0.00153457                0.00282350               51.10898931                0.78891035               -0.06423726               -0.06422815                0.21501452               -0.00005993                0.00096777               -0.00090016
               1.00089220                0.00351015               51.10889310                0.52929454               -0.06342112               -0.06457739                0.21474388                0.00054919                0.00151121                0.00068550
               2.00026615                0.00421558               51.10880585                0.48435720               -0.06230186               -0.06426562                0.21451725                0.00015873                0.00187533               -0.00009835
               2.99964616                0.00496211               51.10871293                0.50591466               -0.06209753               -0.06422963                0.21431836               -0.00020691                0.00186395               -0.00018069
               3.99902420                0.00575177               51.10862064                0.54429382               -0.06237620               -0.06414615                0.21412691               -0.00028211                0.00218499               -0.00020837
               4.99839864                0.00657801               51.10852985                0.59640851               -0.06274208               -0.06406760                0.21393814               -0.00027627                0.00251191               -0.00022131
               5.99776936                0.00743202               51.10844072                0.66420553               -0.06309815               -0.06398892                0.21374500               -0.00024782                0.00282506               -0.00024289
               6.99713667                0.00830499               51.10835382                0.75084310               -0.06341570               -0.06391125                0.21354638               -0.00020501                0.00318263               -0.00032276
               7.99650104                0.00918849               51.10827047                0.86077716               -0.06367742               -0.06382538                0.21334606               -0.00014579                0.00367338               -0.00046605
               8.99586313                0.01007506               51.10819295                1.00000000               -0.06384228               -0.06373432                0.21316223               -0.00007996                0.00328752               -0.00070000
               9.99522420                0.01095918               51.10810213                1.00000000               -0.06389287               -0.06364618                0.21291162                0.00019150                0.00259156                0.00191917
               0.00084732                1.00218122               51.10882842                0.52930413               -0.06456702               -0.06339699                0.21469190                0.00054191               -0.00071778               -0.00104724
               1.00020165                1.00286438               51.10873163                0.01262863               -0.06527824               -0.06529123                0.21441505                0.00180976               -0.00147781                0.00156062
               1.99954176                1.00357293               51.10861862                0.01000000               -0.06628258               -0.04612439                0.21416378                0.02227629               -0.00245716                0.02449006
               2.99887600                1.00431982               51.10850362                0.01000001               -0.06641641               -0.02186832                0.21390660                0.04158207               -0.00283073                0.06149338
               3.99821343                1.00511031               51.10838603                0.01000000               -0.06601266               -0.00811363                0.21361755                0.03675582               -0.00320060                0.08082332
               4.99755575                1.00593734               51.10826666                0.02238032               -0.06550186               -0.04317481                0.21329370                0.01302995               -0.00348906                0.02712291
               5.99690339                1.00679214               51.10814610                0.10871193               -0.06496774               -0.06384240                0.21293508               -0.00188267               -0.00368773               -0.00348433
               6.99625639                1.00766587               51.10802514                0.22312355               -0.06444211               -0.06370355                0.21254642               -0.00095170               -0.00371740               -0.00325794
               7.99561455                1.00855024               51.10790584                0.37581856               -0.06397061               -0.06358885                0.21213989               -0.00033657               -0.00347650               -0.00269252
               8.99497698                1.00943772               51.10779094                0.58293278               -0.06362809               -0.06348396                0.21174126               -0.00004125               -0.00252587               -0.00157565
               9.99434199                1.01032272               51.10769129                0.86106837               -0.06349923               -0.06342953                0.21144014                0.00024429               -0.00178030                0.00285979
               0.00017909                2.00155556               51.10866268                0.48436493               -0.06424032               -0.06223893                0.21441431                0.00014885               -0.00012187               -0.00094673
               0.99953669                2.00220433               51.10858664                0.01000000               -0.04614277               -0.06630478                0.21410566                0.02233879                0.02050610                0.00199132
               1.99925624                2.00329310               51.10892206                0.01000001               -0.02981337               -0.02963724                0.21539947                0.09453787                0.05438078                0.06238505
               2.99894042                2.00452475               51.10952698                0.01000000               -0.05572205                0.00680207                0.21692333                0.12258499                0.04901627                0.12487088
               3.99814180                2.00558950               51.10977148                0.01000000               -0.09815074                0.04441850                0.21737234                0.09489162               -0.04300905                0.20447441
               4.99697741                2.00571452               51.10855002                0.01000001               -0.10693159                0.03460349                0.21360490                0.06076259               -0.09452541                0.23424616
               5.99600316                2.00615518               51.10778654                0.01142238               -0.08089340                0.05314335                0.21173523                0.09925015               -0.04085312                0.32074407
               6.99535954                2.00703092               51.10763788                0.01618893               -0.06403475               -0.00708904                0.21120076                0.09963164               -0.00974688                0.27546765
               7.99472247                2.00791671               51.10749698                0.01000000               -0.06348623                0.00888694                0.21067150                0.08591187               -0.00859226                0.31632188
               8.99408981                2.00880538               51.10737181                0.05606850               -0.06316999               -0.03797590                0.21022650                0.02857741               -0.00515274                0.05668892
               9.99345907                2.00969059               51.10729978                0.55979016               -0.06307449               -0.06383045                0.21008961                0.01516720               -0.00249781                0.05602559
              -0.00044723                3.00093644               51.10849978                0.50592177               -0.06418701               -0.06199400                0.21415954               -0.00022614               -0.00011144               -0.00056765
               0.99891090                3.00153829               51.10843522                0.01000001               -0.02203351               -0.06644225                0.21378727                0.04185356                0.05620717                0.00131515
               1.99911210                3.00298018               51.10949625                0.01000000                0.00602012               -0.05551383                0.21686788                0.12315693                0.11386505                0.05788666
               2.99903130                3.00445586               51.11060171                0.01000000               -0.00953018               -0.00776665                0.21980084                0.16367581                0.13153045                0.14337213
               3.99892149                3.00599868               51.11203010                0.01197391               -0.04129907                0.00712208                0.22335557                0.14633822                0.09582396                0.20579738
               4.99820532                3.00662941               51.11244183                0.01000000               -0.06747494                0.07422703                0.22403150                0.18219428                0.10082373                0.40365723
               5.99757199                3.00785500               51.11397767                0.01816907               -0.08589146                0.07491788                0.22778129                0.14960892                0.02459983                0.43038074
               6.99648749                3.00752409               51.11288369                0.01000001               -0.10068358                0.03434806                0.22466426                0.15385341               -0.02056995                0.49486170
               7.99555832                3.00872798               51.11351243                0.01335217               -0.13564203                0.08265696                0.22867938                0.19019936               -0.23494240                0.68913639
               8.99377465                3.00867820               51.10813499                0.01943617               -0.13417092                0.16464169                0.21750097                0.18532069               -0.27433086                1.26621444
               9.99287490                3.00904611               51.10795242                0.53091939               -0.08997434                0.14044203                0.21695397                0.19541441               -0.01544369                1.27601738
              -0.00102911                4.00031568               51.10833673                0.54431199               -0.06408649               -0.06224620                0.21391406               -0.00030373               -0.00009528               -0.00035478
               0.99833002                4.00087549               51.10827978                0.01000000               -0.00845431               -0.06602688                0.21343716                0.03717022                0.07509173                0.00076939
               1.99880180                4.00218282               51.10972603                0.01000000                0.04327100               -0.09847788                0.21728849                0.09729635                0.19095807               -0.02643598
               2.99919544                4.00436941               51.11200773                0.01197458                0.00466061               -0.03902471                0.22329204                0.14851157                0.19023444                0.10736195
               3.99889501                4.00573194               51.11345989                0.01000000               -0.02152379               -0.01714819                0.22677069                0.14463527                0.20941458                0.22301032
               4.99876497                4.00719906               51.11614319                0.01805412               -0.03971793                0.00711424                0.23321925                0.11259550                0.12131557                0.24155543
               5.99810066                4.00765353               51.11585761                0.01000001               -0.06006661               -0.02352697                0.23171620                0.05215360                0.03980459                0.26428034
               6.99756364                4.00771788               51.11692231                0.01187852               -0.03641514                0.05266500                0.23392428                0.16802480                0.23656710                0.57868882
               7.99737235                4.00956985               51.12059017                0.01049035               -0.00427723                0.09841352                0.24183358                0.33347984                0.74613435                0.95270980
               8.99747809                4.01209821               51.13187101                0.07863973               -0.03704127                0.13211288                0.26037918                0.31057548                0.56685257                1.22109533
               9.99663153                4.01249943               51.13196960                0.56348452               -0.08465633                0.14137321                0.25862999                0.20975431                0.00775080                1.23179792
              -0.00157291                4.99969152               51.10817370                0.59643077               -0.06399235               -0.06259798                0.21367596               -0.00029810               -0.00008184               -0.00017754
               0.99778717                5.00021775               51.10812073                0.02240550               -0.04314982               -0.06549468                0.21305506                0.01312839                0.02795073                0.00029133
               1.99756409                5.00101062               51.10862811                0.01000001                0.03326223               -0.10759707                0.21334208                0.06464509                0.21753962               -0.07501091
               2.99845241                5.00367537               51.11237957                0.01000000                0.07102314               -0.06438567                0.22396230                0.18931494                0.37526178                0.11057574
               3.99898456                5.00565571               51.11607588                0.01805554                0.00416095               -0.03610856                0.23321070                0.11562130                0.22323955                0.13448336
               4.99853563                5.00677169               51.11681596                0.01000001               -0.04441555               -0.04115291                0.23411661                0.03821200                0.13413180                0.14755513
               5.99809625                5.00738446               51.11874571                0.01183605               -0.03019821               -0.00073132                0.23795768                0.08275229                0.35243855                0.45338742
               6.99793167                5.00857739               51.12387105                0.01001332               -0.01243314                0.07802552                0.24907376                0.19012490                0.65758782                0.76088194
               7.99784758                5.01069625               51.13193029                0.07375390               -0.04375452                0.01717785                0.26355839                0.13190129                0.40463440                0.58200583
               8.99705658                5.01132046               51.13201346                0.15670004               -0.07900165               -0.07849187                0.26144227                0.00917229                0.00304480                0.02211474
               9.99626755                5.01187358               51.13204096                0.60684857               -0.07890259               -0.06863058                0.25940908                0.00899159                0.00029609                0.02017350
              -0.00208753                5.99906372               51.10801070                0.66424725               -0.06389842               -0.06294870                0.21343481               -0.00026872               -0.00006678               -0.00003539
               0.99727349                5.99956559               51.10795878                0.10874931               -0.06376925               -0.06493175                0.21263770               -0.00200479                0.00010738               -0.00007992
               1.99663709                6.00003088               51.10791029                0.01142320                0.05315831               -0.08113603                0.21143353                0.10490172                0.29982836               -0.02886837
               2.99833665                6.00308170               51.11385406                0.01817172                0.07370142               -0.08399892                0.22774393                0.15810876                0.39471867                0.03637063
               3.99811111                6.00500977               51.11575095                0.01000001               -0.02680978               -0.05719454                0.23170717                0.05618227                0.24128124                0.05055366
               4.99780046                6.00637600               51.11864947                0.01183826               -0.00805581               -0.02221177                0.23801464                0.08507328                0.43397346                0.35521802
               5.99795000                6.00763891               51.12442371                0.01000340                0.01269468                0.02318782                0.25065554                0.15150987                0.64557620                0.64725306
               6.99805435                6.00927839               51.13159208                0.07372927               -0.03413410               -0.00411404                0.26408563                0.08912626                0.36107415                0.39846531
               7.99726732                6.00991341               51.13171575                0.15640132               -0.07850732               -0.07850658                0.26215425                0.00283829                0.00562085                0.00099477
               8.99648420                6.01052838               51.13177530                0.26683942               -0.07811005               -0.07861631                0.26010534                0.00163658                0.00150524                0.00151346
               9.99570512                6.01112682               51.13181608                0.67073546               -0.07790891               -0.07556763                0.25806745                0.00161096                0.00060540                0.00389811
              -0.00258202                6.99843255               51.10784804                0.75088962               -0.06380638               -0.06326734                0.21319122               -0.00022372               -0.00006063                0.00010012
               0.99677992                6.99891911               51.10779491                0.22318323               -0.06359820               -0.06437242                0.21219148               -0.00101622               -0.00036815               -0.00030566
               1.99614602                6.99938790               51.10773580                0.01619073               -0.00721104               -0.06395256                0.21082090                0.10523805                0.25319486               -0.00142952
               2.99663570                7.00199539               51.11275390                0.01000001                0.03339436               -0.10041031                0.22455935                0.16473906                0.45133683               -0.01054068
               3.99681391                7.00451182               51.11669693                0.01187968                0.04861283               -0.02892004                0.23398863                0.17816880                0.53841539                0.23528867
               4.99760795                7.00632746               51.12348698                0.01001672                0.07050742               -0.00004880                0.24942639                0.19606059                0.72475628                0.62958382
               5.99822405                7.00784822               51.13120779                0.07372928               -0.00841320               -0.02894023                0.26441145                0.09081623                0.38851517                0.35081862
               6.99743969                7.00849511               51.13135094                0.15643883               -0.07848468               -0.07844863                0.26252516                0.00164559                0.00672760               -0.00159411
               7.99665436                7.00912611               51.13143665                0.26694255               -0.07818978               -0.07837370                0.26051080                0.00071200                0.00307373               -0.00229955
               8.99587589                7.00974813               51.13150656                0.41971260               -0.07757417               -0.07768211                0.25848216                0.00033257                0.00144503               -0.00021491
               9.99510288                7.01036222               51.13155905                0.76082178               -0.07730177               -0.07647082                0.25644410                0.00051074                0.00062226                0.00212169
              -0.00306514                7.99779838               51.10768635                0.86085085               -0.06370588               -0.06353446                0.21294913               -0.00016063               -0.00007160                0.00027564
               0.99629781                7.99827814               51.10763047                0.37592498               -0.06346453               -0.06386708                0.21172920               -0.00036180               -0.00045640               -0.00034722
               1.99566557                7.99875183               51.10756729                0.01000000                0.01048553               -0.06337031                0.21023038                0.09188559                0.28829383               -0.00097458
               2.99650752                8.00107350               51.11328618                0.01335572                0.08384246               -0.13801491                0.22839456                0.20750872                0.62967990               -0.19680722
               3.99734242                8.00443137               51.12007805                0.01050215                0.09388782                0.00995044                0.24224194                0.35138812                0.87767436                0.69008549
               4.99838527                8.00637502               51.13081330                0.07375187                0.01281218               -0.03735590                0.26453260                0.13852004                0.53908856                0.37737454
               5.99759867                8.00706010               51.13097629                0.15639363               -0.07879517               -0.07867512                0.26280523                0.00312347                0.00698388               -0.00133564
               6.99680937                8.00770942               51.13107122                0.26693069               -0.07850629               -0.07827619                0.26083528                0.00076213                0.00306537               -0.00296356
               7.99602854                8.00834594               51.13115626                0.41980203               -0.07773118               -0.07772113                0.25882486                0.00025810                0.00219165               -0.00210084
               8.99525475                8.00897473               51.13123342                0.64102951               -0.07707002               -0.07706378                0.25679575                0.00007166                0.00116512               -0.00049536
               9.99448714                8.00959741               51.13129716                0.89375574               -0.07676056               -0.07629686                0.25475645                0.00029691                0.00055051                0.00184025
              -0.00354476                8.99716186               51.10752679                1.00000000               -0.06360050               -0.06370284                0.21272910               -0.00008995               -0.00013279                0.00032683
               0.99581923                8.99764177               51.10746713                0.58310939               -0.06334309               -0.06349659                0.21128041               -0.00004532               -0.00041559               -0.00023375
               1.99518838                8.99812050               51.10740232                0.05622137               -0.03564510               -0.06302748                0.20972909                0.03177165                0.05560734               -0.00051410
               2.99510633                8.99923509               51.10846300                0.01978970                0.16758816               -0.13748757                0.21675310                0.20651655                1.14413314               -0.23792734
               3.99854014                9.00471083               51.13012575                0.07891361                0.13216422               -0.02884447                0.26204070                0.33242058                1.10020445                0.51513135
               4.99774962                9.00558034               51.13059969                0.15670861               -0.07940053               -0.07944319                0.26273216                0.01061131                0.02252467               -0.00018113
               5.99695213                9.00627472               51.13071770                0.26680726               -0.07902581               -0.07840160                0.26106860                0.00186600                0.00297030               -0.00165950
               6.99616910                9.00692959               51.13080257                0.41966142               -0.07789636               -0.07776410                0.25912166                0.00036969                0.00096871               -0.00152226
               7.99539420                9.00757169               51.13088070                0.64096503               -0.07716218               -0.07716471                0.25711600                0.00007748                0.00062819               -0.00119416
               8.99462586                9.00820685               51.13095824                0.98180996               -0.07653663               -0.07653862                0.25508785                0.00000741                0.00051619               -0.00049647
               9.99386347                9.00883629               51.13103318                0.99477929               -0.07623864               -0.07586956                0.25304626                0.00026147                0.00045101                0.00129502
              -0.00402676                9.99652432               51.10736647                1.00000000               -0.06349783               -0.06375355                0.21243587                0.00018871                0.00006750                0.00024785
               0.99533826                9.99700821               51.10730568                0.86118405               -0.06327738               -0.06335597                0.21093382                0.00025013               -0.00005909               -0.00015979
               1.99470769                9.99749128               51.10724303                0.55992733               -0.06453725               -0.06292212                0.20955526                0.01770776                0.04869338               -0.00022853
               2.99404751                9.99832374               51.10815747                0.53127451                0.14689483               -0.09113447                0.21616397                0.21227805                1.14295782               -0.01293930
               3.99764559               10.00385448               51.12999470                0.56376284                0.14930496               -0.08563553                0.26058600                0.23366519                1.10167819                0.00614468
               4.99703361               10.00478616               51.13037572                0.60686292               -0.06794254               -0.07941788                0.26099230                0.01027933                0.01559521               -0.00071339
               5.99628673               10.00549207               51.13047957                0.67071139               -0.07569117               -0.07826460                0.25932728                0.00185915                0.00027145               -0.00063228
               6.99551979               10.00615413               51.13055129                0.76077494               -0.07669549               -0.07754559                0.25738725                0.00059733               -0.00154683               -0.00062993
               7.99475282               10.00680264               51.13061776                0.89369304               -0.07647458               -0.07690499                0.25538828                0.00035360               -0.00177385               -0.00052150
               8.99399030               10.00744396               51.13068404                0.99477670               -0.07596616               -0.07628923                0.25336571                0.00031270               -0.00129373               -0.00038775
               9.99323350               10.00808001               51.13075897                1.00000000               -0.07567957               -0.07562727                0.25132471                0.00060843               -0.00078810                0.00086193
               0.00164184                0.00297705               52.11113808                0.78910655               -0.06413781               -0.06412911                0.21472397               -0.00004494                0.00097152               -0.00089501
               1.00100046                0.00368012               52.11103935                0.52957178               -0.06326675               -0.06452486                0.21449476                0.00059722                0.00154588                0.00068268
               2.00037651                0.00440355               52.11095004                0.48451823               -0.06207062               -0.06421028                0.21431550                0.00017857                0.00196888               -0.00010948
               2.99975905                0.00517161               52.11085535                0.50603715               -0.06185736               -0.06418880                0.21416391               -0.00021904                0.00200765               -0.00019672
               3.99913936                0.00598677               52.11076144                0.54439877               -0.06217273               -0.06411733                0.21402483               -0.00030118                0.00236263               -0.00022527
               4.99851560                0.00684213               52.11066902                0.59647899               -0.06258900               -0.06405089                0.21388833               -0.00029513                0.00270895               -0.00023828
               5.99788758                0.00772818               52.11057819                0.66422936               -0.06299900               -0.06398447                0.21374714               -0.00026398                0.00303194               -0.00025972
               6.99725562                0.00863533               52.11048951                0.75079538               -0.06336961               -0.06391857                0.21359747               -0.00021677                0.00339251               -0.00034373
               7.99662019                0.00955434               52.11040432                0.86062819               -0.06367481               -0.06384244                0.21343885               -0.00015239                0.00388786               -0.00049377
               8.99598212                0.01047694               52.11032508                1.00000000               -0.06386528               -0.06375222                0.21327039               -0.00008027                0.00346937               -0.00073953
               9.99534288                0.01139709               52.11023187                1.00000000               -0.06392386               -0.06366916                0.21303800                0.00020656                0.00273189                0.00203650
               0.00093832                1.00233575               52.11097414                0.52958282               -0.06451393               -0.06324207                0.21444323                0.00058910               -0.00071684               -0.00101045
               1.00029318                1.00303487               52.11087478                0.01257732               -0.06528862               -0.06530339                0.21420670                0.00194022               -0.00146058                0.00156998
               1.99963255                1.00376145               52.11075945                0.01000000               -0.06639643               -0.04616607                0.21400010                0.02250520               -0.00244122                0.02528113
               2.99896525                1.00452972               52.11064207                0.01000001               -0.06657316               -0.02221743                0.21378325                0.04165413               -0.00285044                0.06319260
               3.99830108                1.00534560               52.11052182                0.01000000               -0.06616568               -0.00854613                0.21353483                0.03671120               -0.00327025                0.08295141
               4.99764194                1.00620162               52.11039941                0.02244264               -0.06563718               -0.04346887                0.21324761                0.01261502               -0.00361032                0.02749964
               5.99698834                1.00708834               52.11027541                0.10872253               -0.06507856               -0.06387030                0.21292265               -0.00211780               -0.00385399               -0.00371642
               6.99634037                1.00799614               52.11015068                0.22305571               -0.06452437               -0.06370603                0.21256277               -0.00106009               -0.00391818               -0.00346983
               7.99569785                1.00891592               52.11002739                0.37560730               -0.06402126               -0.06359139                0.21217702               -0.00036734               -0.00369232               -0.00286131
               8.99505994                1.00983942               52.10990854                0.58244625               -0.06365278               -0.06348968                0.21177710               -0.00003871               -0.00269252               -0.00166640
               9.99442480                1.01076040               52.10980597                0.86073318               -0.06351439               -0.06344485                0.21149278                0.00025771               -0.00189832                0.00303757
               0.00025539                2.00171220               52.11080583                0.48453404               -0.06418245               -0.06200423                0.21421167                0.00016788               -0.00013366               -0.00084921
               0.99961357                2.00237405               52.11072687                0.01000000               -0.04618168               -0.06642426                0.21393765                0.02256883                0.02130516                0.00199786
               1.99933176                2.00348023               52.11107553                0.01000001               -0.03027913               -0.03010377                0.21528772                0.09454157                0.05616729                0.06415850
               2.99900799                2.00472726               52.11169574                0.01000000               -0.05650413                0.00614804                0.21682133                0.12266365                0.05042875                0.12839194
               3.99820168                2.00581585               52.11194515                0.01000000               -0.09914160                0.04358402                0.21731785                0.09539292               -0.04441972                0.21006815
               4.99702516                2.00597275               52.11068421                0.01000001               -0.10754876                0.03364714                0.21337033                0.06181937               -0.09727352                0.24033322
               5.99605070                2.00645078               52.10990342                0.01142503               -0.08091617                0.05208598                0.21166606                0.10003055               -0.04200973                0.32899585
               6.99540683                2.00736121               52.10974951                0.01618601               -0.06405726               -0.00799563                0.21113616                0.10044035               -0.01029690                0.28254498
               7.99476956                2.00828252               52.10960351                0.01000000               -0.06349845                0.00816233                0.21062553                0.08669775               -0.00909983                0.32586167
               8.99413686                2.00920715               52.10947394                0.05608267               -0.06317405               -0.03703956                0.21020345                0.02988912               -0.00546270                0.06112555
               9.99350608                2.01012820               52.10940072                0.55981660               -0.06307859               -0.06409549                0.21011185                0.01603905               -0.00264856                0.06054487
              -0.00038201                3.00109567               52.11064067                0.50604413               -0.06414587               -0.06174870                0.21401154               -0.00023905               -0.00012836               -0.00042155
               0.99897653                3.00170638               52.11057252                0.01000001               -0.02239078               -0.06660999                0.21366523                0.04193638                0.05791903                0.00128395
               1.99917017                3.00315938               52.11166448                0.01000000                0.00531910               -0.05628756                0.21677102                0.12327454                0.11741147                0.05929403
               2.99908291                3.00465268               52.11279947                0.01000000               -0.01033626               -0.00846191                0.21972937                0.16427478                0.13542420                0.14725197
               3.99896345                3.00621728               52.11426343                0.01197474               -0.04197567                0.00642295                0.22329800                0.14733697                0.09869953                0.21146030
               4.99824340                3.00687456               52.11468225                0.01000000               -0.06814738                0.07306132                0.22401552                0.18362673                0.10379120                0.41458203
               5.99760050                3.00813006               52.11625612                0.01817545               -0.08629813                0.07342076                0.22781234                0.15128779                0.02562656                0.44171512
               6.99651743                3.00783623               52.11513093                0.01000001               -0.10073179                0.03279808                0.22474872                0.15555068               -0.01947860                0.50741100
               7.99558586                3.00907917               52.11580080                0.01341734               -0.13526953                0.08066548                0.22906073                0.19293337               -0.23790334                0.70619034
               8.99381204                3.00909863               52.11031314                0.01986803               -0.13411871                0.15857711                0.21816342                0.18643758               -0.27998055                1.29285209
               9.99290349                3.00947849               52.11012520                0.53129071               -0.09085550                0.13265256                0.21763584                0.19367843               -0.01590151                1.30165589
              -0.00097081                4.00047723               52.11047544                0.54440927               -0.06405953               -0.06203788                0.21382393               -0.00032457               -0.00011263               -0.00017482
               0.99838859                4.00104185               52.11041378                0.01000000               -0.00891147               -0.06619385                0.21335951                0.03716019                0.07724525                0.00068441
               1.99885096                4.00235448               52.11189874                0.01000000                0.04234953               -0.09951397                0.21720930                0.09797425                0.19660155               -0.02787636
               2.99923558                4.00455802               52.11424058                0.01197418                0.00377872               -0.03955082                0.22327716                0.14965891                0.19595082                0.11024564
               3.99892653                4.00594431               52.11572772                0.01000000               -0.02253358               -0.01783364                0.22676493                0.14588973                0.21541733                0.22897868
               4.99878491                4.00743398               52.11847566                0.01805600               -0.04058683                0.00630442                0.23325658                0.11401144                0.12493244                0.24790465
               5.99811479                4.00791919               52.11817508                0.01000001               -0.06080869               -0.02438388                0.23175967                0.05413707                0.04128505                0.27073079
               6.99756874                4.00801717               52.11926177                0.01189107               -0.03744863                0.05115105                0.23400041                0.16913680                0.24282365                0.59225828
               7.99736582                4.00989583               52.12300964                0.01054288               -0.00512240                0.09414267                0.24205651                0.33041932                0.76059740                0.97175908
               8.99746629                4.01237869               52.13447332                0.07894227               -0.03729487                0.12496980                0.26006355                0.30575644                0.57700144                1.24465381
               9.99661992                4.01278125               52.13455424                0.56374645               -0.08463636                0.13410070                0.25828161                0.20773681                0.00789637                1.25445264
              -0.00151774                4.99985491               52.11031027                0.59649635               -0.06397762               -0.06244056                0.21363941               -0.00031902               -0.00009909                0.00002641
               0.99784248                5.00038251               52.11025108                0.02246243               -0.04343846               -0.06564336                0.21301351                0.01271205                0.02832904                0.00015530
               1.99761349                5.00116910               52.11076017                0.01000001                0.03218916               -0.10830153                0.21322324                0.06599011                0.22371603               -0.07783400
               2.99848626                5.00386166               52.11461943                0.01000000                0.06958962               -0.06481367                0.22396902                0.19130455                0.38631348                0.11355758
               3.99900528                5.00586060               52.11840816                0.01805499                0.00312384               -0.03670561                0.23327770                0.11727359                0.22965623                0.13807000
               4.99854874                5.00700065               52.11915735                0.01000001               -0.04526140               -0.04174225                0.23418675                0.04039295                0.13790260                0.15128880
               5.99810005                5.00764238               52.12112573                0.01184524               -0.03126022               -0.00151104                0.23804103                0.08437871                0.36144324                0.46439053
               6.99792354                5.00885925               52.12636402                0.01003457               -0.01336643                0.07572447                0.24942716                0.18900102                0.67203583                0.77757460
               7.99783272                5.01096202               52.13456551                0.07378574               -0.04408928                0.01414550                0.26348598                0.13074920                0.41270408                0.59381575
               8.99704175                5.01159803               52.13462727                0.15677127               -0.07898033               -0.07865855                0.26130406                0.00957325                0.00298176                0.02375344
               9.99625312                5.01216051               52.13463418                0.60689764               -0.07886336               -0.06829760                0.25922114                0.00928198                0.00028158                0.02163034
              -0.00203238                5.99922842               52.11014512                0.66426744               -0.06389700               -0.06284691                0.21345325               -0.00028679               -0.00008481                0.00018143
               0.99732865                5.99972898               52.11008513                0.10876951               -0.06380068               -0.06505388                0.21263069               -0.00226115               -0.00012744               -0.00026147
               1.99669160                6.00018845               52.11002425                0.01142853                0.05207587               -0.08119411                0.21133013                0.10613108                0.30817927               -0.03007987
               2.99837016                6.00326174               52.11613173                0.01817733                0.07207040               -0.08423962                0.22773834                0.16050191                0.40617279                0.03735724
               3.99813301                6.00521019               52.11806809                0.01000001               -0.02795854               -0.05768819                0.23176283                0.05853843                0.24781411                0.05207673
               4.99781099                6.00659913               52.12102983                0.01184838               -0.00946199               -0.02259627                0.23809589                0.08693221                0.44506131                0.36428649
               5.99794377                6.00788897               52.12693301                0.01002183                0.01090614                0.02231650                0.25106538                0.15098727                0.66040260                0.66209955
               6.99802912                6.00953166               52.13423291                0.07375533               -0.03508722               -0.00555178                0.26407529                0.08844307                0.36871214                0.40679881
               7.99724203                6.01017874               52.13433713                0.15644609               -0.07849250               -0.07852773                0.26208515                0.00292889                0.00565427                0.00119543
               8.99645927                6.01080552               52.13437582                0.26690171               -0.07807102               -0.07862573                0.25998005                0.00170716                0.00148937                0.00175505
               9.99568061                6.01141530               52.13439592                0.67077295               -0.07786594               -0.07545113                0.25788872                0.00166275                0.00060580                0.00413039
              -0.00252461                6.99859797               52.10998027                0.75084479               -0.06381686               -0.06322056                0.21326023               -0.00023726               -0.00008288                0.00032266
               0.99683723                6.99908143               52.10991692                0.22312145               -0.06360237               -0.06446244                0.21221279               -0.00113551               -0.00058373               -0.00052241
               1.99620335                6.99954521               52.10984380                0.01618935               -0.00813334               -0.06397688                0.21075169                0.10652156                0.26038965               -0.00203531
               2.99667456                7.00217687               52.11499987                0.01000001                0.03176564               -0.10041092                0.22459284                0.16733618                0.46413595               -0.00957047
               3.99683866                7.00470684               52.11903789                0.01189663                0.04670250               -0.02935739                0.23411684                0.18011466                0.55225995                0.24167317
               4.99760861                7.00654873               52.12598296                0.01003400                0.06743078                0.00009258                0.24968449                0.19539815                0.74161647                0.64430913
               5.99818727                7.00808871               52.13385211                0.07375571               -0.01029880               -0.02942652                0.26443289                0.09026825                0.39701099                0.35849088
               6.99740263                7.00874821               52.13397611                0.15647908               -0.07849197               -0.07845216                0.26249274                0.00169084                0.00679579               -0.00149496
               7.99661744                7.00939146               52.13404139                0.26700339               -0.07816494               -0.07835980                0.26041964                0.00073998                0.00307961               -0.00225023
               8.99583933                7.01002551               52.13409071                0.41980880               -0.07753048               -0.07764837                0.25833662                0.00034469                0.00144715               -0.00015306
               9.99506683                7.01065148               52.13412253                0.76087989               -0.07725078               -0.07639732                0.25624470                0.00052261                0.00062613                0.00218274
              -0.00300404                7.99796401               52.10981635                0.86070032               -0.06372658               -0.06353413                0.21306190               -0.00016801               -0.00010203                0.00050603
               0.99635870                7.99843973               52.10974796                0.37571030               -0.06346838               -0.06392221                0.21177092               -0.00039970               -0.00063739               -0.00057757
               1.99572659                7.99890891               52.10966933                0.01000000                0.00982828               -0.06338163                0.21017127                0.09319978                0.29792689               -0.00153023
               2.99655526                8.00125353               52.11557194                0.01341850                0.08184261               -0.13778952                0.22883470                0.21167952                0.64726494               -0.20010298
               3.99736345                8.00462305               52.12250099                0.01055080                0.08909129                0.01024637                0.24240700                0.34964770                0.89753792                0.70521559
               4.99833709                8.00660099               52.13345883                0.07378215                0.00931018               -0.03713935                0.26457005                0.13789179                0.55138637                0.38567094
               5.99754965                8.00730044               52.13360439                0.15643486               -0.07884549               -0.07867575                0.26279705                0.00324444                0.00716287               -0.00127694
               6.99676018                8.00796261               52.13367935                0.26699042               -0.07850611               -0.07825972                0.26077600                0.00079655                0.00310104               -0.00293614
               7.99597953                8.00861154               52.13374396                0.41989583               -0.07770181               -0.07769020                0.25871072                0.00026785                0.00220487               -0.00207264
               8.99520614                8.00925255               52.13380057                0.64119479               -0.07702049               -0.07701518                0.25662768                0.00007331                0.00117126               -0.00047052
               9.99443912                8.00988735               52.13384364                0.89386300               -0.07670235               -0.07622678                0.25453401                0.00030117                0.00055432                0.00186116
              -0.00347942                8.99732729               52.10965474                1.00000000               -0.06362563               -0.06373344                0.21286611               -0.00009003               -0.00017700                0.00052352
               0.99588433                8.99780298               52.10958017                0.58262779               -0.06335164               -0.06352536                0.21132533               -0.00004664               -0.00051375               -0.00040965
               1.99525355                8.99827758               52.10949941                0.05623552               -0.03451548               -0.06302661                0.20968666                0.03341652                0.05992357               -0.00084604
               2.99519402                8.99942108               52.11063342                0.02022554                0.16153024               -0.13764934                0.21738022                0.20937240                1.17197526               -0.24380677
               3.99848415                9.00491177               52.13274556                0.07922091                0.12475172               -0.02840129                0.26188244                0.32921552                1.12515873                0.52583465
               4.99768905                9.00580594               52.13322709                0.15678100               -0.07968090               -0.07946577                0.26272102                0.01117523                0.02412754               -0.00022841
               5.99689054                9.00651519               52.13332835                0.26686966               -0.07907932               -0.07839017                0.26103626                0.00196248                0.00320015               -0.00165568
               6.99610746                9.00718302               52.13339343                0.41975067               -0.07788425               -0.07773875                0.25903853                0.00038622                0.00102466               -0.00150902
               7.99533285                9.00783766               52.13345122                0.64112523               -0.07712367               -0.07712485                0.25698049                0.00008024                0.00064958               -0.00117922
               8.99456499                9.00848521               52.13350818                0.98212399               -0.07647949               -0.07648164                0.25489620                0.00000688                0.00052259               -0.00048593
               9.99380326                9.00912695               52.13356242                0.99504347               -0.07617292               -0.07579432                0.25279893                0.00026461                0.00045291                0.00130006
              -0.00395722                9.99668934               52.10949162                1.00000000               -0.06353019               -0.06379525                0.21259644                0.00020808                0.00019125                0.00040276
               0.99540747                9.99716923               52.10941537                0.86084512               -0.06329719               -0.06337585                0.21099904                0.00026689                0.00013093               -0.00028119
               1.99477683                9.99764838               52.10933860                0.55995549               -0.06494744               -0.06292008                0.20955957                0.01889391                0.05311288               -0.00038797
               2.99410852                9.99850054               52.11032216                0.53165333                0.13930324               -0.09205389                0.21681528                0.21178282                1.16994968               -0.01339869
               3.99756290               10.00405502               52.13259990                0.56402414                0.14243210               -0.08567475                0.26042098                0.23343077                1.12589593                0.00629839
               4.99695717               10.00501167               52.13298560                0.60691110               -0.06755375               -0.07942697                0.26095754                0.01069241                0.01702350               -0.00071967
               5.99621182               10.00573264               52.13307267                0.67074872               -0.07558649               -0.07825578                0.25927077                0.00193693                0.00050611               -0.00062373
               6.99544544               10.00640784               52.13312467                0.76083082               -0.07664389               -0.07751807                0.25727985                0.00061755               -0.00147642               -0.00062162
               7.99467894               10.00706904               52.13317088                0.89379833               -0.07642218               -0.07686183                0.25522898                0.00036344               -0.00173930               -0.00051349
               8.99391699               10.00772292               52.13321663                0.99504259               -0.07590047               -0.07622868                0.25314985                0.00032125               -0.00127956               -0.00038234
               9.99316093               10.00837146               52.13327085                0.99089846               -0.07560590               -0.07554850                0.25105290                0.00062131               -0.00078238                0.00086182
               0.00175146                0.00313348               53.11328379                0.78930112               -0.06403038               -0.06402168                0.21441249               -0.00002837                0.00097759               -0.00088492
               1.00111116                0.00385295               53.11318300                0.52986611               -0.06309662               -0.06446940                0.21422804                0.00065060                0.00158712                0.00068146
               2.00048953                0.00459456               53.11309216                0.48469698               -0.06181200               -0.06414990                0.21409635                0.00020045                0.00207588               -0.00012300
               2.99987492                0.00538474               53.11299621                0.50616774               -0.06158723               -0.06414547                0.21399804               -0.00023281                0.00216642               -0.00021431
               3.99925778                0.00622649               53.11290114                0.54450124               -0.06194248               -0.06408678                0.21391451               -0.00032312                0.00255997               -0.00024348
               4.99863607                0.00711247               53.11280762                0.59654693               -0.06241392               -0.06403323                0.21383420               -0.00031638                0.00293349               -0.00025611
               5.99800950                0.00803239               53.11271567                0.66425344               -0.06288363               -0.06398135                0.21375196               -0.00028218                0.00327118               -0.00027808
               6.99737839                0.00897576               53.11262577                0.75075665               -0.06331362               -0.06392826                0.21365800               -0.00023013                0.00363660               -0.00036582
               7.99674323                0.00993247               53.11253925                0.86047867               -0.06367176               -0.06386529                0.21355470               -0.00015926                0.00411960               -0.00052505
               8.99610496                0.01089334               53.11245835                0.99980553               -0.06389960               -0.06378226                0.21342711               -0.00007940                0.00364976               -0.00077287
               9.99546524                0.01185171               53.11236289                1.00000000               -0.06397184               -0.06370907                0.21323073                0.00022797                0.00285854                0.00218480
               0.00103171                1.00249327               53.11311728                0.52988059               -0.06445840               -0.06307157                0.21417778                0.00064256               -0.00071480               -0.00096681
               1.00038712                1.00320826               53.11301577                0.01252351               -0.06530338               -0.06532015                0.21398504                0.00208657               -0.00144004                0.00158079
               1.99972564                1.00395306               53.11289862                0.01000000               -0.06652504               -0.04616609                0.21382279                0.02281077               -0.00242255                0.02607574
               2.99905662                1.00474328               53.11277928                0.01000001               -0.06674765               -0.02247740                0.21365002                0.04185102               -0.00287586                0.06488189
               3.99839069                1.00558562               53.11265672                0.01000000               -0.06633341               -0.00886165                0.21344255                0.03679984               -0.00335076                0.08506321
               4.99772995                1.00647213               53.11253161                0.02250132               -0.06578259               -0.04370661                0.21319246                0.01222750               -0.00374158                0.02785143
               5.99707503                1.00739257               53.11240455                0.10874130               -0.06519528               -0.06390011                0.21290429               -0.00237420               -0.00402959               -0.00395456
               6.99642605                1.00833648               53.11227640                0.22298282               -0.06460934               -0.06370973                0.21257625               -0.00118148               -0.00412905               -0.00369983
               7.99578285                1.00929382               53.11214938                0.37538911               -0.06407521               -0.06359689                0.21222003               -0.00040753               -0.00393330               -0.00305317
               8.99514454                1.01025552               53.11202649                0.58195162               -0.06368490               -0.06350295                0.21183734               -0.00004058               -0.00289087               -0.00175147
               9.99450915                1.01121462               53.11192115                0.86038521               -0.06353945               -0.06347221                0.21158482                0.00027492               -0.00204781                0.00325818
               0.00033433                2.00187205               53.11294691                0.48469417               -0.06412353               -0.06174307                0.21399912                0.00018946               -0.00014668               -0.00073952
               0.99969309                2.00254655               53.11286540                0.01000000               -0.04618043               -0.06656027                0.21376281                0.02287630                0.02211039                0.00200266
               1.99941072                2.00367124               53.11322781                0.01000001               -0.03068589               -0.03051059                0.21516462                0.09481867                0.05794964                0.06592425
               2.99907937                2.00493519               53.11386341                0.01000000               -0.05728958                0.00563873                0.21670103                0.12311183                0.05181303                0.13189821
               3.99826493                2.00604926               53.11411783                0.01000000               -0.10028545                0.04298464                0.21719379                0.09625786               -0.04586220                0.21565649
               4.99707367                2.00623833               53.11281743                0.01000001               -0.10836261                0.03287306                0.21333219                0.06318103               -0.10007617                0.24643925
               5.99609767                2.00675438               53.11201987                0.01142745               -0.08100748                0.05125370                0.21157745                0.10120224               -0.04321303                0.33723950
               6.99545352                2.00770157               53.11186060                0.01618408               -0.06408184               -0.00882134                0.21107021                0.10166693               -0.01091634                0.28967488
               7.99481604                2.00866054               53.11170949                0.01000000               -0.06350856                0.00759162                0.21056407                0.08784575               -0.00965413                0.33565834
               8.99418334                2.00962328               53.11157588                0.05609662               -0.06317515               -0.03598305                0.21016780                0.03139151               -0.00579099                0.06596134
               9.99355253                2.01058227               53.11150201                0.55984331               -0.06308095               -0.06444520                0.21013565                0.01707957               -0.00280151                0.06548051
              -0.00031350                3.00125840               53.11278001                0.50617465               -0.06410395               -0.06147334                0.21385522               -0.00025475               -0.00014622               -0.00025483
               0.99904546                3.00187705               53.11270853                0.01000001               -0.02265643               -0.06679703                0.21353587                0.04214879                0.05962668                0.00124884
               1.99923337                3.00334285               53.11383167                0.01000000                0.00476887               -0.05708173                0.21665085                0.12376614                0.12095026                0.06065656
               2.99914084                3.00485606               53.11499630                0.01000000               -0.01103375               -0.00904126                0.21962322                0.16542871                0.13931679                0.15113950
               3.99901270                3.00644531               53.11649606                0.01197501               -0.04261961                0.00587612                0.22322729                0.14884442                0.10157460                0.21714661
               4.99828845                3.00712959               53.11692214                0.01000000               -0.06884260                0.07218599                0.22395071                0.18574604                0.10674347                0.42557060
               5.99763585                3.00841765               53.11853392                0.01818238               -0.08676060                0.07220781                0.22775974                0.15365169                0.02667535                0.45305469
               6.99655324                3.00816005               53.11737866                0.01000001               -0.10089011                0.03141930                0.22475891                0.15800215               -0.01818156                0.52004749
               7.99561804                3.00944565               53.11809364                0.01348507               -0.13512971                0.07898943                0.22949654                0.19662595               -0.24059079                0.72354457
               8.99385064                3.00953586               53.11249826                0.02031784               -0.13426360                0.15269401                0.21888262                0.18851200               -0.28551634                1.31945066
               9.99293277                3.00992572               53.11230513                0.53168078               -0.09178690                0.12486151                0.21838525                0.19274037               -0.01636508                1.32716461
              -0.00090806                4.00064258               53.11261321                0.54450635               -0.06403139               -0.06180220                0.21372746               -0.00034841               -0.00013202                0.00003263
               0.99845162                4.00121061               53.11254697                0.01000000               -0.00924496               -0.06637692                0.21327357                0.03727025                0.07936990                0.00059260
               1.99890704                4.00252960               53.11407021                0.01000000                0.04169296               -0.10072090                0.21709130                0.09902222                0.20226417               -0.02932177
               2.99928548                4.00475436               53.11647327                0.01197611                0.00306196               -0.04003453                0.22320633                0.15135155                0.20170294                0.11312185
               3.99896828                4.00616678               53.11799518                0.01000000               -0.02346139               -0.01842888                0.22670503                0.14773783                0.22142673                0.23500617
               4.99881625                4.00768205               53.12080832                0.01806001               -0.04140127                0.00568517                0.23323501                0.11597120                0.12858208                0.25431722
               5.99814025                4.00819854               53.12049280                0.01000001               -0.06153511               -0.02516509                0.23173182                0.05652452                0.04278974                0.27723071
               6.99758555                4.00832995               53.12160232                0.01190751               -0.03837515                0.04988455                0.23406797                0.17105756                0.24915194                0.60595512
               7.99737275                4.01024032               53.12543130                0.01059540               -0.00560164                0.08997087                0.24220232                0.32837937                0.77484030                0.99068107
               8.99747352                4.01267716               53.13707228                0.07925643               -0.03725615                0.11785811                0.25968358                0.30180357                0.58687792                1.26782434
               9.99662763                4.01307950               53.13713524                0.56401536               -0.08458939                0.12693931                0.25787828                0.20656259                0.00804236                1.27665907
              -0.00145651                5.00002236               53.11244649                0.59656674               -0.06396384               -0.06226130                0.21360350               -0.00034291               -0.00011833                0.00026064
               0.99790385                5.00054951               53.11238100                0.02252387               -0.04367120               -0.06580435                0.21296706                0.01231279                0.02874791                0.00000798
               1.99767006                5.00132843               53.11289257                0.01000001                0.03134231               -0.10919770                0.21317614                0.06764396                0.22990208               -0.08075015
               2.99853069                5.00405536               53.11685895                0.01000000                0.06848510               -0.06529766                0.22390068                0.19395465                0.39739823                0.11649265
               3.99903976                5.00607674               53.12074144                0.01805978                0.00227080               -0.03726035                0.23327818                0.11944756                0.23613892                0.14170132
               4.99857611                5.00724330               53.12149969                0.01000001               -0.04606634               -0.04229651                0.23418411                0.04290612                0.14167168                0.15505653
               5.99811844                5.00791434               53.12350653                0.01185545               -0.03217540               -0.00220116                0.23809767                0.08645824                0.37055838                0.47550835
               6.99793260                5.00915774               53.12885959                0.01005493               -0.01400095                0.07361635                0.24959026                0.18848252                0.68638914                0.79417952
               7.99783842                5.01124507               53.13720001                0.07381859               -0.04425324                0.01105578                0.26338829                0.13000112                0.42061052                0.60548948
               8.99704754                5.01189302               53.13723954                0.15684389               -0.07895318               -0.07885627                0.26113494                0.01005587                0.00289697                0.02551276
               9.99625935                5.01246450               53.13722538                0.60695319               -0.07881827               -0.06792095                0.25900746                0.00961939                0.00026472                0.02319169
              -0.00196923                5.99939736               53.11227976                0.66429075               -0.06389643               -0.06272926                0.21347562               -0.00030758               -0.00010457                0.00043158
               0.99739181                5.99989452               53.11221139                0.10877418               -0.06383536               -0.06518395                0.21261832               -0.00254238               -0.00041228               -0.00045599
               1.99675406                6.00034565               53.11213689                0.01142981                0.05122305               -0.08131543                0.21123646                0.10773454                0.31653142               -0.03142452
               2.99841627                6.00344841               53.11840882                0.01818257                0.07076153               -0.08458000                0.22773204                0.16347806                0.41777982                0.03832741
               3.99816930                6.00542157               53.12038620                0.01000001               -0.02897499               -0.05821754                0.23178869                0.06119839                0.25447432                0.05356299
               4.99783677                6.00683612               53.12341138                0.01185687               -0.01071620               -0.02293260                0.23813409                0.08914464                0.45626818                0.37341386
               5.99795497                6.00815452               53.12944501                0.01004127                0.00938539                0.02161556                0.25129642                0.15094202                0.67517247                0.67686961
               6.99802448                6.00980228               53.13687359                0.07378561               -0.03587403               -0.00694808                0.26402084                0.08803249                0.37621522                0.41499729
               7.99723749                6.01046144               53.13695745                0.15648977               -0.07846371               -0.07853981                0.26197058                0.00303477                0.00567328                0.00140111
               8.99645520                6.01110004               53.13697491                0.26696863               -0.07802214               -0.07863492                0.25982359                0.00178975                0.00147967                0.00201723
               9.99567705                6.01172108               53.13697385                0.67081401               -0.07781545               -0.07531763                0.25768703                0.00172375                0.00060879                0.00438068
              -0.00245699                6.99876777               53.11211325                0.75079752               -0.06383009               -0.06316653                0.21334171               -0.00025221               -0.00010733                0.00057922
               0.99690471                6.99924583               53.11203916                0.22304631               -0.06360729               -0.06455870                0.21223316               -0.00126921               -0.00083530               -0.00075366
               1.99627086                6.99970212               53.11195084                0.01618748               -0.00901885               -0.06400184                0.21066350                0.10819940                0.26761916               -0.00267421
               2.99672433                7.00236376               53.11724576                0.01000001                0.03025773               -0.10052630                0.22462949                0.17075728                0.47707029               -0.00834635
               3.99687602                7.00491239               53.12137927                0.01191094                0.04508630               -0.02967829                0.23415110                0.18289423                0.56621215                0.24807561
               4.99762606                7.00678465               53.12848067                0.01005659                0.06475513                0.00040926                0.24987394                0.19535520                0.75854372                0.65901714
               5.99817112                7.00834666               53.13649644                0.07378403               -0.01198644               -0.02980931                0.26440937                0.09002837                0.40544475                0.36603654
               6.99738633                7.00901878               53.13660080                0.15652288               -0.07848839               -0.07844543                0.26242236                0.00174802                0.00686120               -0.00140395
               7.99660135                7.00967427               53.13664504                0.26706632               -0.07813186               -0.07833954                0.26030152                0.00077332                0.00308246               -0.00218745
               8.99582369                7.01032032               53.13667329                0.41991090               -0.07748026               -0.07760950                0.25816925                0.00035816                0.00145061               -0.00008585
               9.99505175                7.01095815               53.13668395                0.76094512               -0.07719439               -0.07631677                0.25602910                0.00053427                0.00063071                0.00224526
              -0.00293039                7.99813403               53.11194759                0.86054207               -0.06375331               -0.06353609                0.21320087               -0.00017675               -0.00013580                0.00075975
               0.99643208                7.99860335               53.11186589                0.37548752               -0.06347436               -0.06398350                0.21182093               -0.00044186               -0.00084044               -0.00083225
               1.99580012                7.99906561               53.11177071                0.01000000                0.00945370               -0.06339077                0.21009598                0.09486341                0.30786716               -0.00212295
               2.99662115                8.00143788               53.11786288                0.01349138                0.08030887               -0.13775134                0.22926882                0.21688771                0.66506901               -0.20308719
               3.99740630                8.00482801               53.12492619                0.01060245                0.08442266                0.01081143                0.24250282                0.34900276                0.91718457                0.72020637
               4.99830960                8.00684431               53.13610470                0.07381590                0.00575521               -0.03678234                0.26456694                0.13768230                0.56361058                0.39388373
               5.99752140                8.00755833               53.13623223                0.15647652               -0.07888922               -0.07866647                0.26275561                0.00338669                0.00733899               -0.00122417
               6.99673182                8.00823337               53.13628674                0.26705354               -0.07849947               -0.07823482                0.26068910                0.00083532                0.00314101               -0.00291018
               7.99595141                8.00889465               53.13633047                0.41999869               -0.07766654               -0.07765440                0.25857764                0.00027846                0.00221838               -0.00204135
               8.99517849                8.00954785               53.13636597                0.64136476               -0.07696689               -0.07696257                0.25644558                0.00007583                0.00117465               -0.00044439
               9.99441208                8.01019474               53.13638784                0.89397944               -0.07664116               -0.07615361                0.25430307                0.00030501                0.00055688                0.00188183
              -0.00339916                8.99749705               53.11178411                0.99990171               -0.06365500               -0.06377089                0.21303482               -0.00009097               -0.00021777                0.00072938
               0.99596429                8.99796616               53.11169364                0.58212617               -0.06336209               -0.06355786                0.21138042               -0.00004614               -0.00061411               -0.00061271
               1.99533360                8.99843431               53.11159605                0.05625235               -0.03322975               -0.06302359                0.20963433                0.03528040                0.06464207               -0.00120395
               2.99529969                8.99960874               53.11281060                0.02068171                0.15580272               -0.13797925                0.21804473                0.21291807                1.19986306               -0.24963165
               3.99844965                9.00512861               53.13536340                0.07953655                0.11748438               -0.02781279                0.26165320                0.32670143                1.14981897                0.53632780
               4.99764938                9.00604900               53.13585411                0.15685337               -0.07999285               -0.07947780                0.26266842                0.01182135                0.02585412               -0.00030327
               5.99684979                9.00677333               53.13593843                0.26693135               -0.07913310               -0.07836898                0.26097249                0.00207325                0.00345337               -0.00165561
               6.99606672                9.00745408               53.13598334                0.41984478               -0.07786744               -0.07770745                0.25893529                0.00040436                0.00108799               -0.00149515
               7.99529244                9.00812119               53.13602031                0.64129554               -0.07708023               -0.07707993                0.25682742                0.00008251                0.00067154               -0.00116610
               8.99452511                9.00878107               53.13605616                0.98244672               -0.07641932               -0.07642181                0.25469458                0.00000702                0.00052839               -0.00047541
               9.99376406                9.00943508               53.13608916                0.99531952               -0.07610555               -0.07571827                0.25254879                0.00026758                0.00045451                0.00130538
              -0.00387043                9.99685861               53.11161840                1.00000000               -0.06356680               -0.06384436                0.21279327                0.00023102                0.00034198                0.00055328
               0.99549390                9.99733219               53.11152566                0.86049044               -0.06332058               -0.06339751                0.21107903                0.00028780                0.00035273               -0.00043063
               1.99486316                9.99780514               53.11143422                0.55998240               -0.06543482               -0.06291664                0.20956659                0.02026155                0.05795002               -0.00055821
               2.99418520                9.99867830               53.11249377                0.53204846                0.13184557               -0.09304397                0.21751498                0.21188163                1.19692437               -0.01387172
               3.99750007               10.00427175               53.13520312                0.56430241                0.13580577               -0.08568644                0.26019603                0.23386445                1.14977889                0.00644363
               4.99690132               10.00525475               53.13559487                0.60696205               -0.06711421               -0.07942470                0.26088758                0.01115392                0.01856106               -0.00073180
               5.99615778               10.00599095               53.13566498                0.67078496               -0.07546360               -0.07823754                0.25918786                0.00202253                0.00076381               -0.00061717
               6.99539205               10.00667922               53.13569689                0.76089010               -0.07658533               -0.07748628                0.25715807                0.00063784               -0.00139868               -0.00061276
               7.99462608               10.00735305               53.13572234                0.89390407               -0.07636557               -0.07681361                0.25505668                0.00037287               -0.00170381               -0.00050618
               8.99386473               10.00801941               53.13574704                0.99531848               -0.07583320               -0.07616589                0.25292933                0.00032866               -0.00126473               -0.00037695
               9.99310941               10.00868038               53.13578003                0.99097248               -0.07553225               -0.07547003                0.25078400                0.00063214               -0.00077631                0.00086171
               0.00186299                0.00329237               54.11542633                0.78950658               -0.06391496               -0.06390687                0.21408118               -0.00001058                0.00098217               -0.00087769
               1.00122384                0.00402820               54.11532391                0.53017535               -0.06290883               -0.06441181                0.21394317                0.00071059                0.00162720                0.00067731
               2.00060481                0.00478818               54.11523196                0.48486226               -0.06152210               -0.06408629                0.21386182                0.00022537                0.00218938               -0.00013656
               2.99999340                0.00560117               54.11513531                0.50630261               -0.06128342               -0.06410177                0.21382308               -0.00024836                0.00234549               -0.00023380
               3.99937914                0.00647074               54.11503973                0.54460669               -0.06168280               -0.06405704                0.21379899               -0.00034775                0.00278282               -0.00026363
               4.99875974                0.00738902               54.11494570                0.59662029               -0.06221431               -0.06401839                0.21378081               -0.00034091                0.00318427               -0.00027572
               5.99813486                0.00834485               54.11485323                0.66428419               -0.06274869               -0.06398026                0.21375936               -0.00030290                0.00353594               -0.00029822
               6.99750477                0.00932675               54.11476267                0.75069780               -0.06324335               -0.06394442                0.21373208               -0.00024485                0.00390596               -0.00039012
               7.99686999                0.01032357               54.11467541                0.86031859               -0.06366496               -0.06389658                0.21369606               -0.00016574                0.00438490               -0.00055890
               8.99623147                0.01132522               54.11459362                0.99948065               -0.06395077               -0.06383516                0.21365770               -0.00007589                0.00386292               -0.00081363
               9.99559097                0.01232428               54.11449649                1.00000000               -0.06404932               -0.06378337                0.21353297                0.00025988                0.00301288                0.00234317
               0.00112705                1.00265330               54.11525769                0.53018113               -0.06440093               -0.06288409                0.21389629                0.00070315               -0.00071303               -0.00091977
               1.00048304                1.00338408               54.11515448                0.01246726               -0.06532347               -0.06534283                0.21374990                0.00225230               -0.00142156                0.00159036
               1.99982058                1.00414731               54.11503591                0.01000000               -0.06667053               -0.04612538                0.21363417                0.02319973               -0.00240941                0.02687579
               2.99914963                1.00496015               54.11491507                0.01000001               -0.06694221               -0.02264839                0.21350913                0.04218433               -0.00290773                0.06655665
               3.99848174                1.00583017               54.11479067                0.01000000               -0.06651773               -0.00905499                0.21334331                0.03699805               -0.00344324                0.08713684
               4.99781928                1.00674884               54.11466326                0.02257084               -0.06593862               -0.04390068                0.21313239                0.01183682               -0.00389215                0.02824138
               5.99716297                1.00770505               54.11453350                0.10875369               -0.06531602               -0.06393234                0.21287850               -0.00265620               -0.00423032               -0.00423825
               6.99651296                1.00868731               54.11440221                0.22290798               -0.06469344               -0.06371568                0.21258801               -0.00131651               -0.00436849               -0.00394980
               7.99586910                1.00968461               54.11427179                0.37515539               -0.06412998               -0.06360748                0.21226884               -0.00046112               -0.00419738               -0.00326282
               8.99523036                1.01068687               54.11414529                0.58143465               -0.06372892               -0.06353072                0.21193999               -0.00005540               -0.00310378               -0.00185336
               9.99459452                1.01168644               54.11403767                0.86001621               -0.06358384               -0.06352275                0.21174771                0.00029718               -0.00220685                0.00349341
               0.00041549                2.00203469               54.11508581                0.48487076               -0.06406138               -0.06145133                0.21377327                0.00021432               -0.00016191               -0.00061602
               0.99977487                2.00272135               54.11500213                0.01000000               -0.04613744               -0.06671493                0.21357829                0.02326682                0.02292039                0.00200473
               1.99949274                2.00386567               54.11537882                0.01000001               -0.03103233               -0.03086032                0.21502657                0.09538367                0.05971619                0.06767082
               2.99915423                2.00514820               54.11602976                0.01000000               -0.05811622                0.00527280                0.21655590                0.12395972                0.05314343                0.13538070
               3.99833041                2.00628964               54.11628903                0.01000000               -0.10163138                0.04263451                0.21705663                0.09750864               -0.04731751                0.22123976
               4.99712160                2.00651101               54.11495086                0.01000001               -0.10935732                0.03231238                0.21319836                0.06488482               -0.10297545                0.25251374
               5.99614327                2.00706620               54.11413497                0.01142846               -0.08113620                0.05065836                0.21145972                0.10279709               -0.04455722                0.34549769
               6.99549888                2.00805244               54.11397091                0.01618373               -0.06410325               -0.00959194                0.21097437                0.10331717               -0.01159090                0.29683823
               7.99486120                2.00905142               54.11381479                0.01000000               -0.06351761                0.00718218                0.21048841                0.08937640               -0.01027853                0.34572665
               8.99422852                2.01005461               54.11367730                0.05610782               -0.06317155               -0.03478127                0.21011060                0.03311333               -0.00616223                0.07123470
               9.99359777                2.01105382               54.11360344                0.55986686               -0.06307514               -0.06489406                0.21014998                0.01831735               -0.00297796                0.07087672
              -0.00024197                3.00142428               54.11491777                0.50630452               -0.06406259               -0.06116427                0.21369169               -0.00027252               -0.00016759               -0.00006858
               0.99911740                3.00204978               54.11484323                0.01000001               -0.02283129               -0.06700596                0.21339991                0.04249696                0.06131664                0.00120345
               1.99930140                3.00353011               54.11599750                0.01000000                0.00437276               -0.05792632                0.21650484                0.12465114                0.12446597                0.06197317
               2.99920485                3.00506561               54.11719193                0.01000000               -0.01161496               -0.00951950                0.21948577                0.16715979                0.14320887                0.15499658
               3.99906910                3.00668286               54.11872797                0.01197640               -0.04322220                0.00547078                0.22311912                0.15095431                0.10444623                0.22286361
               4.99834041                3.00739509               54.11916127                0.01000000               -0.06958092                0.07158794                0.22385294                0.18863438                0.10968632                0.43653801
               5.99767748                3.00871821               54.12081131                0.01818755               -0.08731661                0.07124946                0.22772022                0.15668514                0.02769239                0.46450349
               6.99659408                3.00849547               54.11962611                0.01000001               -0.10115143                0.03014523                0.22474180                0.16122192               -0.01671627                0.53278859
               7.99565445                3.00982825               54.12039073                0.01355874               -0.13519269                0.07758283                0.22985644                0.20136211               -0.24293655                0.74088512
               8.99389022                3.00999124               54.11469080                0.02078923               -0.13460086                0.14696451                0.21964512                0.19158502               -0.29093072                1.34599135
               9.99296244                3.01038856               54.11449290                0.53208465               -0.09277883                0.11701789                0.21920601                0.19258580               -0.01683002                1.35253534
              -0.00084098                4.00081140               54.11474998                0.54461524               -0.06400359               -0.06153524                0.21362408               -0.00037600               -0.00015430                0.00026473
               0.99851898                4.00138123               54.11467926                0.01000000               -0.00945391               -0.06657689                0.21317804                0.03748450                0.08147720                0.00048401
               1.99896994                4.00270714               54.11624057                0.01000000                0.04128441               -0.10213436                0.21697279                0.10043843                0.20790445               -0.03082698
               2.99934467                4.00495781               54.11870471                0.01197683                0.00250397               -0.04048211                0.22307231                0.15362125                0.20745335                0.11596004
               3.99902002                4.00639905               54.12026182                0.01000000               -0.02428688               -0.01896238                0.22659942                0.15015850                0.22745952                0.24101328
               4.99885893                4.00794277               54.12314036                0.01806094               -0.04217136                0.00518155                0.23318244                0.11844024                0.13221646                0.26071903
               5.99817659                4.00849119               54.12280972                0.01000001               -0.06228280               -0.02589386                0.23168417                0.05932050                0.04432276                0.28381053
               6.99761328                4.00865534               54.12394313                0.01192241               -0.03919625                0.04880496                0.23409472                0.17378261                0.25553273                0.61973569
               7.99739267                4.01060308               54.12785368                0.01064939               -0.00566822                0.08587036                0.24223233                0.32745451                0.78878687                1.00923495
               8.99749991                4.01299390               54.13966699                0.07958108               -0.03689069                0.11072046                0.25922932                0.29875958                0.59651504                1.29055247
               9.99665485                4.01339418               54.13971180                0.56429673               -0.08450589                0.11985813                0.25740871                0.20624279                0.00817936                1.29835760
              -0.00138914                5.00019357               54.11458234                0.59663791               -0.06395092               -0.06205579                0.21356485               -0.00036977               -0.00014043                0.00052315
               0.99797135                5.00071825               54.11451042                0.02259413               -0.04386385               -0.06597625                0.21291115                0.01190703                0.02913269               -0.00016069
               1.99773358                5.00148742               54.11502369                0.01000001                0.03070077               -0.11027229                0.21296658                0.06962890                0.23605864               -0.08371733
               2.99858537                5.00425596               54.11909745                0.01000000                0.06768640               -0.06581653                0.22381054                0.19739842                0.40850320                0.11946031
               3.99908731                5.00630361               54.12307372                0.01806289                0.00158563               -0.03777154                0.23317804                0.12213366                0.24261817                0.14532658
               4.99861708                5.00749872               54.12384103                0.01000001               -0.04679952               -0.04281659                0.23410199                0.04576700                0.14548725                0.15882013
               5.99815132                5.00820034               54.12588768                0.01186802               -0.03296187               -0.00273711                0.23809240                0.08906348                0.37973766                0.48676839
               6.99795784                5.00947157               54.13135583                0.01007650               -0.01431672                0.07175280                0.24964470                0.18865137                0.70067010                0.81073362
               7.99786499                5.01154566               54.13983328                0.07385378               -0.04417629                0.00793202                0.26324572                0.12977992                0.42842666                0.61708299
               8.99707432                5.01220565               54.13984997                0.15692606               -0.07891295               -0.07908899                0.26091940                0.01063084                0.00279962                0.02741499
               9.99628673                5.01278572               54.13981433                0.60700986               -0.07875884               -0.06749177                0.25875359                0.01000900                0.00024759                0.02487746
              -0.00189773                5.99957029               54.11441464                0.66430863               -0.06389950               -0.06259196                0.21350403               -0.00033069               -0.00012660                0.00071241
               0.99746327                6.00006170               54.11433749                0.10879256               -0.06387345               -0.06531973                0.21260065               -0.00285064               -0.00069800               -0.00067474
               1.99682480                6.00050170               54.11424898                0.01143044                0.05065861               -0.08147561                0.21111505                0.10976642                0.32495393               -0.03283673
               2.99847645                6.00364148               54.12068637                0.01818889                0.06975686               -0.08500391                0.22774965                0.16720493                0.42950638                0.03934462
               3.99821994                6.00564362               54.12270387                0.01000001               -0.02994493               -0.05876237                0.23171626                0.06428207                0.26112595                0.05507600
               4.99787755                6.00708644               54.12579252                0.01186728               -0.01174614               -0.02314841                0.23811551                0.09190252                0.46761024                0.38267453
               5.99798502                6.00843645               54.13195894                0.01006171                0.00817172                0.02109442                0.25135660                0.15143384                0.68990397                0.69158004
               6.99804098                6.01009040               54.13951333                0.07381631               -0.03654186               -0.00822906                0.26392193                0.08793426                0.38360342                0.42313242
               7.99725418                6.01076172               54.13957654                0.15653569               -0.07842601               -0.07854797                0.26182876                0.00316646                0.00569735                0.00161890
               8.99647246                6.01141212               54.13957230                0.26704108               -0.07796428               -0.07864615                0.25963785                0.00188768                0.00146831                0.00229769
               9.99569489                6.01204434               54.13954966                0.67086108               -0.07775700               -0.07516644                0.25746049                0.00179257                0.00061221                0.00464476
              -0.00237858                6.99894173               54.11424710                0.75075192               -0.06384899               -0.06309736                0.21343620               -0.00026945               -0.00013381                0.00087181
               0.99698293                6.99941185               54.11416159                0.22297277               -0.06361437               -0.06465428                0.21225011               -0.00141677               -0.00110497               -0.00100731
               1.99634913                6.99985791               54.11405707                0.01618662               -0.00976964               -0.06402290                0.21055353                0.11030932                0.27494652               -0.00341636
               2.99678754                7.00255589               54.11949246                0.01000001                0.02894312               -0.10072692                0.22465480                0.17475865                0.49018257               -0.00701217
               3.99692799                7.00512836               54.12372091                0.01192374                0.04373836               -0.03002932                0.23420513                0.18626209                0.58038096                0.25449156
               4.99766230                7.00703575               54.13098044                0.01007919                0.06240220                0.00093906                0.25002491                0.19597881                0.77558941                0.67374904
               5.99817604                7.00862222               54.13914030                0.07381495               -0.01355244               -0.03012376                0.26433396                0.09003058                0.41377542                0.37347073
               6.99739126                7.00930698               54.13922456                0.15656989               -0.07847222               -0.07842663                0.26230840                0.00181251                0.00692938               -0.00130105
               7.99660659                7.00997470               54.13924742                0.26713583               -0.07809052               -0.07831348                0.26015643                0.00081171                0.00308677               -0.00212175
               8.99582945                7.01063273               54.13925409                0.42002098               -0.07742344               -0.07756610                0.25797957                0.00037486                0.00145131               -0.00001429
               9.99505813                7.01128240               54.13924312                0.76101388               -0.07713193               -0.07622872                0.25579648                0.00054735                0.00063396                0.00231144
              -0.00284336                7.99830834               54.11408037                0.86038590               -0.06378743               -0.06353309                0.21336334               -0.00018466               -0.00017373                0.00104188
               0.99651876                7.99876862               54.11398437                0.37525476               -0.06348423               -0.06404446                0.21187284               -0.00049662               -0.00106826               -0.00111743
               1.99588695                7.99922124               54.11387125                0.01000000                0.00911994               -0.06339560                0.20999856                0.09693098                0.31805009               -0.00279151
               2.99670116                8.00162694               54.12015732                0.01356233                0.07891807               -0.13791672                0.22963944                0.22290962                0.68293602               -0.20584746
               3.99746531                8.00504304               54.12735105                0.01065607                0.08010505                0.01165177                0.24260715                0.34936541                0.93675581                0.73502421
               4.99830326                8.00710522               54.13875017                0.07385070                0.00245390               -0.03630213                0.26451487                0.13798696                0.57586854                0.40197138
               5.99751439                8.00783397               54.13885950                0.15652396               -0.07892525               -0.07864472                0.26267299                0.00354869                0.00753006               -0.00116906
               6.99672476                8.00852186               54.13889313                0.26712145               -0.07848635               -0.07820096                0.26057341                0.00087828                0.00318023               -0.00287907
               7.99594467                8.00919545               54.13891551                0.42010908               -0.07762483               -0.07761140                0.25841986                0.00029019                0.00223203               -0.00201120
               8.99517226                8.00986080               54.13892948                0.64155241               -0.07690782               -0.07690496                0.25624510                0.00007894                0.00117944               -0.00041768
               9.99440651                8.01051977               54.13892971                0.89409704               -0.07657526               -0.07607642                0.25406047                0.00030855                0.00056058                0.00190371
              -0.00330282                8.99767107               54.11391544                0.99956811               -0.06370770               -0.06382550                0.21327895               -0.00008801               -0.00025964                0.00094904
               0.99606010                8.99813096               54.11380778                0.58158943               -0.06338757               -0.06360253                0.21147891               -0.00005671               -0.00072152               -0.00084749
               1.99542943                8.99858999               54.11369210                0.05626680               -0.03180850               -0.06301773                0.20956587                0.03736778                0.06977264               -0.00160065
               2.99542393                8.99979755               54.11499432                0.02115449                0.15038000               -0.13850891                0.21873031                0.21741785                1.22778880               -0.25533273
               3.99843703                9.00536140               54.13797862                0.07985888                0.11035887               -0.02692885                0.26137577                0.32521099                1.17417617                0.54669864
               4.99763111                9.00630971               54.13848046                0.15693002               -0.08033289               -0.07948515                0.26258367                0.01255957                0.02772383               -0.00038572
               5.99683037                9.00704933               54.13854779                0.26700251               -0.07918816               -0.07833946                0.26088087                0.00219698                0.00372913               -0.00165528
               6.99604734                9.00774297               54.13857214                0.41995162               -0.07784507               -0.07766860                0.25880672                0.00042442                0.00115149               -0.00147902
               7.99527347                9.00842247               54.13858777                0.64147284               -0.07703200               -0.07702970                0.25665717                0.00008593                0.00069173               -0.00115228
               8.99450670                9.00909463               54.13860207                0.98278219               -0.07635590               -0.07635856                0.25448186                0.00000706                0.00053489               -0.00046622
               9.99374635                9.00976087               54.13861339                0.99561147               -0.07603556               -0.07564062                0.25229373                0.00026932                0.00045686                0.00130887
              -0.00376491                9.99703183               54.11374749                1.00000000               -0.06363858               -0.06392393                0.21310281                0.00026478                0.00051784                0.00070772
               0.99559870                9.99749656               54.11363695                0.86011355               -0.06336849               -0.06343987                0.21123351                0.00031311                0.00061031               -0.00060795
               1.99496772                9.99796088               54.11352993                0.56001368               -0.06602947               -0.06291114                0.20957481                0.02183944                0.06323504               -0.00074397
               2.99427812                9.99885676               54.11467246                0.53245548                0.12448287               -0.09407883                0.21826027                0.21259736                1.22387503               -0.01434667
               3.99745738               10.00450446               54.13780382                0.56458327                0.12942044               -0.08569388                0.25993303                0.23497289                1.17330195                0.00659311
               4.99686652               10.00551552               54.13820335                0.60701849               -0.06661513               -0.07941923                0.26079360                0.01167786                0.02022243               -0.00074362
               5.99612508               10.00626718               54.13825643                0.67082991               -0.07532086               -0.07821458                0.25908476                0.00211955                0.00104163               -0.00060981
               6.99536011               10.00696849               54.13826783                0.76095442               -0.07651785               -0.07744736                0.25701618                0.00065987               -0.00132004               -0.00060227
               7.99459472               10.00765486               54.13827202                0.89401653               -0.07630504               -0.07676139                0.25487419                0.00038183               -0.00166963               -0.00049867
               8.99383401               10.00833362               54.13827522                0.99561271               -0.07576471               -0.07610070                0.25270472                0.00033525               -0.00124917               -0.00037233
               9.99307942               10.00900696               54.13828653                0.99105698               -0.07545817               -0.07539098                0.25051696                0.00064087               -0.00076964                0.00086059
               0.00197594                0.00345319               55.11756542                0.78972932               -0.06378770               -0.06378057                0.21372068                0.00001044                0.00098385               -0.00086938
               1.00133806                0.00420536               55.11746186                0.53048231               -0.06270117               -0.06435143                0.21363775                0.00077843                0.00166966                0.00067339
               2.00072192                0.00498394               55.11736940                0.48505499               -0.06119993               -0.06402148                0.21361713                0.00025317                0.00231598               -0.00015310
               3.00011406                0.00582054               55.11727267                0.50644169               -0.06094340               -0.06405709                0.21363756               -0.00026667                0.00253986               -0.00025700
               3.99950305                0.00671932               55.11717712                0.54472310               -0.06139056               -0.06402623                0.21367558               -0.00037599                0.00302456               -0.00028690
               4.99888625                0.00767184               55.11708324                0.59669226               -0.06198960               -0.06400341                0.21372547               -0.00036807                0.00345752               -0.00029839
               5.99826325                0.00866588               55.11699085                0.66430845               -0.06259626               -0.06398209                0.21377360               -0.00032604                0.00382747               -0.00032064
               6.99763433                0.00968888               55.11690041                0.75066107               -0.06316379               -0.06396387                0.21381861               -0.00026141                0.00420530               -0.00041843
               7.99699998                0.01072854               55.11681317                0.86015309               -0.06365930               -0.06393537                0.21386545               -0.00017259                0.00468782               -0.00059727
               8.99636114                0.01177374               55.11673151                0.99914371               -0.06401111               -0.06389638                0.21392965               -0.00007171                0.00411878               -0.00086888
               9.99571976                0.01281621               55.11663355                1.00000000               -0.06413837               -0.06386709                0.21388483                0.00029604                0.00321323                0.00250412
               0.00122388                1.00281539               55.11739521                0.53048997               -0.06434033               -0.06267713                0.21359431                0.00077114               -0.00071398               -0.00086995
               1.00058047                1.00356185               55.11729077                0.01240797               -0.06535097               -0.06537365                0.21350105                0.00243799               -0.00140410                0.00159852
               1.99991686                1.00434372               55.11717130                0.01000000               -0.06683857               -0.04604360                0.21343861                0.02368089               -0.00240044                0.02767129
               2.99924370                1.00517996               55.11704946                0.01000001               -0.06716115               -0.02272988                0.21335910                0.04266556               -0.00295645                0.06820338
               3.99857364                1.00607906               55.11692359                0.01000000               -0.06672066               -0.00912837                0.21323414                0.03731355               -0.00356165                0.08919049
               4.99790929                1.00703180               55.11679426                0.02264173               -0.06610801               -0.04406217                0.21306441                0.01144812               -0.00407403                0.02852249
               5.99725148                1.00802606               55.11666212                0.10877461               -0.06544530               -0.06396825                0.21284932               -0.00296735               -0.00446441               -0.00453959
               6.99660038                1.00904924               55.11652816                0.22283329               -0.06478262               -0.06372247                0.21259753               -0.00146618               -0.00464179               -0.00422942
               7.99595582                1.01008919               55.11639476                0.37491858               -0.06418982               -0.06362066                0.21232583               -0.00051819               -0.00449149               -0.00349109
               8.99531659                1.01113477               55.11626529                0.58087089               -0.06377906               -0.06356352                0.21206146               -0.00006673               -0.00333187               -0.00197887
               9.99468024                1.01217754               55.11615610                0.85962636               -0.06363458               -0.06358194                0.21193863                0.00032388               -0.00236763                0.00373839
               0.00049845                2.00219965               55.11722238                0.48505776               -0.06399605               -0.06112666                0.21353447                0.00024086               -0.00017893               -0.00048075
               0.99985849                2.00289789               55.11713696                0.01000000               -0.04605178               -0.06689264                0.21338359                0.02375027                0.02372850                0.00199931
               1.99957741                2.00406306               55.11752834                0.01000001               -0.03132261               -0.03115787                0.21487606                0.09625930                0.06145648                0.06938726
               2.99923204                2.00536594               55.11819453                0.01000000               -0.05899674                0.00505363                0.21638945                0.12522659                0.05443108                0.13881879
               3.99839748                2.00653675               55.11845897                0.01000000               -0.10319126                0.04253670                0.21691404                0.09916545               -0.04888309                0.22677999
               4.99716821                2.00679060               55.11708140                0.01000001               -0.11055019                0.03195203                0.21294879                0.06696524               -0.10593184                0.25856867
               5.99618647                2.00738652               55.11624906                0.01143316               -0.08131660                0.05034537                0.21131114                0.10486038               -0.04591924                0.35378809
               6.99554188                2.00841443               55.11608009                0.01618113               -0.06411971               -0.01028164                0.21085038                0.10543587               -0.01236520                0.30406102
               7.99490408                2.00945613               55.11591926                0.01000000               -0.06352136                0.00676373                0.21038663                0.09134216               -0.01098839                0.35601922
               8.99427145                2.01050247               55.11577809                0.05612012               -0.06316911               -0.03343908                0.21005178                0.03508572               -0.00659497                0.07698317
               9.99364070                2.01154457               55.11570501                0.55989808               -0.06307538               -0.06547407                0.21018214                0.01979679               -0.00318919                0.07678920
              -0.00016777                3.00159286               55.11705384                0.50645131               -0.06401590               -0.06081716                0.21351213               -0.00029339               -0.00019186                0.00013740
               0.99919207                3.00222399               55.11697652                0.01000001               -0.02291167               -0.06723946                0.21324850                0.04299026                0.06298257                0.00114129
               1.99937399                3.00372056               55.11816177                0.01000000                0.00412389               -0.05880979                0.21634519                0.12596538                0.12794756                0.06324719
               2.99927455                3.00528104               55.11938602                0.01000000               -0.01208526               -0.00989449                0.21932039                0.16952450                0.14707400                0.15882454
               3.99913229                3.00692979               55.12095844                0.01197874               -0.04378570                0.00522701                0.22293062                0.15370694                0.10728457                0.22854246
               4.99839883                3.00767085               55.12139920                0.01000000               -0.07037183                0.07130366                0.22370964                0.19238257                0.11262830                0.44759890
               5.99772485                3.00903297               55.12308832                0.01819463               -0.08796690                0.07059316                0.22764127                0.16051136                0.02872508                0.47600161
               6.99663949                3.00884361               55.12187350                0.01000001               -0.10151119                0.02902603                0.22470088                0.16509262               -0.01512738                0.54565857
               7.99569463                3.01022446               55.12269077                0.01363107               -0.13548183                0.07631754                0.23027881                0.20714633               -0.24498665                0.75855215
               8.99392986                3.01046599               55.11689116                0.02128004               -0.13513315                0.14132881                0.22043784                0.19589234               -0.29616069                1.37246254
               9.99299196                3.01086806               55.11668925                0.53250520               -0.09378923                0.10903232                0.22006471                0.19325171               -0.01728198                1.37775074
              -0.00076969                4.00098331               55.11688569                0.54473148               -0.06397227               -0.06123422                0.21351078               -0.00040678               -0.00017867                0.00052000
               0.99859058                4.00155310               55.11681053                0.01000000               -0.00953158               -0.06679644                0.21306943                0.03783213                0.08356624                0.00034951
               1.99903968                4.00288687               55.11840967                0.01000000                0.04113561               -0.10374487                0.21680412                0.10225847                0.21351988               -0.03247119
               2.99941330                4.00516805               55.12093472                0.01197785                0.00210668               -0.04090663                0.22291829                0.15653062                0.21321378                0.11879864
               3.99908181                4.00664130               55.12252717                0.01000000               -0.02503055               -0.01942874                0.22643358                0.15324374                0.23353126                0.24701310
               4.99891269                4.00821667               55.12547197                0.01806574               -0.04289337                0.00483518                0.23305860                0.12150747                0.13588631                0.26714667
               5.99822394                4.00879838               55.12512649                0.01000001               -0.06302226               -0.02662396                0.23159556                0.06259116                0.04586598                0.29040184
               6.99765224                4.00899495               55.12628421                0.01193821               -0.03996606                0.04793042                0.23408060                0.17725074                0.26188786                0.63358699
               7.99742462                4.01098248               55.13027595                0.01070597               -0.00532700                0.08197067                0.24228215                0.32761398                0.80255964                1.02788271
               8.99754570                4.01332904               55.14225686                0.07991246               -0.03615128                0.10350140                0.25873427                0.29676790                0.60591782                1.31279337
               9.99670160                4.01372522               55.14228341                0.56458911               -0.08441052                0.11280697                0.25690816                0.20679844                0.00831733                1.31948576
              -0.00131549                5.00036817               55.11671778                0.59671982               -0.06393638               -0.06182314                0.21352187               -0.00039967               -0.00016464                0.00081474
               0.99804515                5.00088806               55.11663922                0.02265783               -0.04401512               -0.06616179                0.21284345                0.01152059                0.02941086               -0.00035903
               1.99780421                5.00164567               55.11715191                0.01000001                0.03027907               -0.11156663                0.21280473                0.07197139                0.24223347               -0.08683823
               2.99865073                5.00446290               55.12133516                0.01000000                0.06721657               -0.06638801                0.22366254                0.20168832                0.41974645                0.12244468
               3.99914854                5.00654122               55.12540500                0.01806225                0.00105811               -0.03826951                0.23312570                0.12542533                0.24917227                0.14895550
               4.99867189                5.00776755               55.12618173                0.01000001               -0.04750738               -0.04332290                0.23401870                0.04902455                0.14937166                0.16261288
               5.99819839                5.00850049               55.12826838                0.01187757               -0.03357409               -0.00324401                0.23800627                0.09214794                0.38898115                0.49801739
               6.99800041                5.00980221               55.13385249                0.01010337               -0.01427913                0.07006261                0.24960732                0.18950440                0.71488837                0.82728090
               7.99791281                5.01186388               55.14246492                0.07389328               -0.04389692                0.00485983                0.26303908                0.13008282                0.43613199                0.62861045
               8.99712247                5.01253602               55.14245793                0.15700999               -0.07886166               -0.07935868                0.26065780                0.01130369                0.00267492                0.02946978
               9.99633558                5.01312420               55.14240045                0.60706822               -0.07868943               -0.06700137                0.25846286                0.01046678                0.00022544                0.02669567
              -0.00181747                5.99974685               55.11654984                0.66434213               -0.06390285               -0.06243451                0.21353488               -0.00035605               -0.00015162                0.00102302
               0.99754350                6.00022986               55.11646340                0.10880123               -0.06391333               -0.06546294                0.21257335               -0.00319100               -0.00104471               -0.00092901
               1.99690426                6.00065554               55.11635919                0.01143470                0.05040054               -0.08170692                0.21096251                0.11225685                0.33343097               -0.03428309
               2.99855151                6.00384029               55.12296382                0.01819571                0.06907048               -0.08551660                0.22767000                0.17168925                0.44130529                0.04031921
               3.99828567                6.00587590               55.12502053                0.01000001               -0.03088034               -0.05930919                0.23164952                0.06785219                0.26786623                0.05666020
               4.99793390                6.00735021               55.12817369                0.01187931               -0.01267178               -0.02327861                0.23809727                0.09520797                0.47904574                0.39199781
               5.99803224                6.00873350               55.13447215                0.01008208                0.00725202                0.02075072                0.25133026                0.15250521                0.70461234                0.70627807
               6.99807894                6.01039620               55.14215203                0.07385224               -0.03698825               -0.00946260                0.26376157                0.08817795                0.39098215                0.43118843
               7.99729247                6.01107968               55.14219403                0.15658415               -0.07837474               -0.07855059                0.26164929                0.00332045                0.00570858                0.00184471
               8.99651145                6.01174187               55.14216766                0.26712154               -0.07789502               -0.07865830                0.25941683                0.00200328                0.00145436                0.00260874
               9.99573457                6.01238519               55.14212306                0.67090848               -0.07768791               -0.07499335                0.25720429                0.00187251                0.00061508                0.00493636
              -0.00228864                6.99911948               55.11638197                0.75069906               -0.06387221               -0.06301575                0.21354438               -0.00028815               -0.00016446                0.00118941
               0.99707264                6.99957880               55.11628416                0.22289401               -0.06362202               -0.06475275                0.21226349               -0.00158126               -0.00141121               -0.00130490
               1.99643892                7.00001153               55.11616191                0.01618741               -0.01042461               -0.06403903                0.21040669                0.11288413                0.28233607               -0.00423044
               2.99686415                7.00275257               55.12173886                0.01000001                0.02783713               -0.10106059                0.22459992                0.17960324                0.50341817               -0.00555230
               3.99699566                7.00535504               55.12606337                0.01194151                0.04271542               -0.03025637                0.23423601                0.19061520                0.59463504                0.26104553
               4.99771846                7.00730198               55.13348117                0.01010147                0.06034227                0.00167508                0.25001410                0.19725440                0.79248798                0.68837380
               5.99820251                7.00891551               55.14178312                0.07384442               -0.01503293               -0.03030242                0.26421838                0.09038952                0.42202804                0.38089636
               6.99741780                7.00961296               55.14184697                0.15661479               -0.07844785               -0.07839958                0.26217113                0.00189123                0.00700452               -0.00120301
               7.99663355                7.01029286               55.14184817                0.26721523               -0.07803879               -0.07828008                0.25997551                0.00085613                0.00309480               -0.00205173
               8.99585702                7.01096285               55.14183288                0.42013573               -0.07735849               -0.07751770                0.25776535                0.00039525                0.00145058                0.00006110
               9.99508638                7.01162433               55.14179988                0.76108521               -0.07706391               -0.07613258                0.25554843                0.00056130                0.00063668                0.00238015
              -0.00274188                7.99848653               55.11621486                0.86022196               -0.06382905               -0.06352848                0.21355293               -0.00019263               -0.00021545                0.00136820
               0.99661983                7.99893481               55.11610335                0.37501277               -0.06349705               -0.06410835                0.21192948               -0.00056103               -0.00131748               -0.00143113
               1.99598818                7.99937476               55.11597068                0.01000000                0.00901211               -0.06339587                0.20987487                0.09939283                0.32852471               -0.00354457
               2.99680007                8.00181908               55.12245567                0.01363959                0.07801975               -0.13828140                0.22998975                0.23004100                0.70114364               -0.20831765
               3.99754857                8.00527078               55.12977834                0.01071019                0.07592262                0.01273894                0.24276835                0.35080027                0.95630013                0.74964788
               4.99831852                8.00738371               55.14139500                0.07389097               -0.00097650               -0.03569378                0.26440105                0.13864513                0.58799184                0.40996015
               5.99752904                8.00812745               55.14148569                0.15657154               -0.07895550               -0.07861033                0.26255265                0.00373422                0.00772589               -0.00111076
               6.99673941                8.00882821               55.14149821                0.26719784               -0.07846700               -0.07815808                0.26042512                0.00092976                0.00322729               -0.00284352
               7.99595970                8.00951407               55.14149887                0.42022759               -0.07757631               -0.07756117                0.25823562                0.00030480                0.00224389               -0.00198035
               8.99518789                8.01019152               55.14149087                0.64174645               -0.07684316               -0.07684219                0.25602568                0.00008166                0.00118187               -0.00039114
               9.99442284                8.01086254               55.14146905                0.89422019               -0.07650470               -0.07599514                0.25380610                0.00031120                0.00056303                0.00192470
              -0.00318904                8.99784891               55.11604969                0.99922715               -0.06377635               -0.06389363                0.21358306               -0.00008322               -0.00031713                0.00122399
               0.99617319                8.99829664               55.11592321                0.58103871               -0.06342249               -0.06365599                0.21160700               -0.00007326               -0.00085341               -0.00108905
               1.99554251                8.99874361               55.11578737                0.05628047               -0.03021244               -0.06300812                0.20947927                0.03972390                0.07536289               -0.00205488
               2.99556895                8.99998694               55.11718521                0.02164639                0.14522628               -0.13919965                0.21947911                0.22274724                1.25582238               -0.26091476
               3.99844703                9.00560981               55.14059092                0.08019770                0.10328685               -0.02587858                0.26101597                0.32439010                1.19818147                0.55678427
               4.99763468                9.00658810               55.14110578                0.15701351               -0.08071680               -0.07948063                0.26245130                0.01340648                0.02972578               -0.00048907
               5.99683270                9.00734330               55.14115604                0.26707836               -0.07924550               -0.07829794                0.26075291                0.00233946                0.00402385               -0.00165217
               6.99604977                9.00804980               55.14115948                0.42006108               -0.07781779               -0.07762117                0.25865198                0.00044919                0.00122060               -0.00146539
               7.99527634                9.00874164               55.14115345                0.64166043               -0.07697926               -0.07697442                0.25647004                0.00009022                0.00071362               -0.00113871
               8.99451019                9.00942601               55.14114580                0.98312362               -0.07628934               -0.07629202                0.25425822                0.00000691                0.00054005               -0.00045612
               9.99375055                9.01010443               55.14113504                0.99591215               -0.07596324               -0.07556150                0.25203399                0.00026965                0.00045824                0.00131267
              -0.00363900                9.99720866               55.11588045                1.00000000               -0.06373378               -0.06402528                0.21349715                0.00030706                0.00069481                0.00091852
               0.99572366                9.99766169               55.11575033                0.85972552               -0.06343261               -0.06349512                0.21143859                0.00034354                0.00087762               -0.00077979
               1.99509235                9.99811459               55.11562572                0.56004176               -0.06674254               -0.06290180                0.20958079                0.02365382                0.06901467               -0.00096246
               2.99438881                9.99903508               55.11685898                0.53287907                0.11714350               -0.09518616                0.21908270                0.21391723                1.25085155               -0.01483504
               3.99743522               10.00475321               55.14040178                0.56487199                0.12321776               -0.08566080                0.25959505                0.23676924                1.19640582                0.00674234
               4.99685317               10.00579410               55.14081074                0.60707738               -0.06605427               -0.07940014                0.26066066                0.01226283                0.02199677               -0.00075616
               5.99611413               10.00656149               55.14084668                0.67087394               -0.07515558               -0.07818043                0.25895147                0.00222777                0.00133536               -0.00060015
               6.99535005               10.00727579               55.14083721                0.76102047               -0.07644178               -0.07740147                0.25685614                0.00068276               -0.00123626               -0.00059390
               7.99458530               10.00797459               55.14081982                0.89413146               -0.07624104               -0.07670546                0.25468236                0.00038998               -0.00163179               -0.00049106
               8.99382523               10.00866567               55.14080113                0.99591122               -0.07569525               -0.07603349                0.25247663                0.00034097               -0.00123394               -0.00036691
               9.99307139               10.00935131               55.14079037                0.99115034               -0.07538425               -0.07531186                0.25025272                0.00064729               -0.00076334                0.00085963
               0.00208978                0.00361540               56.11970074                0.78993893               -0.06365288               -0.06364576                0.21334257                0.00003263                0.00099142               -0.00085544
               1.00145325                0.00438386               56.11959666                0.53081655               -0.06247300               -0.06429047                0.21331752                0.00085612                0.00171738                0.00066982
               2.00084032                0.00518130               56.11950431                0.48524455               -0.06083922               -0.06395108                0.21335468                0.00028428                0.00244984               -0.00017328
               3.00023647                0.00604244               56.11940806                0.50659308               -0.06056282               -0.06400782                0.21343717               -0.00028690                0.00274984               -0.00028290
               3.99962907                0.00697207               56.11931324                0.54483658               -0.06106546               -0.06399336                0.21354555               -0.00040697                0.00329086               -0.00031239
               4.99901516                0.00796101               56.11922021                0.59677691               -0.06174146               -0.06398797                0.21366981               -0.00039811                0.00375932               -0.00032319
               5.99839424                0.00899590               56.11912870                0.66433811               -0.06243005               -0.06398512                0.21379534               -0.00035177                0.00414470               -0.00034619
               6.99776656                0.01006288               56.11903904                0.75061032               -0.06307950               -0.06398509                0.21391903               -0.00027999                0.00453357               -0.00044937
               7.99713265                0.01114845               56.11895272                0.86000136               -0.06365499               -0.06397568                0.21405275               -0.00018072                0.00503458               -0.00064173
               8.99649346                0.01224029               56.11887221                0.99879089               -0.06407471               -0.06395756                0.21421664               -0.00006783                0.00441295               -0.00093192
               9.99585115                0.01332926               56.11877419                1.00000000               -0.06423068               -0.06395087                0.21425189                0.00033518                0.00344238                0.00268518
               0.00132165                1.00297894               56.11952958                0.53082333               -0.06427898               -0.06244807                0.21327511                0.00084829               -0.00071177               -0.00081187
               1.00067887                1.00374095               56.11942450                0.01234602               -0.06538903               -0.06541409                0.21323880                0.00265332               -0.00138669                0.00160468
               2.00001387                1.00454179               56.11930468                0.01000000               -0.06703243               -0.04591752                0.21322913                0.02426934               -0.00240433                0.02846338
               2.99933822                1.00540236               56.11918225                0.01000001               -0.06740828               -0.02272062                0.21319520                0.04330509               -0.00302729                0.06982163
               3.99866571                1.00633213               56.11905536                0.01000000               -0.06694769               -0.00908410                0.21311627                0.03777956               -0.00370750                0.09121163
               4.99799926                1.00732113               56.11892454                0.02270901               -0.06629635               -0.04417818                0.21299026                0.01108117               -0.00428926                0.02873946
               5.99733978                1.00835605               56.11879048                0.10878598               -0.06558891               -0.06400664                0.21281816               -0.00330724               -0.00474058               -0.00490301
               6.99668748                1.00942303               56.11865416                0.22275374               -0.06488224               -0.06372850                0.21260804               -0.00162735               -0.00495776               -0.00454021
               7.99604214                1.01050869               56.11851831                0.37465664               -0.06425551               -0.06363250                0.21238508               -0.00057642               -0.00481452               -0.00375181
               8.99540237                1.01160071               56.11838651                0.58030336               -0.06383018               -0.06359451                0.21218097               -0.00007627               -0.00357956               -0.00211844
               9.99476553                1.01268975               56.11827644                0.85922260               -0.06368410               -0.06364011                0.21212812                0.00035306               -0.00254307                0.00401888
               0.00058274                2.00236644               56.11935650                0.48524609               -0.06392609               -0.06076177                0.21327820                0.00027161               -0.00019966               -0.00033549
               0.99994347                2.00307557               56.11926980                0.01000000               -0.04592169               -0.06709551                0.21317428                0.02433847                0.02453442                0.00197783
               1.99966430                2.00426295               56.11967634                0.01000001               -0.03156237               -0.03140328                0.21471551                0.09747162                0.06316273                0.07107115
               2.99931223                2.00558802               56.12035755                0.01000000               -0.05992088                0.00497752                0.21620792                0.12694379                0.05566203                0.14221252
               3.99846588                2.00679038               56.12062731                0.01000000               -0.10496790                0.04266843                0.21672793                0.10126624               -0.05053823                0.23225394
               4.99721287                2.00707745               56.11920983                0.01000001               -0.11198476                0.03176831                0.21281012                0.06946082               -0.10902919                0.26460261
               5.99622619                2.00771577               56.11836119                0.01143289               -0.08157501                0.05023861                0.21114945                0.10743843               -0.04735841                0.36207912
               6.99558137                2.00878831               56.11818792                0.01618447               -0.06413752               -0.01092564                0.21070675                0.10808141               -0.01322128                0.31132461
               7.99494344                2.00987580               56.11802252                0.01000000               -0.06352478                0.00669595                0.21027273                0.09375037               -0.01178322                0.36667606
               8.99431087                2.01096840               56.11787833                0.05613165               -0.06316499               -0.03194954                0.20998361                0.03734063               -0.00706871                0.08322854
               9.99368014                2.01205646               56.11780708                0.55992397               -0.06307348               -0.06622844                0.21021068                0.02155969               -0.00341656                0.08323093
              -0.00009118                3.00176371               56.11918801                0.50658697               -0.06396965               -0.06042901                0.21332517               -0.00031572               -0.00021819                0.00035817
               0.99926913                3.00239904               56.11910820                0.01000001               -0.02289827               -0.06750290                0.21308966                0.04364330                0.06462954                0.00105165
               1.99945086                3.00391372               56.12032440                0.01000000                0.00402661               -0.05976859                0.21616118                0.12773590                0.13139188                0.06443428
               2.99934966                3.00550191               56.12157834                0.01000000               -0.01246230               -0.01016901                0.21913310                0.17254970                0.15088079                0.16261572
               3.99920161                3.00718550               56.12318658                0.01197812               -0.04432794                0.00511892                0.22271782                0.15710497                0.11008788                0.23418570
               4.99846310                3.00795650               56.12363546                0.01000000               -0.07119639                0.07128610                0.22351288                0.19698967                0.11558051                0.45868095
               5.99777768                3.00936082               56.12536414                0.01819930               -0.08870086                0.07017022                0.22758091                0.16517520                0.02973649                0.48761618
               6.99668908                3.00920452               56.12412013                0.01000001               -0.10203113                0.02798900                0.22462491                0.17009965               -0.01328971                0.55866495
               7.99573706                3.01064261               56.12499631                0.01371555               -0.13602773                0.07553926                0.23063007                0.21424851               -0.24663697                0.77628324
               8.99396853                3.01096172               56.11909955                0.02178461               -0.13582249                0.13572998                0.22130277                0.20112530               -0.30130294                1.39890887
               9.99302061                3.01136518               56.11889419                0.53294727               -0.09479166                0.10081193                0.22099151                0.19474431               -0.01776708                1.40284905
              -0.00069424                4.00115786               56.11902020                0.54483769               -0.06394328               -0.06089987                0.21339744               -0.00044131               -0.00020547                0.00080196
               0.99866633                4.00172552               56.11894064                0.01000000               -0.00948034               -0.06704225                0.21295707                0.03830191                0.08560253                0.00018437
               1.99911615                4.00306758               56.12057665                0.01000000                0.04125589               -0.10562949                0.21663610                0.10452951                0.21910426               -0.03412710
               2.99949144                4.00538464               56.12316307                0.01197890                0.00186218               -0.04130736                0.22271375                0.16013658                0.21897802                0.12156228
               3.99915340                4.00689276               56.12479049                0.01000000               -0.02570492               -0.01980684                0.22624407                0.15705476                0.23958685                0.25309142
               4.99897735                4.00850317               56.12780154                0.01806540               -0.04358630                0.00463775                0.23294047                0.12522188                0.13958349                0.27362707
               5.99828167                4.00911917               56.12744163                0.01000001               -0.06378863               -0.02728972                0.23147581                0.06637168                0.04747509                0.29706051
               6.99770157                4.00934809               56.12862474                0.01195482               -0.04052309                0.04724230                0.23408774                0.18186979                0.26835764                0.64750748
               7.99747121                4.01138658               56.13269933                0.01076494               -0.00453828                0.07785894                0.24219529                0.32900142                0.81591918                1.04597839
               8.99761081                4.01368300               56.14484168                0.08026214               -0.03515505                0.09612647                0.25815903                0.29549346                0.61499068                1.33452772
               9.99676811                4.01407269               56.14484997                0.56488532               -0.08427008                0.10574034                0.25634302                0.20824848                0.00846529                1.34004048
              -0.00123531                5.00054571               56.11885278                0.59679505               -0.06392398               -0.06156513                0.21348313               -0.00043378               -0.00019078                0.00113477
               0.99812545                5.00105820               56.11876729                0.02274227               -0.04411835               -0.06636680                0.21277218                0.01110646                0.02972010               -0.00059622
               1.99788232                5.00180113               56.11927979                0.01000001                0.03008792               -0.11307739                0.21249188                0.07472110                0.24835186               -0.09001220
               2.99872720                5.00467576               56.12357070                0.01000000                0.06709309               -0.06702387                0.22348675                0.20690003                0.43100849                0.12537747
               3.99922418                5.00678936               56.12773624                0.01806867                0.00069627               -0.03871537                0.23298858                0.12937399                0.25579079                0.15261709
               4.99874113                5.00804925               56.12852141                0.01000001               -0.04819948               -0.04381030                0.23388567                0.05275804                0.15322139                0.16648681
               5.99826019                5.00881502               56.13064781                0.01189060               -0.03410321               -0.00359521                0.23790579                0.09586860                0.39823087                0.50938923
               6.99805907                5.01014937               56.13634798                0.01012241               -0.01390029                0.06857959                0.24948190                0.19109667                0.72903747                0.84372838
               7.99798219                5.01219979               56.14509406                0.07393126               -0.04333913                0.00143907                0.26278814                0.13081964                0.44378384                0.63998406
               8.99719228                5.01288425               56.14506312                0.15709960               -0.07880001               -0.07968283                0.26035536                0.01209550                0.00254870                0.03166549
               9.99640618                5.01347999               56.14498359                0.60713049               -0.07860980               -0.06645224                0.25813901                0.01098821                0.00020568                0.02863001
              -0.00172788                5.99992656               56.11868533                0.66436226               -0.06390832               -0.06226027                0.21357435               -0.00038480               -0.00017831                0.00136476
               0.99763303                6.00039818               56.11858896                0.10882879               -0.06395538               -0.06561938                0.21254248               -0.00356021               -0.00140297               -0.00122619
               1.99699301                6.00080603               56.11846823                0.01143541                0.05040906               -0.08196652                0.21075362                0.11524151                0.34191161               -0.03591730
               2.99864121                6.00404417               56.12523977                0.01820376                0.06871883               -0.08613861                0.22754731                0.17698310                0.45317961                0.04129428
               3.99836738                6.00611846               56.12733686                0.01000001               -0.03171837               -0.05989488                0.23151198                0.07185008                0.27466975                0.05818513
               4.99800685                6.00762696               56.13055446                0.01188849               -0.01342291               -0.02336654                0.23798069                0.09899943                0.49051838                0.40130111
               5.99809893                6.00904727               56.13698554                0.01010465                0.00659485                0.02057916                0.25129038                0.15416655                0.71928860                0.72098352
               6.99813874                6.01071969               56.14478856                0.07388401               -0.03731055               -0.01063104                0.26356736                0.08876636                0.39828210                0.43923208
               7.99735272                6.01141536               56.14480952                0.15663649               -0.07831133               -0.07854813                0.26143125                0.00350233                0.00573808                0.00209885
               8.99657252                6.01208934               56.14476063                0.26720400               -0.07781593               -0.07867537                0.25916519                0.00213794                0.00143455                0.00294627
               9.99579640                6.01274365               56.14469374                0.67095970               -0.07761198               -0.07479903                0.25692517                0.00196509                0.00061476                0.00524940
              -0.00218625                6.99930051               56.11851799                0.75065662               -0.06389772               -0.06292857                0.21366771               -0.00030865               -0.00019876                0.00154423
               0.99717477                6.99974581               56.11840686                0.22280429               -0.06362921               -0.06486182                0.21227615               -0.00175748               -0.00175139               -0.00164372
               1.99654116                7.00016180               56.11826521                0.01618771               -0.01101642               -0.06405736                0.21024769                0.11596519                0.28978106               -0.00518442
               2.99695444                7.00295299               56.12398446                0.01000001                0.02686117               -0.10149643                0.22452335                0.18524167                0.51681180               -0.00393375
               3.99707839                7.00559147               56.12840563                0.01195830                0.04189338               -0.03050050                0.23420958                0.19567662                0.60892348                0.26758803
               4.99779231                7.00758192               56.13598072                0.01012597                0.05862064                0.00264216                0.24993748                0.19920207                0.80937765                0.70291230
               5.99825080                7.00922661               56.14442467                0.07387536               -0.01630066               -0.03042143                0.26407881                0.09108001                0.43029659                0.38824858
               6.99746630                7.00993675               56.14446798                0.15667178               -0.07841110               -0.07836021                0.26198876                0.00198002                0.00707551               -0.00107811
               7.99668258                7.01062882               56.14444693                0.26729762               -0.07797705               -0.07823980                0.25976066                0.00090810                0.00309070               -0.00197905
               8.99590675                7.01131074               56.14440940                0.42026525               -0.07728542               -0.07746421                0.25752402                0.00041897                0.00145253                0.00014423
               9.99513687                7.01198401               56.14435408                0.76116298               -0.07698863               -0.07602730                0.25528005                0.00057692                0.00064192                0.00245673
              -0.00262466                7.99866799               56.11835142                0.86005607               -0.06387547               -0.06352779                0.21376970               -0.00020236               -0.00026342                0.00173885
               0.99673659                7.99910094               56.11822296                0.37474555               -0.06351046               -0.06418030                0.21199369               -0.00062617               -0.00159839               -0.00178177
               1.99610513                7.99952488               56.11806875                0.01000000                0.00898990               -0.06339700                0.20973972                0.10234108                0.33926529               -0.00439982
               2.99691638                8.00201424               56.12475712                0.01371869                0.07734271               -0.13885213                0.23032827                0.23829769                0.71951893               -0.21043348
               3.99765199                8.00550845               56.13220642                0.01076962                0.07196818                0.01410873                0.24287251                0.35336310                0.97560632                0.76395462
               4.99835575                8.00767981               56.14403819                0.07392866               -0.00431414               -0.03488672                0.26423982                0.13992889                0.60004230                0.41792401
               5.99756570                8.00843884               56.14411056                0.15662402               -0.07898102               -0.07856543                0.26239705                0.00395127                0.00795280               -0.00105819
               6.99677613                8.00915248               56.14410163                0.26727753               -0.07844114               -0.07810466                0.26024243                0.00098923                0.00327303               -0.00281784
               7.99599688                8.00985057               56.14408023                0.42035262               -0.07752065               -0.07750418                0.25802623                0.00032093                0.00225687               -0.00194582
               8.99522571                8.01054006               56.14404999                0.64195299               -0.07677356               -0.07677477                0.25578951                0.00008511                0.00118666               -0.00036369
               9.99446141                8.01122310               56.14400583                0.89434851               -0.07643055               -0.07591016                0.25354194                0.00031311                0.00056661                0.00194425
              -0.00305621                8.99802995               56.11818710                0.99888018               -0.06384368               -0.06396573                0.21390540               -0.00008019               -0.00038705                0.00154064
               0.99630535                8.99846220               56.11803992                0.58044596               -0.06345482               -0.06371038                0.21173266               -0.00008393               -0.00100839               -0.00135545
               1.99567469                8.99889386               56.11788168                0.05629511               -0.02842587               -0.06299700                0.20938420                0.04239904                0.08146650               -0.00256978
               2.99573683                9.00017595               56.11938390                0.02216109                0.14026948               -0.14008574                0.22027465                0.22912396                1.28389203               -0.26632449
               3.99848008                9.00587364               56.14319894                0.08053879                0.09618315               -0.02454310                0.26059304                0.32449935                1.22176379                0.56660124
               4.99766050                9.00688419               56.14372948                0.15710245               -0.08114657               -0.07946639                0.26227222                0.01437356                0.03190530               -0.00059257
               5.99685715                9.00765530               56.14376285                0.26715884               -0.07930724               -0.07824602                0.26059228                0.00250362                0.00434962               -0.00165459
               6.99607435                9.00837465               56.14374518                0.42018197               -0.07778640               -0.07756686                0.25847428                0.00047759                0.00129568               -0.00144925
               7.99530142                9.00907874               56.14371717                0.64186165               -0.07692154               -0.07691374                0.25626446                0.00009397                0.00073590               -0.00112231
               8.99453592                9.00977525               56.14368724                0.98348061               -0.07621924               -0.07622212                0.25402311                0.00000640                0.00054529               -0.00044584
               9.99377704                9.01046580               56.14365407                0.99622535               -0.07588840               -0.07548109                0.25176996                0.00026934                0.00045950                0.00131529
              -0.00349077                9.99738867               56.11801743                1.00000000               -0.06382404               -0.06412783                0.21390310                0.00035109                0.00088568                0.00116817
               0.99587099                9.99782674               56.11786572                0.85931801               -0.06349334               -0.06354661                0.21163673                0.00037792                0.00117060               -0.00096483
               1.99523937                9.99826494               56.11772155                0.56007058               -0.06759545               -0.06289208                0.20958762                0.02575704                0.07535504               -0.00121223
               2.99451908                9.99921252               56.11905411                0.53332163                0.10971822               -0.09634238                0.21996076                0.21585726                1.27778608               -0.01531881
               3.99743373               10.00501758               56.14299573                0.56517058                0.11712382               -0.08560581                0.25920364                0.23926295                1.21901784                0.00688273
               4.99686156               10.00609048               56.14341656                0.60713863               -0.06542113               -0.07937087                0.26048768                0.01292321                0.02392614               -0.00076791
               5.99612531               10.00687392               56.14343545                0.67092302               -0.07496623               -0.07813827                0.25879208                0.00234938                0.00165648               -0.00059278
               6.99536224               10.00760114               56.14340495                0.76109262               -0.07635731               -0.07735079                0.25668095                0.00070738               -0.00114521               -0.00058315
               7.99459816               10.00831229               56.14336566                0.89425822               -0.07617287               -0.07664492                0.25447879                0.00039772               -0.00159396               -0.00048211
               8.99383878               10.00901561               56.14332475                0.99622383               -0.07562395               -0.07596341                0.25224324                0.00034546               -0.00121849               -0.00036134
               9.99308568               10.00971348               56.14329159                0.99125363               -0.07530954               -0.07523216                0.24999033                0.00065162               -0.00075678                0.00085813
               0.00220392                0.00377841               57.12183227                0.79017225               -0.06350777               -0.06350124                0.21294482                0.00005639                0.00099166               -0.00084701
               1.00156884                0.00456309               57.12172821                0.53115570               -0.06222018               -0.06422833                0.21297914                0.00094525                0.00176003                0.00066143
               2.00095952                0.00537972               57.12163649                0.48544554               -0.06043568               -0.06387640                0.21307711                0.00032060                0.00259059               -0.00019437
               3.00036013                0.00626649               57.12154141                0.50673836               -0.06014008               -0.06395820                0.21323054               -0.00030874                0.00297909               -0.00031128
               3.99975671                0.00722884               57.12144803                0.54495144               -0.06070753               -0.06396125                0.21341585               -0.00044147                0.00358295               -0.00034021
               4.99914598                0.00825671               57.12135663                0.59686020               -0.06146980               -0.06397336                0.21361754               -0.00043190                0.00409017               -0.00035046
               5.99852732                0.00933539               57.12126676                0.66436358               -0.06225015               -0.06398862                0.21382429               -0.00037968                0.00449674               -0.00037385
               6.99790098                0.01044965               57.12117879                0.75056894               -0.06299095               -0.06400965                0.21403529               -0.00029994                0.00490034               -0.00048431
               7.99726750                0.01158454               57.12109422                0.85983136               -0.06365194               -0.06401863                0.21425698               -0.00019015                0.00542413               -0.00068932
               8.99662794                0.01272649               57.12101584                0.99843230               -0.06414214               -0.06402110                0.21451898               -0.00006448                0.00474979               -0.00100224
               9.99598466                0.01386540               57.12091859                1.00000000               -0.06432794               -0.06403763                0.21463447                0.00037739                0.00370727                0.00288345
               0.00141980                1.00314339               57.12166071                0.53115656               -0.06421666               -0.06219497                0.21293940                0.00093736               -0.00071298               -0.00075703
               1.00077764                1.00392080               57.12155554                0.01228113               -0.06543929               -0.06546740                0.21296212                0.00290267               -0.00137508                0.00160212
               2.00011102                1.00474096               57.12143589                0.01000000               -0.06725775               -0.04574767                0.21300766                0.02497567               -0.00242174                0.02924991
               2.99943248                1.00562691               57.12131337                0.01000001               -0.06769125               -0.02261967                0.21302584                0.04412248               -0.00312237                0.07140660
               3.99875719                1.00658922               57.12118591                0.01000000               -0.06720512               -0.00891149                0.21299635                0.03838874               -0.00388644                0.09317844
               4.99808838                1.00761697               57.12105407                0.02279176               -0.06650723               -0.04424875                0.21291380                0.01070227               -0.00454400                0.02896922
               5.99742705                1.00869551               57.12091848                0.10880618               -0.06574881               -0.06404752                0.21278522               -0.00367585               -0.00505619               -0.00528622
               6.99677340                1.00980955               57.12078032                0.22266569               -0.06499357               -0.06373506                0.21262266               -0.00180037               -0.00531154               -0.00488959
               7.99612718                1.01094435               57.12064246                0.37438501               -0.06432722               -0.06364442                0.21244769               -0.00063862               -0.00517276               -0.00403289
               8.99548686                1.01208628               57.12050891                0.57969140               -0.06388273               -0.06362470                0.21229936               -0.00008721               -0.00384968               -0.00227717
               9.99484952                1.01322502               57.12039867                0.85880594               -0.06373369               -0.06369797                0.21231539                0.00038511               -0.00273345                0.00432149
               0.00066785                2.00253451               57.12148794                0.48545066               -0.06385168               -0.06035391                0.21300727                0.00030704               -0.00022196               -0.00017687
               1.00002933                2.00325374               57.12140045                0.01000000               -0.04574645               -0.06733111                0.21295286                0.02504455                0.02533886                0.00194288
               1.99975292                2.00446477               57.12182265                0.01000001               -0.03175116               -0.03160074                0.21453844                0.09905180                0.06483487                0.07270384
               2.99939431                2.00581410               57.12251869                0.01000000               -0.06092464                0.00504573                0.21600700                0.12916686                0.05681688                0.14555214
               3.99853443                2.00705061               57.12279353                0.01000000               -0.10702852                0.04305498                0.21653287                0.10386812               -0.05222937                0.23769097
               4.99725374                2.00737173               57.12133760                0.01000001               -0.11366049                0.03178938                0.21255657                0.07241708               -0.11221178                0.27056523
               5.99626122                2.00805444               57.12047205                0.01143639               -0.08188075                0.05046761                0.21097093                0.11055417               -0.04896806                0.37044149
               6.99561613                2.00917495               57.12029423                0.01618820               -0.06416090               -0.01147362                0.21055662                0.11126657               -0.01419303                0.31863556
               7.99497800                2.01031165               57.12012472                0.01000000               -0.06353030                0.00644861                0.21015226                0.09671668               -0.01266685                0.37750924
               8.99434552                2.01145400               57.11997776                0.05613739               -0.06315631               -0.03027286                0.20989833                0.03994210               -0.00760889                0.09004719
               9.99371487                2.01259144               57.11990923                0.55995286               -0.06306447               -0.06714339                0.21022014                0.02363509               -0.00367895                0.09028235
              -0.00001252                3.00193632               57.12132034                0.50674394               -0.06392146               -0.05999622                0.21312942               -0.00034066               -0.00024949                0.00060603
               0.99934827                3.00257418               57.12123832                0.01000001               -0.02278954               -0.06780213                0.21292151                0.04447389                0.06623584                0.00093974
               1.99953169                3.00410894               57.12248499                0.01000000                0.00408554               -0.06079127                0.21595579                0.13000282                0.13478479                0.06557586
               2.99942998                3.00572783               57.12376868                0.01000000               -0.01273840               -0.01035815                0.21892069                0.17630439                0.15466512                0.16634074
               3.99927693                3.00745032               57.12541280                0.01197696               -0.04485473                0.00514328                0.22252936                0.16127937                0.11286006                0.23987297
               4.99853289                3.00825276               57.12586946                0.01000000               -0.07210061                0.07157669                0.22333480                0.20270068                0.11858090                0.46982749
               5.99783491                3.00970486               57.12763994                0.01820899               -0.08956772                0.07007401                0.22746459                0.17081716                0.03076932                0.49930324
               6.99674153                3.00958008               57.12636600                0.01000001               -0.10262249                0.02711507                0.22450940                0.17570163               -0.01141401                0.57177128
               7.99578246                3.01107332               57.12730337                0.01379601               -0.13678107                0.07463241                0.23092039                0.22244035               -0.24786299                0.79391643
               8.99400591                3.01148082               57.12131722                0.02231641               -0.13675613                0.13010142                0.22230975                0.20790939               -0.30608641                1.42530813
               9.99304734                3.01188216               57.12110908                0.53340552               -0.09585694                0.09225973                0.22205638                0.19710583               -0.01824342                1.42778757
              -0.00061469                4.00133458               57.12115364                0.54496661               -0.06391226               -0.06052917                0.21327910               -0.00047944               -0.00023683                0.00110993
               0.99874619                4.00189770               57.12106967                0.01000000               -0.00929880               -0.06731777                0.21283573                0.03893158                0.08762977               -0.00001963
               1.99919933                4.00324894               57.12274239                0.01000000                0.04164148               -0.10775515                0.21643869                0.10726952                0.22461887               -0.03603630
               2.99957902                4.00560694               57.12538899                0.01197953                0.00178747               -0.04170358                0.22246961                0.16445026                0.22470345                0.12429428
               3.99923508                4.00715347               57.12705205                0.01000000               -0.02628989               -0.02015658                0.22605321                0.16165262                0.24573745                0.25913511
               4.99905322                4.00880326               57.13013078                0.01806901               -0.04424216                0.00458008                0.23282646                0.12971568                0.14332987                0.28018217
               5.99835024                4.00945592               57.12975600                0.01000001               -0.06457614               -0.02802495                0.23131274                0.07077589                0.04911829                0.30371948
               6.99776169                4.00971725               57.13096597                0.01197275               -0.04120865                0.04664394                0.23404946                0.18708765                0.27472417                0.66142723
               7.99752607                4.01180430               57.13511985                0.01082050               -0.00334105                0.07400179                0.24223237                0.33148260                0.82895533                1.06403498
               8.99769487                4.01405603               57.14742004                0.08062144               -0.03358691                0.08847759                0.25747906                0.29551718                0.62386823                1.35565586
               9.99685433                4.01443663               57.14741027                0.56519731               -0.08405463                0.09854336                0.25568204                0.21063196                0.00861235                1.35989778
              -0.00114833                5.00072573               57.12098745                0.59687090               -0.06391280               -0.06128260                0.21344989               -0.00047059               -0.00022089                0.00148512
               0.99821254                5.00122783               57.12089467                0.02280409               -0.04419139               -0.06659613                0.21269840                0.01072302                0.02978422               -0.00087872
               1.99796784                5.00195384               57.12140174                0.01000001                0.03009560               -0.11485844                0.21224553                0.07791381                0.25449634               -0.09336924
               2.99881445                5.00489375               57.12580489                0.01000000                0.06729037               -0.06772618                0.22327201                0.21304081                0.44243853                0.12830629
               3.99931365                5.00704719               57.13006477                0.01807020                0.00051468               -0.03916292                0.23277640                0.13399518                0.26240217                0.15621628
               4.99882475                5.00834436               57.13085945                0.01000001               -0.04886031               -0.04431708                0.23368701                0.05697692                0.15716633                0.17028901
               5.99833644                5.00914436               57.13302649                0.01189818               -0.03449181               -0.00398048                0.23783938                0.10011343                0.40754896                0.52081777
               6.99813491                5.01051296               57.13884212                0.01014692               -0.01315520                0.06717938                0.24945451                0.19339542                0.74321847                0.86021546
               7.99807334                5.01255336               57.14772068                0.07397241               -0.04254984               -0.00177577                0.26250149                0.13232549                0.45135403                0.65137800
               8.99728391                5.01325038               57.14766503                0.15719363               -0.07872884               -0.08007535                0.26000703                0.01303559                0.00238897                0.03405023
               9.99649876                5.01385302               57.14756323                0.60719497               -0.07851520               -0.06584744                0.25777574                0.01158061                0.00018177                0.03072240
              -0.00162829                6.00010893               57.12082133                0.66439633               -0.06391714               -0.06207292                0.21362770               -0.00041684               -0.00020914                0.00174035
               0.99773254                6.00056577               57.12071425                0.10883734               -0.06400161               -0.06579499                0.21251359               -0.00396526               -0.00186268               -0.00157110
               1.99709168                6.00095177               57.12057426                0.01143656                0.05069685               -0.08232558                0.21052370                0.11878690                0.35042808               -0.03747501
               2.99874648                6.00425241               57.12751476                0.01821144                0.06863493               -0.08685996                0.22740944                0.18319737                0.46515946                0.04220776
               3.99846438                6.00637021               57.12965077                0.01000001               -0.03254452               -0.06049776                0.23129999                0.07643677                0.28146635                0.05975487
               4.99809559                6.00791692               57.13293331                0.01190027               -0.01402356               -0.02339316                0.23786319                0.10341614                0.50209966                0.41067111
               5.99818391                6.00937631               57.13949795                0.01012797                0.00625090                0.02055519                0.25123150                0.15643262                0.73405238                0.73572666
               6.99822061                6.01106084               57.14742338                0.07392129               -0.03743732               -0.01173153                0.26333080                0.08973001                0.40553289                0.44722731
               7.99743516                6.01176878               57.14742265                0.15669502               -0.07823420               -0.07853894                0.26116614                0.00371430                0.00574295                0.00235871
               8.99665592                6.01245452               57.14735097                0.26729521               -0.07772576               -0.07869995                0.25888066                0.00229534                0.00141231                0.00331513
               9.99588065                6.01311969               57.14726156                0.67101661               -0.07752758               -0.07458200                0.25662218                0.00207114                0.00061551                0.00558931
              -0.00207035                6.99948427               57.12065533                0.75060771               -0.06392545               -0.06283652                0.21380743               -0.00033202               -0.00023670                0.00193666
               0.99729040                6.99991193               57.12052969                0.22272525               -0.06363546               -0.06498315                0.21228958               -0.00194758               -0.00212460               -0.00202884
               1.99665694                7.00030733               57.12036686                0.01618843               -0.01152173               -0.06407457                0.21005740                0.11961397                0.29729681               -0.00619563
               2.99705996                7.00315655               57.12622932                0.01000001                0.02604675               -0.10207238                0.22443352                0.19181046                0.53035282               -0.00217470
               3.99717788                7.00583724               57.13074756                0.01197766                0.04135051               -0.03068281                0.23412196                0.20175965                0.62331820                0.27421437
               4.99788697                7.00787650               57.13847992                0.01014633                0.05716522                0.00382514                0.24992221                0.20189348                0.82640054                0.71750698
               5.99832118                7.00955546               57.14706470                0.07391214               -0.01749627               -0.03041056                0.26387287                0.09212891                0.43849525                0.39555409
               6.99753705                7.01027833               57.14708674                0.15672668               -0.07836174               -0.07830923                0.26175762                0.00208554                0.00713070               -0.00097146
               7.99675395                7.01098258               57.14704339                0.26738515               -0.07790643               -0.07819330                0.25951535                0.00096801                0.00309488               -0.00190348
               8.99597892                7.01167638               57.14698336                0.42040090               -0.07720464               -0.07740580                0.25725662                0.00044496                0.00145313                0.00023016
               9.99520985                7.01236138               57.14690548                0.76124491               -0.07690643               -0.07591247                0.25499142                0.00059356                0.00064527                0.00253385
              -0.00249023                7.99885220               57.12049025                0.85988895               -0.06392335               -0.06352785                0.21400511               -0.00021295               -0.00031601                0.00215873
               0.99687054                7.99926611               57.12034322                0.37447465               -0.06352201               -0.06425774                0.21205814               -0.00069375               -0.00190173               -0.00216868
               1.99623933                7.99967028               57.12016548                0.01000000                0.00911201               -0.06339560                0.20958418                0.10578852                0.35031481               -0.00535756
               2.99705278                8.00221097               57.12706223                0.01380112                0.07701492               -0.13965483                0.23072530                0.24779224                0.73822370               -0.21220705
               3.99777963                8.00575656               57.13463579                0.01083180                0.06812263                0.01576471                0.24291580                0.35706552                0.99485599                0.77801155
               4.99841523                8.00799343               57.14667980                0.07396978               -0.00774876               -0.03393118                0.26404586                0.14167249                0.61196463                0.42579637
               5.99762465                8.00876810               57.14673363                0.15667920               -0.07900141               -0.07850778                0.26219697                0.00420235                0.00818344               -0.00102379
               6.99683520                8.00949465               57.14670306                0.26736281               -0.07840890               -0.07804196                0.26002801                0.00105676                0.00332248               -0.00278098
               7.99605648                8.01020491               57.14665939                0.42048616               -0.07745917               -0.07744110                0.25779457                0.00034010                0.00227068               -0.00190956
               8.99528602                8.01090640               57.14660666                0.64217189               -0.07669851               -0.07670203                0.25553408                0.00008979                0.00119007               -0.00033539
               9.99452250                8.01160144               57.14653989                0.89448918               -0.07635131               -0.07582035                0.25326444                0.00031441                0.00056985                0.00196427
              -0.00290243                8.99821372               57.12032780                0.99851608               -0.06391327               -0.06404238                0.21424512               -0.00007668               -0.00046283                0.00190158
               0.99645844                8.99862677               57.12015787                0.57983339               -0.06348583               -0.06376633                0.21185583               -0.00009411               -0.00117766               -0.00164715
               1.99582786                8.99903941               57.11997506                0.05630716               -0.02644552               -0.06298306                0.20927333                0.04542072                0.08811174               -0.00314906
               2.99592953                9.00036346               57.12159070                0.02269465                0.13544351               -0.14113414                0.22114188                0.23653472                1.31202397               -0.27155776
               3.99853673                9.00615253               57.14580278                0.08089892                0.08896733               -0.02296336                0.26010375                0.32539571                1.24489262                0.57611233
               4.99770888                9.00719787               57.14635123                0.15719938               -0.08163638               -0.07944190                0.26204386                0.01547541                0.03423578               -0.00072452
               5.99690400                9.00798531               57.14636789                0.26724486               -0.07937535               -0.07818331                0.26039801                0.00269162                0.00470264               -0.00165812
               6.99612137                9.00871749               57.14632896                0.42031311               -0.07775000               -0.07750444                0.25826938                0.00050947                0.00137618               -0.00143182
               7.99534900                9.00943376               57.14627874                0.64207060               -0.07685889               -0.07684783                0.25604069                0.00009948                0.00075753               -0.00110639
               8.99458419                9.01014234               57.14622626                0.98383590               -0.07614621               -0.07614919                0.25377752                0.00000697                0.00054935               -0.00043683
               9.99382607                9.01084498               57.14617043                0.99655436               -0.07581168               -0.07539960                0.25150261                0.00026794                0.00046034                0.00131612
              -0.00331787                9.99757135               57.12015852                1.00000000               -0.06391736               -0.06423644                0.21432597                0.00039891                0.00110246                0.00144874
               0.99604296                9.99799078               57.11998307                0.85889208               -0.06355369               -0.06359870                0.21183167                0.00041515                0.00150093               -0.00117090
               1.99541106                9.99841062               57.11981747                0.56010441               -0.06863011               -0.06287947                0.20958091                0.02819510                0.08228438               -0.00148963
               2.99467036                9.99938828               57.12125819                0.53378739                0.10210347               -0.09751755                0.22090392                0.21841613                1.30469512               -0.01580850
               3.99745313               10.00529729               57.14558585                0.56548113                0.11108026               -0.08552407                0.25875625                0.24245532                1.24110687                0.00703479
               4.99689196               10.00640459               57.14602049                0.60720634               -0.06471288               -0.07932867                0.26027043                0.01366576                0.02598303               -0.00078092
               5.99615887               10.00720444               57.14602252                0.67097598               -0.07475091               -0.07808723                0.25860619                0.00248596                0.00200237               -0.00058483
               6.99539694               10.00794457               57.14597083                0.76117167               -0.07626243               -0.07729255                0.25648415                0.00073344               -0.00104904               -0.00057191
               7.99463362               10.00866796               57.14590940                0.89438580               -0.07610012               -0.07657992                0.25426323                0.00040489               -0.00155596               -0.00047353
               8.99387494               10.00938342               57.14584600                0.99655478               -0.07555178               -0.07589163                0.25200710                0.00034920               -0.00120350               -0.00035660
               9.99312258               10.01009344               57.14579018                0.99136999               -0.07523551               -0.07515308                0.24973268                0.00065356               -0.00075043                0.00085530
               0.00231773                0.00394158               58.12395964                0.79040314               -0.06335007               -0.06334465                0.21252181                0.00008366                0.00099325               -0.00083495
               1.00168423                0.00474242               58.12385625                0.53150306               -0.06194011               -0.06416640                0.21262241                0.00104764                0.00180537                0.00065266
               2.00107893                0.00557862               58.12376585                0.48564878               -0.05998624               -0.06379994                0.21278999                0.00036205                0.00274299               -0.00021974
               3.00048451                0.00649230               58.12367267                0.50688724               -0.05967143               -0.06390825                0.21301926               -0.00033284                0.00323233               -0.00034428
               3.99988550                0.00748950               58.12358156                0.54507976               -0.06031362               -0.06392907                0.21328467               -0.00048003                0.00390548               -0.00037270
               4.99927824                0.00855914               58.12349256                0.59694331               -0.06117431               -0.06395878                0.21356853               -0.00046885                0.00445570               -0.00038103
               5.99866202                0.00968497               58.12340518                0.66440202               -0.06205664               -0.06399375                0.21386319               -0.00041081                0.00488715               -0.00040446
               6.99803710                0.01085014               58.12331975                0.75052357               -0.06289701               -0.06403375                0.21416122               -0.00032159                0.00530834               -0.00052255
               7.99740408                0.01203819               58.12323786                0.85965708               -0.06365079               -0.06406494                0.21447947               -0.00019960                0.00586254               -0.00074260
               8.99676409                0.01323411               58.12316259                0.99808191               -0.06421381               -0.06408644                0.21483667               -0.00006160                0.00512793               -0.00108040
               9.99611980                0.01442678               58.12306687                1.00000000               -0.06442868               -0.06412350                0.21502673                0.00042093                0.00400221                0.00310416
               0.00151773                1.00330813               58.12378837                0.53149894               -0.06415428               -0.06191552                0.21258678                0.00103947               -0.00071388               -0.00069622
               1.00087619                1.00410075               58.12368374                0.01221331               -0.06550591               -0.06553812                0.21267350                0.00318962               -0.00136635                0.00159514
               2.00020761                1.00494062               58.12356484                0.01000000               -0.06752237               -0.04553495                0.21277898                0.02581437               -0.00245351                0.03002477
               2.99952574                1.00585321               58.12344277                0.01000001               -0.06801650               -0.02242707                0.21285234                0.04513865               -0.00324222                0.07294877
               3.99884728                1.00685021               58.12331528                0.01000000               -0.06749645               -0.00860902                0.21287235                0.03916078               -0.00410024                0.09510953
               4.99817581                1.00791955               58.12318282                0.02286962               -0.06674380               -0.04428877                0.21283469                0.01033491               -0.00483926                0.02902867
               5.99751241                1.00904503               58.12304619                0.10881941               -0.06592662               -0.06409145                0.21275314               -0.00407811               -0.00541338               -0.00573836
               6.99685728                1.01020980               58.12290661                0.22258527               -0.06511566               -0.06373975                0.21263478               -0.00198796               -0.00570554               -0.00526932
               7.99621009                1.01139754               58.12276726                0.37409259               -0.06440520               -0.06365580                0.21251347               -0.00070309               -0.00556453               -0.00434343
               8.99556918                1.01259325               58.12263250                0.57904882               -0.06393736               -0.06365406                0.21241735               -0.00009477               -0.00414469               -0.00245191
               9.99493135                1.01378554               58.12252275                0.85835564               -0.06378292               -0.06375457                0.21249770                0.00042063               -0.00294329                0.00465897
               0.00075328                2.00270327               58.12361664                0.48566123               -0.06377436               -0.05990010                0.21272734                0.00034648               -0.00024755               -0.00000719
               1.00011554                2.00343166               58.12352886                0.01000000               -0.04552602               -0.06760729                0.21272369                0.02588311                0.02613377                0.00188675
               1.99984276                2.00466792               58.12396711                0.01000001               -0.03189207               -0.03175594                0.21434520                0.10103378                0.06645727                0.07428502
               2.99947769                2.00604376               58.12467769                0.01000000               -0.06201876                0.00526015                0.21578530                0.13194030                0.05791182                0.14881991
               3.99860238                2.00731732               58.12495796                0.01000000               -0.10937925                0.04371115                0.21632605                0.10701790               -0.05409151                0.24307276
               4.99729011                2.00767336               58.12346096                0.01000001               -0.11560917                0.03201606                0.21220847                0.07587941               -0.11551163                0.27653205
               5.99629020                2.00840314               58.12258061                0.01143751               -0.08226347                0.05089487                0.21077757                0.11430526               -0.05055997                0.37876809
               6.99564484                2.00957534               58.12239905                0.01618372               -0.06418165               -0.01207972                0.21037329                0.11510091               -0.01524726                0.32596703
               7.99500657                2.01076507               58.12222557                0.01000000               -0.06353271                0.00641322                0.21001268                0.10020887               -0.01364885                0.38866984
               8.99437419                2.01196103               58.12207630                0.05614749               -0.06314702               -0.02838238                0.20980188                0.04292636               -0.00820153                0.09753414
               9.99374363                2.01315169               58.12201148                0.55998573               -0.06305589               -0.06828264                0.21022212                0.02609833               -0.00396556                0.09803125
               0.00006789                3.00211013               58.12345060                0.50689265               -0.06386895               -0.05951560                0.21292281               -0.00036867               -0.00028405                0.00087275
               0.99942920                3.00274861               58.12336663                0.01000001               -0.02258485               -0.06814422                0.21274165                0.04550016                0.06781111                0.00079155
               1.99961619                3.00430550               58.12464352                0.01000000                0.00429768               -0.06189121                0.21573211                0.13281294                0.13812012                0.06660347
               2.99951515                3.00595842               58.12595676                0.01000000               -0.01290771               -0.01047196                0.21867334                0.18085422                0.15841379                0.16999690
               3.99935804                3.00772443               58.12763717                0.01197812               -0.04537866                0.00530887                0.22231869                0.16627144                0.11562976                0.24552878
               4.99860758                3.00855987               58.12810216                0.01000000               -0.07307537                0.07217302                0.22315529                0.20941914                0.12151639                0.48108749
               5.99789653                3.01006293               58.12991343                0.01821704               -0.09051040                0.07019310                0.22723054                0.17734923                0.03173235                0.51091984
               6.99679737                3.00996821               58.12861032                0.01000001               -0.10339724                0.02625836                0.22445039                0.18251176               -0.00926215                0.58496508
               7.99582858                3.01152580               58.12961471                0.01388364               -0.13781412                0.07424486                0.23147769                0.23235308               -0.24856358                0.81229416
               8.99404109                3.01202560               58.12354575                0.02287290               -0.13782881                0.12436313                0.22340907                0.21588289               -0.31059629                1.45157433
               9.99307201                3.01241989               58.12333532                0.53388527               -0.09690800                0.08324072                0.22320370                0.20024239               -0.01869804                1.45246277
              -0.00053105                4.00151296               58.12328578                0.54508712               -0.06387837               -0.06012043                0.21315698               -0.00052159               -0.00027053                0.00145307
               0.99883017                4.00206877               58.12319736                0.01000000               -0.00898703               -0.06762836                0.21270611                0.03973889                0.08958682               -0.00026093
               1.99928921                4.00343010               58.12490542                0.01000000                0.04228421               -0.11018123                0.21620004                0.11056876                0.23008006               -0.03791067
               2.99967585                4.00583432               58.12761246                0.01197806                0.00185755               -0.04211492                0.22224414                0.16955988                0.23047885                0.12695159
               3.99932636                4.00742350               58.12931155                0.01000000               -0.02679284               -0.02047280                0.22583571                0.16710697                0.25190299                0.26517757
               4.99913999                4.00911682               58.13245807                0.01807182               -0.04487569                0.00463162                0.23260253                0.13493299                0.14700191                0.28663916
               5.99842885                4.00980700               58.13206788                0.01000001               -0.06538945               -0.02867502                0.23111362                0.07578279                0.05073411                0.31041608
               6.99783220                4.01010051               58.13330573                0.01199361               -0.04163057                0.04640287                0.23387117                0.19374195                0.28127423                0.67541165
               7.99759624                4.01224997               58.13754397                0.01088755               -0.00172249                0.06993740                0.24237134                0.33527778                0.84172457                1.08203322
               8.99779776                4.01444829               58.14999126                0.08099395               -0.03181678                0.08043659                0.25671499                0.29614798                0.63219428                1.37606004
               9.99695990                4.01481650               58.14996361                0.56551324               -0.08378555                0.09116265                0.25494619                0.21389131                0.00874077                1.37895664
              -0.00105418                5.00090772               58.12312178                0.59696209               -0.06389913               -0.06097368                0.21341720               -0.00051129               -0.00025427                0.00187777
               0.99830683                5.00139604               58.12302126                0.02288192               -0.04419020               -0.06685174                0.21261676                0.01034176                0.02995702               -0.00120227
               1.99806202                5.00210188               58.12352470                0.01000001                0.03030585               -0.11693441                0.21208830                0.08159644                0.26056920               -0.09683784
               2.99891295                5.00511612               58.12803614                0.01000000                0.06778246               -0.06852126                0.22304627                0.22025713                0.45381027                0.13121297
               3.99941767                5.00731498               58.13239176                0.01807106                0.00048900               -0.03963676                0.23261818                0.13940943                0.26909232                0.15980295
               4.99892273                5.00865250               58.13319515                0.01000001               -0.04945884               -0.04484522                0.23349091                0.06180575                0.16117234                0.17413945
               5.99842849                5.00948943               58.13540460                0.01191609               -0.03467428               -0.00417050                0.23765675                0.10524110                0.41696338                0.53229184
               6.99822924                5.01089627               58.14133707                0.01016885               -0.01210687                0.06595515                0.24943402                0.19638078                0.75716375                0.87659713
               7.99818636                5.01292455               58.15034409                0.07401572               -0.04158655               -0.00550660                0.26215323                0.13409082                0.45870550                0.66243765
               8.99739751                5.01363433               58.15026327                0.15729423               -0.07864662               -0.08054885                0.25961233                0.01413450                0.00220948                0.03662911
               9.99661342                5.01424314               58.15013910                0.60726924               -0.07840906               -0.06516532                0.25737514                0.01226146                0.00015577                0.03298188
              -0.00151791                6.00029348               58.12295789                0.66443024               -0.06392406               -0.06187016                0.21368685               -0.00045128               -0.00024331                0.00215760
               0.99784285                6.00073174               58.12283923                0.10885034               -0.06405123               -0.06598908                0.21247850               -0.00440822               -0.00234394               -0.00196327
               1.99720106                6.00109141               58.12267871                0.01143809                0.05125256               -0.08276019                0.21032435                0.12287982                0.35895922               -0.03932677
               2.99886790                6.00446389               58.12978796                0.01821746                0.06885524               -0.08770475                0.22722154                0.19036006                0.47722140                0.04309928
               3.99857817                6.00663076               58.13196286                0.01000001               -0.03331208               -0.06121194                0.23114594                0.08162570                0.28843965                0.06128890
               4.99820166                6.00821992               58.13531172                0.01191493               -0.01441303               -0.02334652                0.23775978                0.10866409                0.51382241                0.42011564
               5.99828991                6.00972359               58.14201017                0.01014791                0.00615233                0.02062914                0.25108789                0.15925414                0.74863208                0.75026985
               6.99832470                6.01141961               58.15005518                0.07395544               -0.03749608               -0.01293149                0.26304175                0.09086097                0.41266200                0.45505165
               7.99753998                6.01213983               58.15003285                0.15675666               -0.07814250               -0.07852662                0.26085527                0.00396017                0.00575894                0.00263692
               8.99676185                6.01283732               58.14993825                0.26739126               -0.07762363               -0.07873412                0.25856041                0.00247862                0.00139062                0.00371581
               9.99598751                6.01351319               58.14982619                0.67107702               -0.07743404               -0.07433927                0.25629153                0.00219350                0.00061724                0.00595491
              -0.00193971                6.99967032               58.12279414                0.75055404               -0.06395494               -0.06273968                0.21396350               -0.00035663               -0.00027878                0.00237577
               0.99742074                7.00007626               58.12265265                0.22263185               -0.06364140               -0.06511737                0.21230358               -0.00215840               -0.00254954               -0.00245861
               1.99678746                7.00044668               58.12246635                0.01618524               -0.01199708               -0.06409360                0.20984205                0.12385606                0.30488358               -0.00735316
               2.99718080                7.00336202               58.12847313                0.01000000                0.02533472               -0.10275858                0.22435309                0.19933575                0.54407483               -0.00022248
               3.99729416                7.00609074               58.13308807                0.01199583                0.04111896               -0.03086514                0.23400859                0.20884614                0.63785394                0.28082302
               4.99800318                7.00818557               58.14097916                0.01017550                0.05598598                0.00522525                0.24979437                0.20534081                0.84328204                0.73186068
               5.99841388                7.00990201               58.14970212                0.07394878               -0.01864787               -0.03042115                0.26361118                0.09341344                0.44658943                0.40274400
               6.99763022                7.01063764               58.14970313                0.15678944               -0.07830109               -0.07824877                0.26148826                0.00220587                0.00720081               -0.00084250
               7.99684786                7.01135402               58.14963724                0.26748133               -0.07782475               -0.07814060                0.25923440                0.00103594                0.00309378               -0.00181760
               8.99607373                7.01205965               58.14955453                0.42054820               -0.07711570               -0.07734338                0.25696365                0.00047520                0.00145303                0.00032286
               9.99530554                7.01275636               58.14945391                0.76133464               -0.07681858               -0.07578813                0.25468582                0.00061231                0.00064948                0.00261566
              -0.00233693                7.99903869               58.12263153                0.85970996               -0.06397502               -0.06353019                0.21426205               -0.00022500               -0.00037448                0.00263217
               0.99702332                7.99942939               58.12246413                0.37418717               -0.06353266               -0.06434214                0.21212445               -0.00076776               -0.00224179               -0.00259370
               1.99639242                7.99980954               58.12226043                0.01000000                0.00936140               -0.06338918                0.20939771                0.10979790                0.36172048               -0.00641001
               2.99721055                8.00240872               58.12937162                0.01388872                0.07695613               -0.14065965                0.23118114                0.25863548                0.75716008               -0.21354224
               3.99793154                8.00601346               58.13706473                0.01089636                0.06433230                0.01775432                0.24276377                0.36194751                1.01375371                0.79166024
               4.99849720                8.00832442               58.14931910                0.07401111               -0.01127155               -0.03282867                0.26380178                0.14393155                0.62381271                0.43352277
               5.99770611                8.00911517               58.14935450                0.15673721               -0.07901903               -0.07843819                0.26195858                0.00449020                0.00843075               -0.00097795
               6.99691682                8.00985464               58.14930219                0.26745440               -0.07837116               -0.07796980                0.25978239                0.00113275                0.00337564               -0.00274721
               7.99613869                8.01057702               58.14923612                0.42063504               -0.07738999               -0.07737045                0.25753377                0.00036156                0.00228311               -0.00187244
               8.99536902                8.01129045               58.14916068                0.64240598               -0.07661706               -0.07662377                0.25525749                0.00009457                0.00119122               -0.00030613
               9.99460635                8.01199743               58.14907112                0.89462910               -0.07626693               -0.07572576                0.25297427                0.00031551                0.00057182                0.00198450
              -0.00272561                8.99839972               58.12247200                0.99815481               -0.06398532               -0.06412397                0.21460458               -0.00007414               -0.00054744                0.00230944
               0.99663454                8.99878942               58.12227704                0.57919315               -0.06351498               -0.06382341                0.21197577               -0.00010436               -0.00136662               -0.00196601
               1.99600409                8.99917889               58.12206715                0.05631205               -0.02424744               -0.06296077                0.20913151                0.04884612                0.09537744               -0.00378836
               2.99614959                9.00054883               58.12380674                0.02324906                0.13066567               -0.14236756                0.22215418                0.24504937                1.34024028               -0.27657885
               3.99861741                9.00644582               58.14840102                0.08127133                0.08152544               -0.02106631                0.25949440                0.32710970                1.26748243                0.58532513
               4.99778010                9.00752900               58.14897036                0.15730076               -0.08219710               -0.07940480                0.26176052                0.01673921                0.03676173               -0.00087825
               5.99697346                9.00833325               58.14897081                0.26733539               -0.07945369               -0.07811038                0.26017247                0.00290742                0.00509331               -0.00166297
               6.99619103                9.00907824               58.14891056                0.42045614               -0.07770938               -0.07743350                0.25803672                0.00054600                0.00146241               -0.00141442
               7.99541928                9.00980661               58.14883798                0.64229658               -0.07679070               -0.07677592                0.25579646                0.00010633                0.00078038               -0.00109130
               8.99465521                9.01052718               58.14876279                0.98421304               -0.07606928               -0.07607231                0.25351887                0.00000746                0.00055329               -0.00042654
               9.99389789                9.01124184               58.14868413                0.99689314               -0.07573206               -0.07531629                0.25123002                0.00026520                0.00046125                0.00131827
              -0.00311781                9.99775621               58.12230395                1.00000000               -0.06401270               -0.06435048                0.21476762                0.00045046                0.00134213                0.00176642
               0.99624206                9.99815292               58.12210236                0.85844567               -0.06361289               -0.06364956                0.21202174                0.00045759                0.00186597               -0.00139590
               1.99560993                9.99855032               58.12191317                0.56013714               -0.06987266               -0.06285687                0.20954573                0.03100586                0.08987601               -0.00179724
               2.99484461                9.99956137               58.12347219                0.53426570                0.09418201               -0.09874629                0.22198490                0.22159201                1.33158740               -0.01630775
               3.99749357               10.00559213               58.14817085                0.56579853                0.10499747               -0.08536911                0.25820101                0.24636410                1.26258967                0.00718778
               4.99694455               10.00673633               58.14862197                0.60727319               -0.06392752               -0.07926726                0.26000472                0.01448712                0.02820820               -0.00079832
               5.99621502               10.00755296               58.14860758                0.67103474               -0.07450890               -0.07802858                0.25839560                0.00263758                0.00238356               -0.00057693
               6.99545438               10.00830597               58.14853464                0.76125707               -0.07615699               -0.07722702                0.25626582                0.00076224               -0.00094586               -0.00056046
               7.99469188               10.00904150               58.14845093                0.89452305               -0.07602231               -0.07651028                0.25403519                0.00041190               -0.00151478               -0.00046476
               8.99393393               10.00976900               58.14836489                0.99689869               -0.07547798               -0.07581715                0.25176602                0.00035196               -0.00118675               -0.00035040
               9.99318232               10.01049110               58.14828624                0.99149867               -0.07516121               -0.07507363                0.24947775                0.00065288               -0.00074270                0.00085354
               0.00243056                0.00410425               59.12608270                0.79064035               -0.06318279               -0.06317818                0.21208418                0.00011202                0.00099511               -0.00082085
               1.00179874                0.00492115               59.12598066                0.53187635               -0.06163062               -0.06410553                0.21225044                0.00116595                0.00185274                0.00064216
               2.00119795                0.00577735               59.12589229                0.48586254               -0.05948338               -0.06371607                0.21248589                0.00040982                0.00290910               -0.00024969
               3.00060907                0.00671941               59.12580180                0.50705830               -0.05915090               -0.06385396                0.21279643               -0.00035931                0.00350976               -0.00038277
               4.00001493                0.00775392               59.12571373                0.54521115               -0.05988031               -0.06389187                0.21314489               -0.00052196                0.00426045               -0.00040892
               4.99941146                0.00886856               59.12562800                0.59703501               -0.06085291               -0.06394222                0.21352031               -0.00050817                0.00486083               -0.00041456
               5.99879788                0.01004530               59.12554402                0.66443580               -0.06184991               -0.06399887                0.21390903               -0.00044360                0.00532040               -0.00043854
               6.99817447                0.01126547               59.12546201                0.75047139               -0.06279854               -0.06406042                0.21430197               -0.00034526                0.00576534               -0.00056435
               7.99754191                0.01251089               59.12538381                0.85949956               -0.06364917               -0.06411111                0.21471385               -0.00021100                0.00635130               -0.00080091
               8.99690148                0.01376506               59.12531257                0.99770663               -0.06428859               -0.06415298                0.21516945               -0.00005847                0.00554359               -0.00116472
               9.99625613                0.01501573               59.12521912                0.99992337               -0.06453480               -0.06421361                0.21544047                0.00046930                0.00432361                0.00335081
               0.00161478                1.00347246               59.12591245                0.53186447               -0.06409374               -0.06160587                0.21221954                0.00115843               -0.00071564               -0.00063263
               1.00097384                1.00428010               59.12580901                0.01214259               -0.06559298               -0.06562852                0.21237098                0.00352669               -0.00136118                0.00158020
               2.00030292                1.00514019               59.12569146                0.01000000               -0.06783264               -0.04527842                0.21253589                0.02680303               -0.00250059                0.03078269
               2.99961719                1.00608087               59.12557042                0.01000001               -0.06838916               -0.02214492                0.21266723                0.04637185               -0.00339208                0.07444240
               3.99893514                1.00711501               59.12544336                0.01000000               -0.06782483               -0.00818747                0.21273681                0.04013296               -0.00435305                0.09698167
               4.99826069                1.00822914               59.12531076                0.02294362               -0.06700741               -0.04427651                0.21274989                0.00998508               -0.00517673                0.02901481
               5.99759499                1.00940531               59.12517355                0.10884140               -0.06612370               -0.06413704                0.21271810               -0.00451128               -0.00581424               -0.00621599
               6.99693822                1.01062486               59.12503301                0.22247155               -0.06524958               -0.06374404                0.21264916               -0.00218883               -0.00613804               -0.00570781
               7.99629000                1.01186978               59.12489273                0.37380769               -0.06448721               -0.06366482                0.21257519               -0.00077307               -0.00599229               -0.00468273
               8.99564848                1.01312353               59.12475725                0.57838095               -0.06399194               -0.06368142                0.21253121               -0.00010456               -0.00447147               -0.00263978
               9.99501016                1.01437359               59.12464862                0.85788861               -0.06383165               -0.06381180                0.21268082                0.00045939               -0.00317850                0.00503629
               0.00083847                2.00287213               59.12574249                0.48586726               -0.06369282               -0.05939160                0.21243476                0.00039319               -0.00027762                0.00017700
               1.00020154                2.00360858               59.12565492                0.01000000               -0.04526165               -0.06792929                0.21248356                0.02686942                0.02691722                0.00180917
               1.99993324                2.00487178               59.12610956                0.01000001               -0.03199253               -0.03187474                0.21413778                0.10344927                0.06802517                0.07579635
               2.99956169                2.00627651               59.12683439                0.01000000               -0.06319581                0.00560571                0.21554584                0.13529025                0.05891687                0.15199118
               3.99866932                2.00759018               59.12712005                0.01000000               -0.11204165                0.04461512                0.21607853                0.11077517               -0.05605009                0.24836513
               4.99732086                2.00798303               59.12558177                0.01000001               -0.11786954                0.03241319                0.21199927                0.07993221               -0.11889769                0.28246944
               5.99631193                2.00876256               59.12468760                0.01144301               -0.08273169                0.05153370                0.21055246                0.11869810               -0.05226050                0.38706999
               6.99566623                2.00999059               59.12450169                0.01618354               -0.06420784               -0.01260788                0.21019190                0.11959077               -0.01642678                0.33342674
               7.99502777                2.01123759               59.12432497                0.01000000               -0.06353264                0.00655119                0.20984688                0.10433049               -0.01470661                0.40029940
               8.99439557                2.01249143               59.12417380                0.05614792               -0.06312877               -0.02630907                0.20967763                0.04634024               -0.00885611                0.10572025
               9.99376520                2.01373949               59.12411367                0.56001144               -0.06303737               -0.06971531                0.21020065                0.02900970               -0.00428254                0.10651236
               0.00014974                3.00228463               59.12557880                0.50705848               -0.06381653               -0.05898292                0.21271331               -0.00039860               -0.00032258                0.00117033
               0.99951158                3.00292151               59.12549315                0.01000001               -0.02228831               -0.06853651                0.21255719                0.04674022                0.06933797                0.00061265
               1.99970397                3.00450270               59.12679963                0.01000000                0.00465143               -0.06311180                0.21549147                0.13620328                0.14137389                0.06754352
               2.99960460                3.00619298               59.12814215                0.01000000               -0.01299282               -0.01049637                0.21840875                0.18626900                0.16211218                0.17359527
               3.99944412                3.00800731               59.12985917                0.01198147               -0.04588254                0.00561283                0.22206130                0.17213205                0.11834901                0.25114222
               4.99868695                3.00887741               59.13033256                0.01000000               -0.07413589                0.07300113                0.22288423                0.21723733                0.12438471                0.49231175
               5.99796140                3.01043599               59.13218455                0.01822011               -0.09159741                0.07052605                0.22708054                0.18503121                0.03271412                0.52271578
               6.99685500                3.01037270               59.13085501                0.01000000               -0.10428203                0.02540749                0.22443121                0.19048384               -0.00678607                0.59838358
               7.99587576                3.01200080               59.13193292                0.01397624               -0.13908142                0.07389993                0.23199323                0.24359496               -0.24878176                0.83056589
               8.99407338                3.01259735               59.12578540                0.02345043               -0.13907635                0.11841387                0.22465478                0.22510210               -0.31490795                1.47775352
               9.99309423                3.01297929               59.12557316                0.53438319               -0.09791440                0.07362461                0.22449133                0.20415625               -0.01915307                1.47694011
              -0.00044326                4.00169247               59.12541678                0.54521025               -0.06384622               -0.05967248                0.21303921               -0.00056818               -0.00030809                0.00183270
               0.99891828                4.00223785               59.12532380                0.01000000               -0.00854579               -0.06798006                0.21257552                0.04071318                0.09150470               -0.00054573
               1.99938583                4.00360955               59.12706639                0.01000000                0.04320895               -0.11294502                0.21597238                0.11445541                0.23549765               -0.03998362
               2.99978246                4.00606658               59.12983388                0.01198128                0.00208565               -0.04252341                0.22197795                0.17559379                0.23621232                0.12957637
               3.99942754                4.00770243               59.13156877                0.01000000               -0.02727663               -0.02076807                0.22553588                0.17344213                0.25798994                0.27117034
               4.99923693                4.00944306               59.13478283                0.01807704               -0.04551423                0.00480424                0.23231898                0.14095290                0.15065316                0.29308936
               5.99851726                4.01017308               59.13437828                0.01000001               -0.06629194               -0.02940395                0.23095256                0.08140355                0.05231560                0.31719499
               6.99791109                4.01049874               59.13564339                0.01201014               -0.04211147                0.04613759                0.23381589                0.20130992                0.28780005                0.68957580
               7.99767503                4.01271559               59.13996728                0.01095562                0.00040187                0.06562194                0.24229381                0.34032332                0.85393030                1.09928937
               8.99791913                4.01485971               59.15255434                0.08137091               -0.02952882                0.07193106                0.25589760                0.29780541                0.64012111                1.39572313
               9.99708445                4.01521199               59.15250919                0.56584687               -0.08346756                0.08353965                0.25417142                0.21802588                0.00887685                1.39720951
              -0.00095238                5.00109118               59.12525579                0.59705416               -0.06388564               -0.06063741                0.21338962               -0.00055658               -0.00029000                0.00231017
               0.99840876                5.00156191               59.12514700                0.02295586               -0.04416344               -0.06713656                0.21253099                0.00995874                0.02998772               -0.00157693
               1.99816435                5.00224380               59.12564351                0.01000001                0.03074175               -0.11929826                0.21179554                0.08584567                0.26662619               -0.10046931
               2.99902360                5.00534252               59.13026582                0.01000000                0.06860697               -0.06945884                0.22280870                0.22862224                0.46529436                0.13403484
               3.99953649                5.00759195               59.13471713                0.01807680                0.00058831               -0.04013723                0.23237559                0.14564211                0.27574826                0.16335231
               4.99903536                5.00897349               59.13552927                0.01000001               -0.05013475               -0.04539179                0.23325942                0.06718768                0.16508139                0.17799453
               5.99853379                5.00984791               59.13777963                0.01192532               -0.03483331               -0.00444489                0.23740334                0.11089026                0.42633254                0.54373035
               6.99833870                5.01129546               59.14383080                0.01020635               -0.01062712                0.06485356                0.24924180                0.20027070                0.77097556                0.89292561
               7.99832125                5.01331324               59.15296375                0.07406181               -0.04028042               -0.00936089                0.26174876                0.13663797                0.46590277                0.67335279
               8.99753309                5.01403597               59.15285728                0.15740483               -0.07855251               -0.08110711                0.25916359                0.01540551                0.00200136                0.03943190
               9.99675020                5.01465008               59.15271074                0.60734695               -0.07828872               -0.06440049                0.25692893                0.01304382                0.00012920                0.03543195
              -0.00139584                6.00047972               59.12509507                0.66446294               -0.06393185               -0.06165159                0.21375547               -0.00048859               -0.00027990                0.00262415
               0.99796484                6.00089512               59.12496382                0.10886448               -0.06410137               -0.06620257                0.21243969               -0.00488555               -0.00287958               -0.00240242
               1.99732213                6.00122358               59.12478075                0.01144461                0.05209564               -0.08326281                0.21007092                0.12760359                0.36751096               -0.04121982
               2.99900675                6.00467741               59.13205919                0.01822737                0.06936378               -0.08870360                0.22698079                0.19861260                0.48935531                0.04395995
               3.99870941                6.00689969               59.13427369                0.01000001               -0.03410168               -0.06200624                0.23094754                0.08751243                0.29541998                0.06280328
               4.99832472                6.00853522               59.13768850                0.01192616               -0.01481562               -0.02335790                0.23753196                0.11438447                0.52546264                0.42945008
               5.99841310                6.01008418               59.14451971                0.01017677                0.00632254                0.02090575                0.25095963                0.16278958                0.76317411                0.76483460
               6.99845117                6.01179581               59.15268421                0.07399388               -0.03729126               -0.01404946                0.26271474                0.09257207                0.41976359                0.46276305
               7.99766727                6.01252837               59.15263976                0.15682050               -0.07803889               -0.07851411                0.26051116                0.00424658                0.00575032                0.00293105
               8.99689039                6.01323757               59.15252217                0.26750116               -0.07750804               -0.07877840                0.25819960                0.00269093                0.00136901                0.00415324
               9.99611711                6.01392398               59.15238739                0.67114319               -0.07732841               -0.07406571                0.25592578                0.00233480                0.00062131                0.00635235
              -0.00179295                6.99985815               59.12493460                0.75050549               -0.06398627               -0.06263694                0.21413483               -0.00038337               -0.00032510                0.00286964
               0.99756719                7.00023786               59.12477576                0.22252993               -0.06364599               -0.06526344                0.21231625               -0.00238274               -0.00301757               -0.00293177
               1.99693413                7.00057854               59.12456370                0.01618719               -0.01237227               -0.06411491                0.20961310                0.12873494                0.31258286               -0.00862931
               2.99731974                7.00356844               59.13071638                0.01000000                0.02473955               -0.10354478                0.22419885                0.20791012                0.55790923                0.00195867
               3.99742892                7.00635182               59.13542773                0.01201309                0.04094060               -0.03114363                0.23388517                0.21678508                0.65234540                0.28732425
               4.99813856                7.00850633               59.14347580                0.01019893                0.05500382                0.00687297                0.24971488                0.20956003                0.86021544                0.74621224
               5.99852900                7.01026602               59.15233692                0.07399135               -0.01963029               -0.03021646                0.26329189                0.09526093                0.45467160                0.40991370
               6.99774595                7.01101447               59.15231651                0.15685074               -0.07822895               -0.07817647                0.26117901                0.00234264                0.00725962               -0.00072848
               7.99696442                7.01174296               59.15222807                0.26758586               -0.07773246               -0.07808269                0.25891715                0.00111586                0.00309736               -0.00172603
               8.99619130                7.01246040               59.15212263                0.42070685               -0.07701693               -0.07727720                0.25664028                0.00051301                0.00145367                0.00041898
               9.99542408                7.01316877               59.15199919                0.76143344               -0.07672191               -0.07565314                0.25435812                0.00063378                0.00065417                0.00269928
              -0.00216292                7.99922698               59.12477549                0.85953602               -0.06402838               -0.06353340                0.21453653               -0.00023837               -0.00043965                0.00316090
               0.99719680                7.99958985               59.12458571                0.37388076               -0.06354184               -0.06443178                0.21218863               -0.00084656               -0.00261876               -0.00306180
               1.99656624                7.99994128               59.12435343                0.01000000                0.00974391               -0.06338141                0.20919300                0.11441158                0.37352966               -0.00757468
               2.99739168                8.00260651               59.13168585                0.01397946                0.07704888               -0.14185667                0.23159298                0.27081281                0.77616134               -0.21444748
               3.99810722                8.00627681               59.13949106                0.01095604                0.06050232                0.02005474                0.24270831                0.36799987                1.03249522                0.80500506
               4.99860172                8.00867268               59.15195583                0.07405743               -0.01485206               -0.03144454                0.26350082                0.14693979                0.63567139                0.44119928
               5.99781018                8.00947985               59.15197280                0.15680340               -0.07903154               -0.07835277                0.26167038                0.00481300                0.00868375               -0.00094404
               6.99702109                8.01023228               59.15189870                0.26755782               -0.07832645               -0.07788557                0.25949737                0.00121794                0.00342737               -0.00270654
               7.99624365                8.01096672               59.15181007                0.42079478               -0.07731234               -0.07729167                0.25724070                0.00038546                0.00229214               -0.00183285
               8.99547484                8.01169202               59.15171181                0.64264688               -0.07652953               -0.07654081                0.25496155                0.00010059                0.00119191               -0.00027765
               9.99471306                8.01241091               59.15159938                0.89477307               -0.07617832               -0.07562749                0.25267471                0.00031602                0.00057362                0.00200287
              -0.00252345                8.99858748               59.12461989                0.99778045               -0.06405944               -0.06421022                0.21498367               -0.00007207               -0.00064115                0.00276130
               0.99683596                8.99894922               59.12439738                0.57851762               -0.06354246               -0.06388126                0.21209204               -0.00011530               -0.00157600               -0.00231968
               1.99620570                8.99931091               59.12415769                0.05631990               -0.02177433               -0.06293204                0.20896267                0.05272934                0.10337649               -0.00449428
               2.99640047                9.00073131               59.12603378                0.02383460                0.12585250               -0.14376456                0.22325813                0.25473739                1.36845056               -0.28136604
               3.99872275                9.00675292               59.15099267                0.08165223                0.07369213               -0.01877194                0.25880301                0.32970255                1.28939888                0.59431188
               4.99787431                9.00787744               59.15158644                0.15740205               -0.08285444               -0.07936381                0.26144247                0.01818621                0.03950787               -0.00107081
               5.99706566                9.00869897               59.15157134                0.26744001               -0.07954331               -0.07802428                0.25990679                0.00315027                0.00552297               -0.00167020
               6.99628345                9.00945676               59.15148970                0.42060543               -0.07766405               -0.07735343                0.25777572                0.00058700                0.00155010               -0.00139945
               7.99551238                9.01019712               59.15139467                0.64253851               -0.07671651               -0.07669700                0.25552912                0.00011242                0.00080207               -0.00107511
               8.99474912                9.01092959               59.15129664                0.98459326               -0.07598787               -0.07599125                0.25324579                0.00000702                0.00055567               -0.00041645
               9.99399262                9.01165622               59.15119504                0.99724299               -0.07564915               -0.07523148                0.25095216                0.00026160                0.00046097                0.00131891
              -0.00288784                9.99794278               59.12445387                0.99993814               -0.06411013               -0.06447038                0.21522952                0.00050581                0.00160863                0.00211703
               0.99647106                9.99831222               59.12422350                0.85797706               -0.06367108               -0.06369964                0.21220786                0.00050379                0.00227174               -0.00164723
               1.99583874                9.99868264               59.12400838                0.56016932               -0.07133214               -0.06282684                0.20948547                0.03425378                0.09824813               -0.00213775
               2.99504442                9.99973122               59.12569789                0.53476901                0.08582003               -0.10000904                0.22316185                0.22533152                1.35837548               -0.01678026
               3.99755514               10.00590138               59.15074987                0.56612291                0.09874890               -0.08515412                0.25757187                0.25094823                1.28332704                0.00733056
               4.99701940               10.00708540               59.15122059                0.60735367               -0.06306345               -0.07920378                0.25971512                0.01540807                0.03062350               -0.00082006
               5.99629387               10.00791937               59.15119043                0.67109615               -0.07423605               -0.07795983                0.25815384                0.00281122                0.00280194               -0.00056698
               6.99553468               10.00868521               59.15109615                0.76134609               -0.07604021               -0.07715471                0.25602848                0.00079338               -0.00083954               -0.00055047
               7.99477307               10.00943278               59.15099010                0.89466635               -0.07593922               -0.07643457                0.25379263                0.00041824               -0.00147217               -0.00045581
               8.99401589               10.01017220               59.15088132                0.99724362               -0.07540162               -0.07573878                0.25151728                0.00035290               -0.00117092               -0.00034439
               9.99326504               10.01090628               59.15077973                0.99163963               -0.07508553               -0.07499323                0.24922397                0.00064959               -0.00073593                0.00085066
               0.00254173                0.00426568               60.12820132                0.79089135               -0.06300270               -0.06299824                0.21162612                0.00014270                0.00099082               -0.00080957
               1.00191170                0.00509855               60.12810126                0.53224233               -0.06128780               -0.06404585                0.21186218                0.00130401                0.00189687                0.00062811
               2.00131597                0.00597528               60.12801557                0.48607974               -0.05892179               -0.06362707                0.21217092                0.00046491                0.00308840               -0.00028140
               3.00073327                0.00694740               60.12792860                0.50723139               -0.05857348               -0.06379387                0.21256144               -0.00038771                0.00381724               -0.00042392
               4.00014450                0.00802205               60.12784445                0.54533915               -0.05940564               -0.06385293                0.21300305               -0.00056623                0.00465527               -0.00044737
               4.99954515                0.00918533               60.12776297                0.59713410               -0.06050441               -0.06392547                0.21347546               -0.00055141                0.00531365               -0.00045089
               5.99893442                0.01041715               60.12768337                0.66448836               -0.06162665               -0.06400156                0.21395729               -0.00047885                0.00580399               -0.00047510
               6.99831262                0.01169685               60.12760579                0.75041921               -0.06269378               -0.06408862                0.21445416               -0.00036932                0.00626881               -0.00061017
               7.99768054                0.01300433               60.12753214                0.85931017               -0.06364876               -0.06416107                0.21496589               -0.00022276                0.00688973               -0.00086439
               8.99703965                0.01432146               60.12746598                0.99733735               -0.06436840               -0.06422331                0.21552232               -0.00005549                0.00600805               -0.00125825
               9.99639317                0.01563480               60.12737568                0.99957285               -0.06464736               -0.06430815                0.21587622                0.00052126                0.00468647                0.00361869
               0.00171028                1.00363570               60.12803276                0.53224038               -0.06403398               -0.06126135                0.21183297                0.00129592               -0.00072097               -0.00056561
               1.00106994                1.00445810               60.12793116                0.01206834               -0.06570438               -0.06574257                0.21205317                0.00392061               -0.00136286                0.00155885
               2.00039620                1.00533901               60.12781555                0.01000000               -0.06819710               -0.04497972                0.21228387                0.02795939               -0.00256472                0.03152450
               2.99970600                1.00630947               60.12769611                0.01000000               -0.06881601               -0.02177783                0.21246963                0.04783965               -0.00357112                0.07588344
               3.99901988                1.00738352               60.12757002                0.01000000               -0.06819565               -0.00766208                0.21259544                0.04130576               -0.00464465                0.09878885
               4.99834209                1.00854608               60.12743782                0.02301630               -0.06730043               -0.04421934                0.21266115                0.00965304               -0.00555550                0.02898070
               5.99767387                1.00977714               60.12730055                0.10885077               -0.06633764               -0.06418059                0.21267479               -0.00497312               -0.00625699               -0.00678268
               6.99701534                1.01105597               60.12715960                0.22237279               -0.06539305               -0.06374826                0.21266123               -0.00240503               -0.00661739               -0.00616318
               7.99636601                1.01236272               60.12701876                0.37348405               -0.06457408               -0.06367354                0.21263797               -0.00084736               -0.00646426               -0.00505905
               8.99572386                1.01367923               60.12688313                0.57766644               -0.06404820               -0.06370844                0.21264551               -0.00011403               -0.00482485               -0.00285019
               9.99508504                1.01499172               60.12677637                0.85739346               -0.06388120               -0.06387046                0.21286566                0.00050238               -0.00343000                0.00544662
               0.00092286                2.00304045               60.12786534                0.48609111               -0.06360489               -0.05882265                0.21212674                0.00044728               -0.00031189                0.00037887
               1.00028681                2.00378370               60.12777853                0.01000000               -0.04495329               -0.06830537                0.21222897                0.02802038                0.02768762                0.00171035
               2.00002379                2.00507568               60.12824986                0.01000001               -0.03206314               -0.03197334                0.21392355                0.10633093                0.06953484                0.07724777
               2.99964554                2.00651185               60.12898860                0.01000000               -0.06448923                0.00606870                0.21529408                0.13924882                0.05981988                0.15507601
               3.99873401                2.00786881               60.12927953                0.01000000               -0.11504720                0.04575160                0.21582547                0.11519109               -0.05808627                0.25356931
               4.99734460                2.00830095               60.12770095                0.01000001               -0.12044695                0.03294836                0.21183954                0.08462674               -0.12245907                0.28831694
               5.99632507                2.00913354               60.12679166                0.01144867               -0.08328334                0.05247177                0.21030079                0.12377190               -0.05409816                0.39543852
               6.99567893                2.01042189               60.12660289                0.01618382               -0.06423687               -0.01308910                0.20999687                0.12476289               -0.01768860                0.34097305
               7.99504033                2.01173086               60.12642250                0.01000000               -0.06352845                0.00660432                0.20965879                0.10909781               -0.01589608                0.41224861
               8.99440836                2.01304729               60.12626985                0.05614767               -0.06310478               -0.02395513                0.20953056                0.05026862               -0.00957036                0.11476022
               9.99377823                2.01435739               60.12621550                0.56004268               -0.06301310               -0.07142778                0.21016088                0.03242916               -0.00462959                0.11587310
               0.00023274                3.00245925               60.12770487                0.50722139               -0.06376108               -0.05839167                0.21249667               -0.00043110               -0.00036749                0.00149939
               0.99959512                3.00309199               60.12761778                0.01000000               -0.02190325               -0.06898488                0.21236343                0.04820654                0.07082417                0.00039677
               1.99979467                3.00469954               60.12895335                0.01000000                0.00513642               -0.06445671                0.21524923                0.14020721                0.14456152                0.06838535
               2.99969785                3.00643084               60.13032493                0.01000000               -0.01300352               -0.01048380                0.21814078                0.19255954                0.16574987                0.17710802
               3.99953460                3.00829855               60.13207840                0.01198537               -0.04639791                0.00600674                0.22173303                0.17887043                0.12095796                0.25664435
               4.99876989                3.00920505               60.13255984                0.01000000               -0.07531165                0.07404790                0.22257600                0.22634834                0.12725357                0.50345814
               5.99802837                3.01082657               60.13445504                0.01823655               -0.09283111                0.07111419                0.22689299                0.19393341                0.03372891                0.53450833
               6.99691327                3.01079418               60.13309894                0.01000000               -0.10529049                0.02471708                0.22428431                0.19942519               -0.00415897                0.61183506
               7.99592256                3.01249481               60.13425458                0.01407045               -0.14052886                0.07370337                0.23248836                0.25647499               -0.24839200                0.84910316
               8.99410270                3.01320013               60.12803884                0.02406447               -0.14045661                0.11217894                0.22607316                0.23591285               -0.31874295                1.50385542
               9.99311342                3.01356317               60.12782515                0.53490764               -0.09892707                0.06328579                0.22595072                0.20877904               -0.01957973                1.50117401
              -0.00035125                4.00187262               60.12754657                0.54534799               -0.06381069               -0.05918047                0.21291724               -0.00061850               -0.00035132                0.00225519
               0.99901064                4.00240400               60.12744887                0.01000000               -0.00798347               -0.06837558                0.21243451                0.04188357                0.09337179               -0.00087581
               1.99948908                4.00378655               60.12922487                0.01000000                0.04435384               -0.11607019                0.21571604                0.11896131                0.24084091               -0.04213477
               2.99989772                4.00630217               60.13205202                0.01197989                0.00240628               -0.04296702                0.22172671                0.18248788                0.24190934                0.13210468
               3.99953721                4.00798894               60.13382227                0.01000000               -0.02770857               -0.02107255                0.22522816                0.18071604                0.26407235                0.27709320
               4.99934355                4.00978191               60.13710445                0.01808426               -0.04613051                0.00508356                0.23200151                0.14794222                0.15434936                0.29952284
               5.99861460                4.01055582               60.13668693                0.01000001               -0.06721750               -0.03019852                0.23064731                0.08797803                0.05399539                0.32384086
               6.99799920                4.01091623               60.13798205                0.01203200               -0.04253557                0.04598858                0.23366335                0.21002346                0.29428727                0.70355924
               7.99776389                4.01320493               60.14238985                0.01102391                0.00295318                0.06121592                0.24221424                0.34650108                0.86570675                1.11650713
               8.99805826                4.01529087               60.15510921                0.08177079               -0.02680756                0.06275068                0.25498803                0.30030197                0.64762625                1.41446925
               9.99722774                4.01562311               60.15504704                0.56618644               -0.08305289                0.07552070                0.25331236                0.22300743                0.00902723                1.41447518
              -0.00084240                5.00127564               60.12738957                0.59714120               -0.06387305               -0.06027310                0.21336904               -0.00060493               -0.00033043                0.00279208
               0.99851887                5.00172448               60.12727188                0.02303986               -0.04409349               -0.06745361                0.21244172                0.00957123                0.03000575               -0.00200096
               1.99827573                5.00237814               60.12776061                0.01000001                0.03131733               -0.12198648                0.21151713                0.09069262                0.27263433               -0.10428168
               2.99914521                5.00557150               60.13249231                0.01000000                0.06967292               -0.07048245                0.22255252                0.23816550                0.47677128                0.13680804
               3.99966919                5.00787710               60.13703927                0.01808127                0.00083226               -0.04063588                0.23209398                0.15276328                0.28243424                0.16689030
               4.99916186                5.00930672               60.13786034                0.01000001               -0.05077917               -0.04597620                0.23293975                0.07334161                0.16903162                0.18179749
               5.99865360                5.01022260               60.14015266                0.01194033               -0.03486123               -0.00464159                0.23719654                0.11751597                0.43573921                0.55526562
               6.99846464                5.01171396               60.14632190                0.01022580               -0.00878348                0.06364728                0.24905388                0.20486262                0.78472192                0.90912812
               7.99847793                5.01371913               60.15557906                0.07411260               -0.03870409               -0.01353994                0.26128937                0.13971625                0.47298310                0.68409592
               8.99769055                5.01445514               60.15544654                0.15752442               -0.07844186               -0.08179208                0.25865190                0.01688924                0.00176603                0.04243233
               9.99690910                5.01507358               60.15527768                0.60743044               -0.07814566               -0.06356633                0.25642807                0.01393210                0.00010278                0.03804248
              -0.00126102                6.00066716               60.12723300                0.66450454               -0.06394046               -0.06141745                0.21383551               -0.00052937               -0.00032009                0.00314377
               0.99809957                6.00105493               60.12708802                0.10887712               -0.06415318               -0.06643705                0.21239772               -0.00539621               -0.00347478               -0.00289221
               1.99745591                6.00134682               60.12688013                0.01144902                0.05312473               -0.08383651                0.20978851                0.13301785                0.37604944               -0.04330457
               2.99916207                6.00489252               60.13432758                0.01823194                0.07006720               -0.08984825                0.22679398                0.20795750                0.50160515                0.04478055
               3.99885726                6.00717623               60.13658181                0.01000001               -0.03485903               -0.06286275                0.23069947                0.09411595                0.30247836                0.06430914
               4.99846488                6.00886238               60.14006236                0.01193971               -0.01497879               -0.02321151                0.23729647                0.12116007                0.53729864                0.43891179
               5.99855768                6.01046299               60.14702937                0.01020153                0.00675210                0.02122974                0.25088363                0.16698971                0.77778667                0.77937894
               6.99859993                6.01218917               60.15530947                0.07403642               -0.03703266               -0.01526915                0.26232222                0.09453834                0.42667683                0.47041599
               7.99781703                6.01293413               60.15524307                0.15689624               -0.07791656               -0.07849703                0.26010571                0.00457993                0.00573582                0.00324589
               8.99704160                6.01365503               60.15510224                0.26761584               -0.07737650               -0.07883738                0.25779369                0.00293911                0.00133204                0.00462945
               9.99626950                6.01435178               60.15494470                0.67121713               -0.07720988               -0.07376105                0.25552567                0.00249574                0.00061977                0.00678282
              -0.00162853                7.00004729               60.12707683                0.75045382               -0.06401812               -0.06252720                0.21431908               -0.00041230               -0.00037575                0.00341849
               0.99773128                7.00039574               60.12689897                0.22241512               -0.06364850               -0.06542010                0.21232406               -0.00262240               -0.00353344               -0.00345454
               1.99709850                7.00070141               60.12665862                0.01618489               -0.01281634               -0.06413786                0.20936845                0.13428788                0.32031469               -0.01002940
               2.99747496                7.00377453               60.13295711                0.01000000                0.02415765               -0.10450763                0.22406403                0.21762620                0.57195346                0.00436944
               3.99758165                7.00661985               60.13776577                0.01203184                0.04116697               -0.03138009                0.23379369                0.22610835                0.66716591                0.29394562
               4.99829830                7.00884249               60.14597346                0.01023122                0.05424785                0.00876958                0.24962824                0.21456735                0.87715826                0.76046642
               5.99866661                7.01064720               60.15496796                0.07403296               -0.02070167               -0.03005591                0.26291627                0.09726591                0.46253869                0.41689136
               6.99788426                7.01140857               60.15492671                0.15692292               -0.07814645               -0.07809287                0.26082638                0.00250810                0.00733576               -0.00060942
               7.99710368                7.01214919               60.15481558                0.26769744               -0.07762903               -0.07801794                0.25856049                0.00121081                0.00308877               -0.00163820
               8.99633168                7.01287839               60.15468734                0.42087758               -0.07690852               -0.07720684                0.25628614                0.00055608                0.00145095                0.00052555
               9.99556551                7.01359836               60.15454107                0.76152957               -0.07661769               -0.07550691                0.25400899                0.00065626                0.00065823                0.00279513
              -0.00196617                7.99941662               60.12692226                0.85935972               -0.06408305               -0.06353621                0.21482661               -0.00025261               -0.00051035                0.00374803
               0.99739300                7.99974653               60.12670790                0.37356694               -0.06354826               -0.06452493                0.21224702               -0.00093077               -0.00302851               -0.00357599
               1.99676287                8.00006406               60.12644429                0.01000000                0.01015715               -0.06336758                0.20895456                0.11962830                0.38569438               -0.00885433
               2.99759615                8.00280237               60.13400348                0.01407261                0.07742999               -0.14325300                0.23207588                0.28466137                0.79569311               -0.21480363
               3.99831147                8.00654863               60.14191890                0.01102505                0.05663680                0.02267018                0.24287292                0.37532421                1.05132228                0.81813505
               4.99872888                8.00903777               60.15458912                0.07411047               -0.01872783               -0.02998311                0.26310961                0.15032669                0.64730005                0.44861532
               5.99793691                8.00986187               60.15458790                0.15687605               -0.07903930               -0.07824898                0.26132293                0.00518001                0.00895454               -0.00089903
               6.99714810                8.01062732               60.15449214                0.26767128               -0.07827454               -0.07778835                0.25916605                0.00131668                0.00348409               -0.00267420
               7.99637142                8.01137377               60.15438093                0.42096318               -0.07722769               -0.07720580                0.25691963                0.00041405                0.00230193               -0.00179451
               8.99560354                8.01211089               60.15425991                0.64290636               -0.07643671               -0.07645266                0.25464591                0.00010744                0.00119453               -0.00024750
               9.99484269                8.01284165               60.15412461                0.89493581               -0.07608559               -0.07552475                0.25236359                0.00031547                0.00057737                0.00202298
              -0.00229342                8.99877656               60.12677167                0.99740208               -0.06413608               -0.06430110                0.21538300               -0.00006970               -0.00074394                0.00326372
               0.99706522                8.99910524               60.12651888                0.57780534               -0.06356809               -0.06393940                0.21220420               -0.00012682               -0.00180548               -0.00270722
               1.99643522                8.99943405               60.12624640                0.05632533               -0.01908003               -0.06289452                0.20876336                0.05709341                0.11213750               -0.00527579
               2.99668362                9.00090947               60.12827190                0.02444055                0.12087545               -0.14524106                0.22445681                0.26568386                1.39665626               -0.28582259
               3.99885273                9.00707325               60.15357708                0.08204560                0.06539804               -0.01621466                0.25804226                0.33296463                1.31062709                0.60281353
               4.99799158                9.00824283               60.15419921                0.15752218               -0.08360344               -0.07930752                0.26105625                0.01982735                0.04247660               -0.00128033
               5.99718066                9.00908222               60.15416895                0.26755204               -0.07964421               -0.07792160                0.25959278                0.00342815                0.00598098               -0.00167849
               6.99639870                9.00985281               60.15406608                0.42076963               -0.07761409               -0.07726285                0.25748232                0.00063359                0.00164455               -0.00138196
               7.99562838                9.01060507               60.15394857                0.64278932               -0.07663702               -0.07661249                0.25524171                0.00011884                0.00082299               -0.00105796
               8.99486596                9.01134934               60.15382770                0.98498051               -0.07590339               -0.07590711                0.25296151                0.00000664                0.00055884               -0.00040789
               9.99411031                9.01208786               60.15370317                0.99760372               -0.07556459               -0.07514600                0.25067200                0.00025681                0.00046138                0.00131736
              -0.00262490                9.99813059               60.12660854                0.99957306               -0.06421181               -0.06459703                0.21571640                0.00056614                0.00190246                0.00250665
               0.99673298                9.99846774               60.12634651                0.85747302               -0.06372977               -0.06374941                0.21239371                0.00055442                0.00271878               -0.00192357
               1.99610050                9.99880617               60.12610288                0.56020376               -0.07311748               -0.06278828                0.20940049                0.03801822                0.10743377               -0.00251609
               2.99527063                9.99989755               60.12793543                0.53529384                0.07684557               -0.10119251                0.22441121                0.22960863                1.38505685               -0.01723141
               3.99763741               10.00622433               60.15332229                0.56646472                0.09229190               -0.08489195                0.25688879                0.25617175                1.30331664                0.00747560
               4.99711647               10.00745162               60.15381627                0.60743069               -0.06209579               -0.07912029                0.25936966                0.01644381                0.03323326               -0.00083638
               5.99639550               10.00830344               60.15377065                0.67116473               -0.07392755               -0.07787748                0.25787411                0.00300527                0.00324377               -0.00055679
               6.99563791               10.00908206               60.15365521                0.76144250               -0.07591154               -0.07707459                0.25577001                0.00082571               -0.00072593               -0.00053762
               7.99487726               10.00984152               60.15352678                0.89481593               -0.07585163               -0.07635485                0.25353860                0.00042311               -0.00143064               -0.00044603
               8.99412088               10.01059275               60.15339524                0.99760317               -0.07532455               -0.07565879                0.25126596                0.00035263               -0.00115426               -0.00033946
               9.99337077               10.01133873               60.15327072                0.99179088               -0.07501086               -0.07491392                0.24897680                0.00064357               -0.00072882                0.00084618
               0.00265051                0.00442518               61.13031523                0.79115132               -0.06280832               -0.06280440                0.21114560                0.00017699                0.00098700               -0.00079609
               1.00202243                0.00527390               61.13021790                0.53261988               -0.06090668               -0.06399028                0.21145836                0.00146498                0.00194527                0.00061039
               2.00143238                0.00617175               61.13013571                0.48630135               -0.05829496               -0.06353675                0.21185028                0.00052969                0.00328134               -0.00031818
               3.00085653                0.00717590               61.13005303                0.50739045               -0.05793524               -0.06373673                0.21232878               -0.00041818                0.00415541               -0.00046977
               4.00027367                0.00829384               61.12997379                0.54548888               -0.05888519               -0.06381409                0.21286191               -0.00061618                0.00509654               -0.00049009
               4.99967882                0.00950984               61.12989751                0.59722934               -0.06012674               -0.06390690                0.21343186               -0.00059736                0.00581060               -0.00049030
               5.99907114                0.01080143               61.12982317                0.66451960               -0.06138781               -0.06400704                0.21401714               -0.00051662                0.00633688               -0.00051373
               6.99845107                0.01214564               61.12975110                0.75039544               -0.06258160               -0.06411477                0.21461104               -0.00039548                0.00683266               -0.00065992
               7.99781951                0.01352035               61.12968313                0.85913947               -0.06364856               -0.06421194                0.21523055               -0.00023418                0.00748417               -0.00093481
               8.99717810                0.01490560               61.12962302                0.99697040               -0.06445252               -0.06429502                0.21589145               -0.00005272                0.00651262               -0.00136050
               9.99653045                0.01628674               61.12953665                0.99920535               -0.06476420               -0.06440232                0.21632607                0.00057530                0.00507911                0.00391397
               0.00180356                1.00379713               61.13014910                0.53262409               -0.06397660               -0.06087915                0.21142905                0.00145363               -0.00072445               -0.00049341
               1.00116379                1.00463400               61.13005008                0.01199076               -0.06584413               -0.06588661                0.21172346                0.00437955               -0.00136508                0.00152691
               2.00048667                1.00553638               61.12993714                0.01000000               -0.06862447               -0.04464035                0.21202800                0.02930093               -0.00264829                0.03224938
               2.99979130                1.00653854               61.12981981                0.01000000               -0.06930668               -0.02133435                0.21227335                0.04956046               -0.00378490                0.07727444
               3.99910054                1.00765570               61.12969527                0.01000000               -0.06861225               -0.00703289                0.21245021                0.04269089               -0.00497565                0.10054053
               4.99841906                1.00887077               61.12956398                0.02309906               -0.06762340               -0.04412471                0.21256533                0.00931930               -0.00598580                0.02893375
               5.99774807                1.01016136               61.12942704                0.10885698               -0.06657000               -0.06422980                0.21263136               -0.00546957               -0.00674979               -0.00738383
               6.99708766                1.01150449               61.12928624                0.22226219               -0.06554449               -0.06374704                0.21266292               -0.00262961               -0.00713512               -0.00667460
               7.99643718                1.01287823               61.12914549                0.37314693               -0.06466405               -0.06368001                0.21269679               -0.00092284               -0.00697713               -0.00547001
               8.99579438                1.01426265               61.12901016                0.57691373               -0.06410530               -0.06373425                0.21275830               -0.00012189               -0.00521561               -0.00307798
               9.99515508                1.01564271               61.12890593                0.85687181               -0.06392990               -0.06392813                0.21304710                0.00054921               -0.00371018                0.00589971
               0.00100585                2.00320760               61.12998502                0.48632467               -0.06350844               -0.05818711                0.21180496                0.00050836               -0.00034892                0.00060364
               1.00037077                2.00395617               61.12989950                0.01000000               -0.04459963               -0.06874480                0.21196088                0.02935694                0.02844940                0.00158772
               2.00011386                2.00527894               61.13038803                0.01000001               -0.03211741               -0.03204928                0.21370711                0.10972123                0.07098989                0.07863381
               2.99972842                2.00674922               61.13114027                0.01000000               -0.06593045                0.00665944                0.21504032                0.14387461                0.06063542                0.15807804
               3.99879525                2.00815319               61.13143656                0.01000000               -0.11844348                0.04708780                0.21558172                0.12029796               -0.06018298                0.25867009
               4.99735955                2.00862735               61.12981856                0.01000001               -0.12336122                0.03361487                0.21158319                0.08999874               -0.12615518                0.29408914
               5.99632803                2.00951684               61.12889362                0.01144369               -0.08389700                0.05347593                0.21005809                0.12960794               -0.05612101                0.40377088
               6.99568161                2.01087070               61.12870163                0.01618283               -0.06425690               -0.01371234                0.20975247                0.13072715               -0.01908314                0.34855205
               7.99504289                2.01224675               61.12851815                0.01000000               -0.06352183                0.00686449                0.20945493                0.11455265               -0.01717920                0.42468041
               8.99441117                2.01363092               61.12836441                0.05613935               -0.06307835               -0.02137771                0.20936822                0.05474999               -0.01035236                0.12470970
               9.99378132                2.01500817               61.12831689                0.56007611               -0.06298523               -0.07357423                0.21010865                0.03647305               -0.00501082                0.12617899
               0.00031657                3.00263339               61.12982873                0.50740226               -0.06369942               -0.05773608                0.21226977               -0.00046592               -0.00041639                0.00186707
               0.99967958                3.00325910               61.12974042                0.01000000               -0.02142604               -0.06949696                0.21215651                0.04993260                0.07227040                0.00014325
               1.99988805                3.00489540               61.13110462                0.01000000                0.00574867               -0.06596768                0.21499203                0.14491263                0.14768241                0.06912374
               2.99979455                3.00667172               61.13250496                0.01000000               -0.01298437               -0.01039604                0.21786101                0.19984422                0.16929225                0.18060332
               3.99962837                3.00859746               61.13429383                0.01198452               -0.04695867                0.00651166                0.22142148                0.18663318                0.12350764                0.26213899
               4.99885538                3.00954307               61.13478408                0.01000000               -0.07657432                0.07528353                0.22231756                0.23665629                0.13010660                0.51459864
               5.99809688                3.01123088               61.13672241                0.01824475               -0.09415455                0.07177208                0.22671310                0.20393552                0.03469357                0.54629675
               6.99697229                3.01123025               61.13534069                0.01000000               -0.10644312                0.02381294                0.22415861                0.20984729               -0.00117686                0.62534182
               7.99596802                3.01301552               61.13658269                0.01417612               -0.14221702                0.07372507                0.23307678                0.27119811               -0.24723352                0.86785884
               8.99412795                3.01383510               61.13030686                0.02470419               -0.14189940                0.10552419                0.22762562                0.24795015               -0.32224413                1.52972794
               9.99313003                3.01417123               61.13009217                0.53546522               -0.09979194                0.05203910                0.22754214                0.21401427               -0.01996739                1.52506894
              -0.00025489                4.00205287               61.12967512                0.54550118               -0.06376975               -0.05863994                0.21278888               -0.00067360               -0.00039754                0.00272539
               0.99910741                4.00256623               61.12957249                0.01000000               -0.00728095               -0.06881847                0.21227978                0.04324870                0.09518585               -0.00125479
               1.99959949                4.00395959               61.13138071                0.01000000                0.04579161               -0.11962456                0.21547137                0.12418070                0.24617335               -0.04444176
               3.00002325                4.00654129               61.13426841                0.01198415                0.00285374               -0.04343002                0.22148206                0.19048154                0.24767687                0.13462426
               3.99965657                4.00828342               61.13607333                0.01000000               -0.02819960               -0.02136210                0.22498070                0.18902548                0.27014773                0.28308325
               4.99945925                4.01013302               61.13942286                0.01808530               -0.04685026                0.00542251                0.23179515                0.15580435                0.15797069                0.30597483
               5.99871956                4.01095228               61.13899122                0.01000001               -0.06826673               -0.03100463                0.23036019                0.09520360                0.05560730                0.33056242
               6.99809392                4.01134696               61.14031666                0.01205181               -0.04287818                0.04601737                0.23345337                0.22017083                0.30084439                0.71760222
               7.99786200                4.01372125               61.14481157                0.01109414                0.00602734                0.05632093                0.24209307                0.35413521                0.87700509                1.13312117
               8.99821447                4.01574140               61.15765410                0.08219075               -0.02363239                0.05282463                0.25391750                0.30347736                0.65463505                1.43219388
               9.99738935                4.01604896               61.15757544                0.56654237               -0.08251157                0.06710172                0.25230670                0.22875205                0.00917399                1.43066164
              -0.00072361                5.00146059               61.12952317                0.59724662               -0.06385509               -0.05987706                0.21334682               -0.00065619               -0.00037396                0.00332712
               0.99863784                5.00188273               61.12939584                0.02313568               -0.04398918               -0.06780250                0.21233888                0.00915596                0.02991020               -0.00247953
               1.99839660                5.00250291               61.12987385                0.01000001                0.03212606               -0.12500527                0.21099374                0.09622333                0.27865440               -0.10821687
               2.99928036                5.00580312               61.13471687                0.01000000                0.07102735               -0.07165352                0.22232686                0.24906186                0.48839207                0.13955010
               3.99981715                5.00817022               61.13935901                0.01808339                0.00111250               -0.04120220                0.23185739                0.16080106                0.28913083                0.17036910
               4.99930261                5.00965152               61.14018806                0.01000001               -0.05150693               -0.04663431                0.23270286                0.08022283                0.17305145                0.18565792
               5.99878701                5.01061079               61.14252356                0.01195500               -0.03479360               -0.00479074                0.23705429                0.12506163                0.44522562                0.56688414
               6.99860673                5.01215059               61.14881188                0.01025899               -0.00653670                0.06261786                0.24890500                0.21041170                0.79824320                0.92524159
               7.99865628                5.01414194               61.15818954                0.07416999               -0.03684735               -0.01822380                0.26073878                0.14341108                0.47982579                0.69461936
               8.99786979                5.01489159               61.15803032                0.15764906               -0.07831563               -0.08260230                0.25807412                0.01861321                0.00148517                0.04568527
               9.99708996                5.01551326               61.15783930                0.60751651               -0.07798230               -0.06263575                0.25587405                0.01492844                0.00007046                0.04087267
              -0.00111230                6.00085533               61.12937178                0.66453659               -0.06394868               -0.06116665                0.21392628               -0.00057162               -0.00036346                0.00371829
               0.99824822                6.00121018               61.12921178                0.10889117               -0.06420679               -0.06669217                0.21235027               -0.00594715               -0.00413546               -0.00343805
               1.99760357                6.00145949               61.12897652                0.01145028                0.05444782               -0.08445597                0.20946857                0.13918668                0.38469329               -0.04548248
               2.99933717                6.00510822               61.13659507                0.01824327                0.07103103               -0.09115975                0.22665873                0.21855945                0.51405453                0.04555348
               3.99902419                6.00745937               61.13888768                0.01000001               -0.03570181               -0.06382857                0.23046095                0.10154241                0.30961441                0.06580440
               4.99862314                6.00920033               61.14243443                0.01195341               -0.01512340               -0.02313081                0.23719047                0.12870063                0.54924200                0.44836702
               5.99872172                6.01085646               61.14953738                0.01023282                0.00739333                0.02172622                0.25067373                0.17192464                0.79215898                0.79366832
               6.99877100                6.01259932               61.15793065                0.07408467               -0.03662501               -0.01654908                0.26186414                0.09693114                0.43343319                0.47788909
               7.99798922                6.01335677               61.15784187                0.15696885               -0.07778008               -0.07848032                0.25965413                0.00496663                0.00570049                0.00357331
               8.99721540                6.01408936               61.15767805                0.26774081               -0.07723216               -0.07891734                0.25735161                0.00322522                0.00130392                0.00515613
               9.99644458                6.01479624               61.15749791                0.67128838               -0.07708249               -0.07342513                0.25509902                0.00267870                0.00062268                0.00725954
              -0.00144474                7.00023726               61.12922098                0.75040970               -0.06405179               -0.06241132                0.21451807               -0.00044264               -0.00043051                0.00402639
               0.99791474                7.00054889               61.12902224                0.22230622               -0.06364819               -0.06558763                0.21232632               -0.00287480               -0.00408537               -0.00402984
               1.99728229                7.00081379               61.12875107                0.01618630               -0.01315408               -0.06415377                0.20907681                0.14060094                0.32821989               -0.01156803
               2.99765166                7.00397993               61.13519767                0.01000000                0.02367979               -0.10562897                0.22397259                0.22868054                0.58629226                0.00703198
               3.99775589                7.00689364               61.14010361                0.01205358                0.04139365               -0.03155813                0.23368675                0.23664087                0.68198748                0.30061270
               4.99847953                7.00918891               61.14846837                0.01025769                0.05353160                0.01094506                0.24944432                0.22036249                0.89390973                0.77446345
               5.99882652                7.01104531               61.15759525                0.07407679               -0.02172411               -0.02977887                0.26252551                0.09976194                0.47033517                0.42372271
               6.99804505                7.01181961               61.15753303                0.15700418               -0.07804757               -0.07799452                0.26040845                0.00268784                0.00739750               -0.00050101
               7.99726557                7.01257233               61.15739928                0.26782268               -0.07751123               -0.07794670                0.25815816                0.00131664                0.00307917               -0.00153237
               8.99649482                7.01331325               61.15724836                0.42106630               -0.07678988               -0.07713245                0.25589889                0.00060423                0.00144910                0.00064099
               9.99572977                7.01404476               61.15707937                0.76164224               -0.07650517               -0.07534808                0.25363658                0.00068266                0.00066292                0.00289600
              -0.00174441                7.99960711               61.12907202                0.85918385               -0.06413966               -0.06353932                0.21513332               -0.00026740               -0.00058823                0.00439624
               0.99761419                7.99989843               61.12883065                0.37321394               -0.06355205               -0.06462138                0.21229963               -0.00101595               -0.00348302               -0.00413992
               1.99698455                8.00017641               61.12853252                0.01000000                0.01083673               -0.06334881                0.20869148                0.12551751                0.39838110               -0.01027397
               2.99783093                8.00299565               61.13632737                0.01417718                0.07817401               -0.14485084                0.23259981                0.30015332                0.81554225               -0.21451638
               3.99854803                8.00682821               61.14434852                0.01110036                0.05238958                0.02560778                0.24279502                0.38378420                1.06946296                0.83051912
               4.99887872                8.00941923               61.15721802                0.07416196               -0.02308883               -0.02821116                0.26266475                0.15425571                0.65864155                0.45590220
               5.99808625                8.01026089               61.15719926                0.15695217               -0.07904882               -0.07813334                0.26093248                0.00560430                0.00925794               -0.00087339
               6.99729774                8.01103943               61.15708202                0.26779449               -0.07821660               -0.07767829                0.25879153                0.00143119                0.00354923               -0.00264154
               7.99652192                8.01179784               61.15694846                0.42115278               -0.07713434               -0.07711071                0.25656463                0.00044642                0.00231387               -0.00175372
               8.99575506                8.01254671               61.15680473                0.64318735               -0.07633594               -0.07635740                0.25430293                0.00011541                0.00119456               -0.00021798
               9.99499520                8.01328928               61.15664665                0.89510072               -0.07598547               -0.07541534                0.25203441                0.00031461                0.00058008                0.00204130
              -0.00203274                8.99896647               61.12892755                0.99702092               -0.06421486               -0.06439655                0.21580232               -0.00006717               -0.00085709                0.00381630
               0.99732512                8.99925646               61.12864147                0.57704464               -0.06359189               -0.06399742                0.21231191               -0.00013765               -0.00205836               -0.00313253
               1.99669543                8.99954681               61.12833295                0.05632870               -0.01610964               -0.06285159                0.20853870                0.06202000                0.12177894               -0.00612821
               2.99700292                9.00108291               61.13052292                0.02507419                0.11562784               -0.14680541                0.22585858                0.27771014                1.42495636               -0.28994456
               3.99900798                9.00740580               61.15615351                0.08245360                0.05645239               -0.01338741                0.25717368                0.33671860                1.33104493                0.61075293
               4.99813197                9.00862468               61.15680756                0.15764374               -0.08447838               -0.07923402                0.26059935                0.02169101                0.04567722               -0.00151728
               5.99731842                9.00948265               61.15676320                0.26767704               -0.07976255               -0.07780321                0.25923407                0.00374625                0.00649504               -0.00168638
               6.99653672                9.01026605               61.15663934                0.42095099               -0.07755997               -0.07716143                0.25715352                0.00068791                0.00174848               -0.00136159
               7.99576722                9.01103012               61.15649950                0.64306289               -0.07655143               -0.07652044                0.25492943                0.00012766                0.00084404               -0.00104134
               8.99500569                9.01178610               61.15635587                0.98537338               -0.07581467               -0.07581846                0.25266265                0.00000735                0.00055926               -0.00040059
               9.99425092                9.01253645               61.15620848                0.99797300               -0.07547685               -0.07505878                0.25038738                0.00025034                0.00046059                0.00131436
              -0.00232573                9.99831917               61.12876820                0.99920724               -0.06431653               -0.06472987                0.21622640                0.00063088                0.00222445                0.00293602
               0.99703110                9.99861848               61.12847137                0.85695247               -0.06378837               -0.06379833                0.21257757                0.00060890                0.00321057               -0.00222614
               1.99639850                9.99891938               61.12819639                0.56023755               -0.07524797               -0.06274333                0.20929322                0.04236028                0.11752684               -0.00292824
               2.99552614               10.00005954               61.13018611                0.53584697                0.06710653               -0.10233751                0.22585068                0.23437629                1.41168127               -0.01770183
               3.99774063               10.00656046               61.15588765                0.56681875                0.08547759               -0.08453366                0.25612013                0.26201569                1.32245270                0.00763881
               4.99723569               10.00783455               61.15640798                0.60752323               -0.06104088               -0.07901281                0.25896138                0.01759036                0.03603514               -0.00085567
               5.99651981               10.00870482               61.15634791                0.67123906               -0.07358316               -0.07778239                0.25755746                0.00322198                0.00373698               -0.00054546
               6.99576403               10.00949620               61.15621155                0.76154769               -0.07576949               -0.07698494                0.25548467                0.00086163               -0.00060354               -0.00052271
               7.99500442               10.01026743               61.15606087                0.89496436               -0.07575829               -0.07626861                0.25326930                0.00042784               -0.00138861               -0.00043584
               8.99424887               10.01103034               61.15590664                0.99797459               -0.07524630               -0.07557587                0.25101149                0.00035120               -0.00113932               -0.00033464
               9.99349950               10.01178810               61.15575927                0.99195644               -0.07493683               -0.07483501                0.24873695                0.00063396               -0.00072248                0.00084113
               0.00275612                0.00458200               62.13242423                0.79141659               -0.06259939               -0.06259675                0.21064784                0.00021423                0.00098299               -0.00078075
               1.00213013                0.00544641               62.13233042                0.53301942               -0.06048228               -0.06393799                0.21103652                0.00164988                0.00199760                0.00058853
               2.00154648                0.00636605               62.13225257                0.48653924               -0.05759155               -0.06343733                0.21151211                0.00060386                0.00349820               -0.00036098
               3.00097830                0.00740445               62.13217517                0.50758286               -0.05722644               -0.06367394                0.21208502               -0.00044999                0.00452827               -0.00052333
               4.00040195                0.00856928               62.13210169                0.54562343               -0.05831565               -0.06377199                0.21271748               -0.00066857                0.00557742               -0.00053768
               4.99981198                0.00984259               62.13203160                0.59734002               -0.05971880               -0.06388822                0.21339190               -0.00064607                0.00636552               -0.00053300
               5.99920757                0.01119913               62.13196371                0.66457821               -0.06113346               -0.06401167                0.21408226               -0.00055626                0.00692439               -0.00055702
               6.99858931                0.01261337               62.13189801                0.75034047               -0.06246361               -0.06414312                0.21478077               -0.00042288                0.00744287               -0.00071231
               7.99795830                0.01406092               62.13183675                0.85897863               -0.06364677               -0.06426150                0.21550315               -0.00024605                0.00813499               -0.00100945
               8.99731638                0.01551997               62.13178381                0.99657412               -0.06454001               -0.06436874                0.21627643               -0.00004809                0.00706394               -0.00147047
               9.99666750                0.01697452               62.13170221                0.99882922               -0.06488803               -0.06450385                0.21680397                0.00063512                0.00550446                0.00423742
               0.00189385                1.00395604               62.13226134                0.53300312               -0.06392488               -0.06045529                0.21101367                0.00163948               -0.00072758               -0.00041600
               1.00125461                1.00480703               62.13216563                0.01191013               -0.06601780               -0.06606499                0.21138142                0.00491470               -0.00136882                0.00148323
               2.00057350                1.00573167               62.13205611                0.01000000               -0.06912142               -0.04425801                0.21175622                0.03085052               -0.00274608                0.03295952
               2.99987218                1.00676771               62.13194158                0.01000000               -0.06986547               -0.02080952                0.21206470                0.05156613               -0.00403653                0.07861360
               3.99917619                1.00793156               62.13181902                0.01000000               -0.06907887               -0.00628179                0.21229640                0.04430578               -0.00536012                0.10224676
               4.99849060                1.00920371               62.13168912                0.02318806               -0.06797857               -0.04399794                0.21246368                0.00899506               -0.00646175                0.02878558
               5.99781662                1.01055901               62.13155318                0.10884951               -0.06682051               -0.06427686                0.21258041               -0.00598811               -0.00729316               -0.00805070
               6.99715419                1.01197194               62.13141285                0.22214179               -0.06570392               -0.06374485                0.21266213               -0.00286404               -0.00770939               -0.00722950
               7.99650254                1.01341830               62.13127270                0.37278573               -0.06475453               -0.06368263                0.21274613               -0.00099954               -0.00753420               -0.00591371
               8.99585910                1.01487628               62.13113829                0.57611173               -0.06416190               -0.06375887                0.21286820               -0.00013137               -0.00563968               -0.00332344
               9.99521930                1.01632948               62.13103731                0.85633270               -0.06397978               -0.06398906                0.21323615                0.00059790               -0.00401793                0.00639750
               0.00108692                2.00337290               62.13210144                0.48654103               -0.06341314               -0.05747755                0.21148375                0.00058067               -0.00039130                0.00085020
               1.00045279                2.00412511               62.13201775                0.01000000               -0.04420519               -0.06925831                0.21169323                0.03090150                0.02920684                0.00143482
               2.00020281                2.00548089               62.13252401                0.01000001               -0.03215294               -0.03211708                0.21348017                0.11367082                0.07239600                0.07994344
               2.99980973                2.00698825               62.13328941                0.01000000               -0.06753766                0.00735327                0.21478812                0.14925327                0.06137618                0.16099656
               3.99885206                2.00844365               62.13359117                0.01000000               -0.12226457                0.04864968                0.21534021                0.12619096               -0.06240938                0.26372288
               4.99736444                2.00896263               62.13193261                0.01000001               -0.12662421                0.03445073                0.21115902                0.09613973               -0.12999411                0.29985726
               5.99631958                2.00991359               62.13099282                0.01145229               -0.08458477                0.05479446                0.20982730                0.13624267               -0.05823409                0.41221034
               6.99567274                2.01133847               62.13079794                0.01617695               -0.06428052               -0.01429721                0.20949571                0.13744691               -0.02059693                0.35627271
               7.99503397                2.01278727               62.13061160                0.01000000               -0.06350816                0.00701312                0.20922388                0.12077482               -0.01857744                0.43756072
               8.99440258                2.01424479               62.13045722                0.05613344               -0.06304520               -0.01856449                0.20918515                0.05983513               -0.01120263                0.13568587
               9.99377306                2.01569474               62.13041767                0.56010436               -0.06295153               -0.07617434                0.21004047                0.04120206               -0.00542449                0.13753833
               0.00040104                3.00280649               62.13195026                0.50757812               -0.06363884               -0.05701034                0.21204261               -0.00050412               -0.00047045                0.00227356
               0.99976465                3.00342187               62.13186091                0.01000000               -0.02086319               -0.07008119                0.21194489                0.05194140                0.07367486               -0.00015588
               1.99998377                3.00508933               62.13325319                0.01000000                0.00649155               -0.06762035                0.21473085                0.15033574                0.15073592                0.06976577
               2.99989448                3.00691477               62.13468215                0.01000000               -0.01290709               -0.01027519                0.21758557                0.20820701                0.17281298                0.18399432
               3.99972563                3.00890456               62.13650683                0.01198424               -0.04755149                0.00708921                0.22120454                0.19558025                0.12609063                0.26768080
               4.99894345                3.00989272               62.13700619                0.01000000               -0.07800020                0.07673964                0.22211885                0.24854910                0.13302532                0.52592913
               5.99816563                3.01165490               62.13898930                0.01824821               -0.09569991                0.07261647                0.22658665                0.21533212                0.03564844                0.55840109
               6.99702945                3.01168600               62.13758211                0.01000000               -0.10769550                0.02293042                0.22415516                0.22133346                0.00198132                0.63926153
               7.99601172                3.01355857               62.13891611                0.01428256               -0.14405598                0.07366205                0.23359678                0.28757846               -0.24532866                0.88662622
               8.99414833                3.01450499               62.13259136                0.02537024               -0.14341324                0.09832497                0.22938719                0.26159680               -0.32519591                1.55543374
               9.99314345                3.01480599               62.13237599                0.53604361               -0.10048794                0.03972406                0.22933289                0.21987392               -0.02034825                1.54865789
              -0.00015393                4.00223269               62.13180234                0.54563059               -0.06373030               -0.05804807                0.21266501               -0.00073277               -0.00044749                0.00324603
               0.99920877                4.00272349               62.13169447                0.01000000               -0.00647240               -0.06931366                0.21212060                0.04487640                0.09697935               -0.00168932
               1.99971663                4.00412848               62.13353430                0.01000000                0.04749355               -0.12356690                0.21518668                0.13016360                0.25142131               -0.04704105
               3.00015864                4.00678275               62.13648167                0.01199007                0.00345449               -0.04394656                0.22112821                0.19951847                0.25334090                0.13701704
               3.99978572                4.00858543               62.13832189                0.01000000               -0.02867836               -0.02172088                0.22470288                0.19848261                0.27626437                0.28903661
               4.99958507                4.01049742               62.14174035                0.01808284               -0.04763846                0.00577901                0.23176551                0.16476892                0.16166270                0.31255464
               5.99883295                4.01136592               62.14129414                0.01000001               -0.06946650               -0.03203898                0.23036587                0.10341622                0.05728152                0.33754525
               6.99819574                4.01179708               62.14265112                0.01207172               -0.04332032                0.04593963                0.23350436                0.23143287                0.30740203                0.73195147
               7.99796654                4.01426051               62.14723171                0.01116916                0.00956724                0.05113204                0.24209523                0.36292516                0.88762570                1.14915992
               8.99838709                4.01621129               62.16018756                0.08261888               -0.01989996                0.04199554                0.25274856                0.30754360                0.66109631                1.44881637
               9.99756854                4.01648922               62.16009317                0.56691045               -0.08185488                0.05812882                0.25122182                0.23524741                0.00931846                1.44568696
              -0.00059521                5.00164553               62.13165651                0.59734018               -0.06383954               -0.05944876                0.21333388               -0.00071151               -0.00042027                0.00392531
               0.99876639                5.00203559               62.13151866                0.02320534               -0.04385006               -0.06818611                0.21223161                0.00879075                0.02958040               -0.00301183
               1.99852779                5.00261799               62.13198048                0.01000001                0.03307526               -0.12842649                0.21071653                0.10250517                0.28471970               -0.11235494
               2.99942790                5.00603584               62.13693885                0.01000000                0.07264132               -0.07299775                0.22198536                0.26127521                0.50018597                0.14221218
               3.99998061                5.00847014               62.14167642                0.01808625                0.00152218               -0.04188554                0.23166238                0.16984653                0.29587724                0.17378079
               4.99945834                5.01000830               62.14251439                0.01000001               -0.05231588               -0.04740044                0.23262106                0.08794628                0.17716751                0.18960461
               5.99893429                5.01101412               62.14489375                0.01196767               -0.03474087               -0.00506257                0.23703908                0.13340878                0.45474164                0.57864210
               6.99876352                5.01260479               62.15130000                0.01029044               -0.00391405                0.06143611                0.24884659                0.21677219                0.81158396                0.94129870
               7.99885601                5.01458121               62.16079384                0.07422659               -0.03465134               -0.02323293                0.26013536                0.14786091                0.48642779                0.70494143
               8.99807050                5.01534490               62.16060802                0.15778861               -0.07817319               -0.08355868                0.25742661                0.02059546                0.00119304                0.04923583
               9.99729255                5.01596857               62.16039516                0.60761067               -0.07779467               -0.06161583                0.25525996                0.01605107                0.00004073                0.04395658
              -0.00094830                6.00104372               62.13151152                0.66458451               -0.06395869               -0.06089777                0.21402719               -0.00061766               -0.00041140                0.00435954
               0.99841212                6.00135977               62.13133503                0.10890210               -0.06426108               -0.06696660                0.21229492               -0.00653385               -0.00487030               -0.00403695
               1.99776648                6.00155995               62.13106950                0.01145059                0.05599405               -0.08519756                0.20909473                0.14613554                0.39341969               -0.04765354
               2.99953200                6.00532280               62.13886075                0.01825500                0.07218503               -0.09264833                0.22646615                0.23040729                0.52656688                0.04623173
               3.99921018                6.00774772               62.14119103                0.01000001               -0.03659904               -0.06494406                0.23026638                0.10983514                0.31682524                0.06724326
               4.99880002                6.00954941               62.14480617                0.01196970               -0.01527738               -0.02300687                0.23712102                0.13717282                0.56120955                0.45784141
               5.99890464                6.01126467               62.15204284                0.01026099                0.00820420                0.02228257                0.25058816                0.17753685                0.80642983                0.80796898
               6.99896410                6.01302580               62.16054676                0.07414111               -0.03604963               -0.01788027                0.26131320                0.09979171                0.44006015                0.48518362
               7.99818364                6.01379585               62.16043615                0.15706121               -0.07762319               -0.07846280                0.25913938                0.00541187                0.00566119                0.00394748
               8.99741164                6.01454012               62.16024927                0.26787942               -0.07707067               -0.07901856                0.25685983                0.00355657                0.00125729                0.00573416
               9.99664223                6.01525690               62.16004668                0.67137124               -0.07694080               -0.07305143                0.25463387                0.00288738                0.00062294                0.00777893
              -0.00123967                7.00042757               62.13136720                0.75037444               -0.06408489               -0.06228739                0.21472739               -0.00047547               -0.00049091                0.00469390
               0.99811948                7.00069626               62.13114550                0.22218424               -0.06364317               -0.06576311                0.21231738               -0.00314016               -0.00470663               -0.00466247
               1.99748747                7.00091404               62.13084015                0.01618480               -0.01356064               -0.06416234                0.20874127                0.14769502                0.33624431               -0.01323382
               2.99784827                7.00418287               62.13743656                0.01000000                0.02316138               -0.10680038                0.22385872                0.24081072                0.60074586                0.00986107
               3.99795070                7.00717126               62.14243951                0.01207646                0.04182890               -0.03193096                0.23347039                0.24825928                0.69678301                0.30709508
               4.99868485                7.00954816               62.15096235                0.01029043                0.05289729                0.01336038                0.24934021                0.22697355                0.91057750                0.78824301
               5.99900864                7.01145977               62.16021847                0.07413767               -0.02283353               -0.02941054                0.26201034                0.10262259                0.47793027                0.43042364
               6.99822818                7.01224718               62.16013488                0.15709094               -0.07793519               -0.07788145                0.25993195                0.00289800                0.00742914               -0.00038683
               7.99744994                7.01301195               62.15997874                0.26795630               -0.07738003               -0.07786849                0.25771039                0.00143497                0.00306797               -0.00143636
               8.99668058                7.01376453               62.15980532                0.42126592               -0.07666035               -0.07705465                0.25547777                0.00065979                0.00144533                0.00075812
               9.99591673                7.01450754               62.15961381                0.76176373               -0.07638459               -0.07517654                0.25324137                0.00071193                0.00066780                0.00300084
              -0.00149519                7.99979797               62.13122492                0.85900597               -0.06419668               -0.06354268                0.21545610               -0.00028254               -0.00067131                0.00510559
               0.99786284                8.00004451               62.13095389                0.37287076               -0.06355187               -0.06471988                0.21234328               -0.00110493               -0.00396672               -0.00475683
               1.99723377                8.00027670               62.13061812                0.01000000                0.01140766               -0.06332108                0.20838379                0.13220807                0.41151403               -0.01180536
               2.99809100                8.00318679               62.13865548                0.01428509                0.07881528               -0.14655161                0.23305143                0.31731606                0.83523095               -0.21350499
               3.99881008                8.00710910               62.14677480                0.01117110                0.04799892                0.02889622                0.24257875                0.39340624                1.08696662                0.84222027
               4.99905097                8.00981662               62.15984241                0.07422331               -0.02760038               -0.02628215                0.26214738                0.15889758                0.66992172                0.46294154
               5.99825807                8.01067646               62.15980655                0.15703917               -0.07905456               -0.07799683                0.26047585                0.00608452                0.00956734               -0.00088441
               6.99746988                8.01146818               62.15966797                0.26792452               -0.07815379               -0.07755664                0.25838027                0.00156019                0.00360916               -0.00260714
               7.99669499                8.01223848               62.15951223                0.42135888               -0.07703184               -0.07700609                0.25617149                0.00048250                0.00232387               -0.00171361
               8.99592925                8.01299902               62.15934597                0.64348203               -0.07622713               -0.07625554                0.25393349                0.00012417                0.00119343               -0.00018885
               9.99517045                8.01375337               62.15916530                0.89527193               -0.07587943               -0.07530030                0.25169131                0.00031329                0.00058140                0.00205958
              -0.00173839                8.99915672               62.13108772                0.99663865               -0.06429561               -0.06449743                0.21624323               -0.00006413               -0.00097819                0.00442238
               0.99761865                8.99940186               62.13076511                0.57624954               -0.06361304               -0.06405506                0.21241406               -0.00014740               -0.00232739               -0.00359649
               1.99698935                8.99964762               62.13041718                0.05631387               -0.01282301               -0.06279885                0.20827973                0.06762502                0.13243960               -0.00706900
               2.99736219                9.00125184               62.13278907                0.02574857                0.10998200               -0.14848327                0.22752529                0.29117835                1.45325659               -0.29356514
               3.99918899                9.00774918               62.15872055                0.08288304                0.04666257               -0.01001333                0.25615540                0.34126008                1.35048675                0.61832066
               4.99829544                9.00902252               62.15941120                0.15777966               -0.08551039               -0.07914760                0.26007734                0.02382912                0.04914440               -0.00179565
               5.99747878                9.00989984               62.15935363                0.26781284               -0.07990411               -0.07766808                0.25882625                0.00410625                0.00705168               -0.00170654
               6.99669736                9.01069605               62.15920915                0.42114972               -0.07750200               -0.07704888                0.25678898                0.00074970                0.00185818               -0.00134059
               7.99592874                9.01147183               62.15904716                0.64334457               -0.07645950               -0.07642077                0.25459144                0.00013899                0.00086400               -0.00102541
               8.99516817                9.01223942               62.15888096                0.98577223               -0.07572165               -0.07572536                0.25234867                0.00000795                0.00056015               -0.00039265
               9.99441431                9.01300153               62.15871092                0.99834961               -0.07538642               -0.07497026                0.25009891                0.00024195                0.00046029                0.00131195
              -0.00198677                9.99850802               62.13093307                0.99881563               -0.06442383               -0.06486955                0.21676042                0.00070059                0.00257826                0.00340617
               0.99736899                9.99876340               62.13059806                0.85640338               -0.06384665               -0.06384603                0.21275837                0.00066918                0.00375185               -0.00255761
               1.99673630                9.99902072               62.13028874                0.56027042               -0.07779955               -0.06268951                0.20916036                0.04738087                0.12867973               -0.00338417
               2.99581300               10.00021712               62.13245244                0.53642712                0.05641512               -0.10347182                0.22757265                0.23948640                1.43816489               -0.01811628
               3.99786460               10.00690884               62.15844469                0.56718431                0.07819516               -0.08403477                0.25520428                0.26838856                1.34054809                0.00781022
               4.99737690               10.00823367               62.15899550                0.60761603               -0.05989656               -0.07888516                0.25849812                0.01885916                0.03905757               -0.00087583
               5.99666667               10.00912310               62.15892180                0.67131955               -0.07320099               -0.07767393                0.25720186                0.00346520                0.00426966               -0.00053518
               6.99591288               10.00992720               62.15876490                0.76166460               -0.07561318               -0.07688521                0.25517073                0.00090065               -0.00047219               -0.00050717
               7.99515440               10.01071006               62.15859217                0.89512682               -0.07565908               -0.07617661                0.25298596                0.00043243               -0.00134539               -0.00042640
               8.99439970               10.01148452               62.15841547                0.99834955               -0.07516698               -0.07549034                0.25075353                0.00034815               -0.00112201               -0.00032902
               9.99365106               10.01225396               62.15824546                0.99214032               -0.07486375               -0.07475694                0.24850445                0.00062055               -0.00071416                0.00083655
               0.00285779                0.00473535               63.13452818                0.79168757               -0.06237506               -0.06237394                0.21013545                0.00025440                0.00097579               -0.00076041
               1.00223404                0.00561526               63.13443863                0.53341810               -0.06001003               -0.06389174                0.21060113                0.00186518                0.00205099                0.00056679
               2.00165759                0.00655745               63.13436595                0.48678444               -0.05680320               -0.06333100                0.21116037                0.00068956                0.00373315               -0.00040846
               3.00109797                0.00763262               63.13429473                0.50776086               -0.05643987               -0.06360518                0.21182902               -0.00048299                0.00494323               -0.00058051
               4.00052879                0.00884842               63.13422814                0.54578501               -0.05769282               -0.06372629                0.21256943               -0.00072396                0.00611701               -0.00058887
               4.99994412                0.01018414               63.13416535                0.59745874               -0.05927843               -0.06386641                0.21335124               -0.00069809                0.00697109               -0.00057935
               5.99934322                0.01161136               63.13410481                0.66462406               -0.06086171               -0.06401248                0.21414786               -0.00059650                0.00756696               -0.00060131
               6.99872688                0.01310170               63.13404671                0.75030606               -0.06234104               -0.06417281                0.21496289               -0.00044904                0.00811323               -0.00076912
               7.99809640                0.01462826               63.13399319                0.85879655               -0.06364823               -0.06431580                0.21579530               -0.00025770                0.00884042               -0.00108928
               8.99745392                0.01616723               63.13394855                0.99620309               -0.06463254               -0.06444529                0.21667993               -0.00004382                0.00766668               -0.00158840
               9.99680375                0.01770128               63.13387273                0.99842970               -0.06501683               -0.06460780                0.21730110                0.00069790                0.00597590                0.00458552
               0.00198042                1.00411161               63.13436938                0.53341531               -0.06387840               -0.05998374                0.21058484                0.00185414               -0.00073370               -0.00032393
               1.00134164                1.00497634               63.13427770                0.01182635               -0.06623111               -0.06628350                0.21102705                0.00554135               -0.00138028                0.00143754
               2.00065580                1.00592414               63.13417227                0.01000000               -0.06969904               -0.04383561                0.21147213                0.03263792               -0.00286988                0.03365275
               2.99994766                1.00699657               63.13406110                0.01000000               -0.07050041               -0.02020237                0.21184182                0.05389129               -0.00432538                0.07991568
               3.99924579                1.00821116               63.13394120                0.01000000               -0.06959943               -0.00542910                0.21213278                0.04619868               -0.00578831                0.10391262
               4.99855567                1.00954548               63.13381326                0.02326878               -0.06836571               -0.04383578                0.21235120                0.00869837               -0.00699752                0.02847242
               5.99787848                1.01097123               63.13367865                0.10887189               -0.06708633               -0.06432214                0.21251610               -0.00653558               -0.00789249               -0.00872026
               6.99721394                1.01245997               63.13353948                0.22199984               -0.06587095               -0.06374015                0.21265738               -0.00310629               -0.00833155               -0.00783358
               7.99656106                1.01398510               63.13340041                0.37239932               -0.06484860               -0.06368555                0.21279672               -0.00107685               -0.00814050               -0.00639393
               8.99591697                1.01552278               63.13326753                0.57526945               -0.06421889               -0.06378284                0.21297707               -0.00013826               -0.00609544               -0.00358567
               9.99527668                1.01705520               63.13317066                0.85574470               -0.06402892               -0.06405094                0.21342524                0.00065115               -0.00434367                0.00693626
               0.00116541                2.00353567               63.13421470                0.48679597               -0.06330742               -0.05668264                0.21114864                0.00066413               -0.00043989                0.00112636
               1.00053233                2.00428959               63.13413337                0.01000000               -0.04376464               -0.06985371                0.21141037                0.03267883                0.02994807                0.00125569
               2.00029012                2.00568074               63.13465763                0.01000001               -0.03217765               -0.03218586                0.21324811                0.11823579                0.07375045                0.08119396
               2.99988878                2.00722858               63.13543604                0.01000000               -0.06931279                0.00813911                0.21453356                0.15543089                0.06203843                0.16384735
               3.99890386                2.00873984               63.13574336                0.01000000               -0.12653842                0.05045984                0.21509844                0.13295954               -0.06484223                0.26874746
               4.99735801                2.00930743               63.13404174                0.01000001               -0.13029212                0.03542205                0.21084850                0.10314057               -0.13396052                0.30565951
               5.99629802                2.01032491               63.13309016                0.01145838               -0.08535609                0.05631779                0.20950369                0.14374591               -0.06039428                0.42070194
               6.99565089                2.01182690               63.13289154                0.01617475               -0.06429788               -0.01488348                0.20922195                0.14503962               -0.02229434                0.36418294
               7.99501206                2.01335455               63.13270262                0.01000000               -0.06349183                0.00714176                0.20897212                0.12779080               -0.02009127                0.45089649
               8.99438106                2.01489157               63.13254811                0.05611170               -0.06300657               -0.01546726                0.20898186                0.06564463               -0.01212328                0.14782116
               9.99375193                2.01642026               63.13251770                0.56013453               -0.06291261               -0.07931560                0.20995743                0.04672412               -0.00587539                0.15007748
               0.00048588                3.00297796               63.13406959                0.50777859               -0.06357256               -0.05620607                0.21180669               -0.00054351               -0.00053236                0.00272183
               0.99985015                3.00357927               63.13397932                0.01000000               -0.02021744               -0.07074470                0.21171920                0.05425890                0.07504582               -0.00050636
               2.00008153                3.00528042               63.13539923                0.01000000                0.00735112               -0.06946319                0.21446384                0.15653448                0.15373858                0.07026789
               2.99999717                3.00715935               63.13685667                0.01000000               -0.01276969               -0.01018207                0.21734021                0.21768130                0.17633100                0.18728455
               3.99982614                3.00922036               63.13871792                0.01198798               -0.04818832                0.00773569                0.22096575                0.20569371                0.12861486                0.27313010
               4.99903341                3.01025392               63.13922646                0.01000000               -0.07961038                0.07842435                0.22189728                0.26197370                0.13583409                0.53745334
               5.99823393                3.01209759               63.14125414                0.01826471               -0.09741520                0.07369122                0.22640895                0.22823947                0.03666835                0.57043564
               6.99708510                3.01216230               63.13982380                0.01000000               -0.10908637                0.02206025                0.22409824                0.23419205                0.00547638                0.65325924
               7.99605220                3.01412793               63.14125463                0.01438892               -0.14604757                0.07360889                0.23418013                0.30585669               -0.24263548                0.90593495
               8.99416415                3.01521343               63.13489460                0.02607987               -0.14492034                0.09047480                0.23148729                0.27674153               -0.32745023                1.58098156
               9.99315379                3.01546889               63.13467883                0.53665395               -0.10103594                0.02616327                0.23143763                0.22617444               -0.02065751                1.57185744
              -0.00004808                4.00241155               63.13392842                0.54579262               -0.06368721               -0.05740181                0.21254014               -0.00079587               -0.00050422                0.00382486
               0.99931505                4.00287469               63.13381490                0.01000000               -0.00556001               -0.06986669                0.21195013                0.04676174                0.09869581               -0.00218139
               1.99984072                4.00429147               63.13568445                0.01000000                0.04937144               -0.12799071                0.21492845                0.13697585                0.25660606               -0.04960226
               3.00030247                4.00702494               63.13869097                0.01198780                0.00412265               -0.04455371                0.22084938                0.20970217                0.25904918                0.13927386
               3.99992317                4.00889455               63.14056739                0.01000000               -0.02911094               -0.02218336                0.22447205                0.20919970                0.28254115                0.29494825
               4.99972026                4.01087591               63.14405817                0.01809354               -0.04843731                0.00619354                0.23168070                0.17497035                0.16547298                0.31913417
               5.99895442                4.01179874               63.14359854                0.01000001               -0.07079349               -0.03313303                0.23031075                0.11272478                0.05890917                0.34446278
               6.99830439                4.01226810               63.14498674                0.01209549               -0.04381799                0.04593139                0.23346718                0.24406028                0.31386239                0.74608049
               7.99807806                4.01482672               63.14965347                0.01124653                0.01352737                0.04541945                0.24236357                0.37287910                0.89758356                1.16502980
               8.99857493                4.01670107               63.16270908                0.08306386               -0.01567795                0.03005854                0.25147163                0.31224846                0.66679657                1.46416485
               9.99776451                4.01694352               63.16259988                0.56729459               -0.08104278                0.04849974                0.25004261                0.24238041                0.00947373                1.45935931
              -0.00045632                5.00182992               63.13378985                0.59746778               -0.06382118               -0.05898597                0.21332401               -0.00077150               -0.00047197                0.00458389
               0.99890546                5.00218193               63.13364047                0.02329843               -0.04364359               -0.06860476                0.21211224                0.00842400                0.02940313               -0.00360926
               1.99867080                5.00272061               63.13408818                0.01000001                0.03413367               -0.13223634                0.21037853                0.10959349                0.29071377               -0.11671316
               2.99958814                5.00626828               63.13915658                0.01000000                0.07441735               -0.07448926                0.22173691                0.27502927                0.51197322                0.14489715
               4.00015915                5.00877669               63.14399226                0.01808981                0.00202465               -0.04266993                0.23161223                0.18008055                0.30286238                0.17726563
               4.99962863                5.01037779               63.14484048                0.01000001               -0.05314583               -0.04833517                0.23254099                0.09667499                0.18136312                0.19342644
               5.99909624                5.01143493               63.14726434                0.01198529               -0.03451534               -0.00538096                0.23700453                0.14292259                0.46425452                0.59027325
               6.99893832                5.01308093               63.15378881                0.01032706               -0.00097101                0.06000048                0.24886392                0.22379525                0.82449305                0.95696234
               7.99907682                5.01503632               63.16339224                0.07429441               -0.03230009               -0.02879529                0.25945333                0.15277685                0.49260027                0.71483672
               8.99829232                5.01581460               63.16317885                0.15793272               -0.07801621               -0.08471616                0.25671128                0.02288216                0.00082344                0.05307192
               9.99751649                5.01643888               63.16294450                0.60771506               -0.07758316               -0.06051732                0.25459153                0.01731334                0.00000458                0.04728191
              -0.00076754                6.00123183               63.13365232                0.66465140               -0.06396256               -0.06060918                0.21412728               -0.00066579               -0.00046274                0.00505644
               0.99859284                6.00150260               63.13345768                0.10888315               -0.06431112               -0.06725770                0.21221988               -0.00714499               -0.00569878               -0.00470649
               1.99794624                6.00164675               63.13315841                0.01145615                0.05770716               -0.08600603                0.20878161                0.15389337                0.40223582               -0.05021651
               2.99974698                6.00553515               63.14112439                0.01826084                0.07345164               -0.09429280                0.22631446                0.24367451                0.53936163                0.04701976
               3.99941527                6.00804116               63.14349300                0.01000001               -0.03757314               -0.06624573                0.23020688                0.11903348                0.32419832                0.06862772
               4.99899552                6.00990921               63.14717685                0.01198908               -0.01527682               -0.02301322                0.23701992                0.14667235                0.57327314                0.46717194
               5.99910974                6.01169112               63.15454915                0.01029734                0.00916889                0.02275727                0.25056801                0.18376286                0.82035698                0.82176218
               6.99917890                6.01346811               63.16315692                0.07419962               -0.03549034               -0.01951331                0.26070477                0.10273677                0.44632317                0.49212509
               7.99839993                6.01425082               63.16302466                0.15715738               -0.07744382               -0.07843965                0.25854454                0.00591565                0.00561983                0.00431896
               8.99763002                6.01500674               63.16281524                0.26803985               -0.07688585               -0.07914441                0.25630409                0.00393508                0.00122065                0.00637563
               9.99686221                6.01573318               63.16259059                0.67147091               -0.07678062               -0.07263600                0.25411914                0.00312595                0.00062847                0.00835868
              -0.00101117                7.00061774               63.13351553                0.75032214               -0.06411783               -0.06215691                0.21494900               -0.00050751               -0.00055442                0.00542254
               0.99834765                7.00083678               63.13326859                0.22205146               -0.06363538               -0.06594606                0.21229834               -0.00342112               -0.00537581               -0.00535850
               1.99771612                7.00100049               63.13292590                0.01617809               -0.01402151               -0.06417350                0.20838462                0.15563247                0.34447210               -0.01503859
               2.99806722                7.00438242               63.13967484                0.01000000                0.02248205               -0.10810596                0.22383253                0.25415865                0.61554618                0.01293884
               3.99816576                7.00745177               63.14477301                0.01209305                0.04224472               -0.03247910                0.23346946                0.26101266                0.71186942                0.31360286
               4.99891211                7.00991752               63.15345517                0.01032684                0.05234146                0.01600017                0.24925470                0.23440916                0.92713195                0.80162004
               5.99921259                7.01189007               63.16283546                0.07419852               -0.02393769               -0.02915405                0.26138376                0.10577236                0.48529194                0.43676648
               6.99843336                7.01269066               63.16273167                0.15719247               -0.07780488               -0.07775475                0.25938794                0.00314084                0.00749894               -0.00025579
               7.99765649                7.01346753               63.16255349                0.26810697               -0.07723477               -0.07778328                0.25721263                0.00157609                0.00305605               -0.00132015
               8.99688867                7.01423171               63.16235791                0.42149179               -0.07651740               -0.07697274                0.25501442                0.00072320                0.00144223                0.00088541
               9.99612615                7.01498616               63.16214420                0.76189025               -0.07625197               -0.07499079                0.25281561                0.00074241                0.00067496                0.00311386
              -0.00121577                7.99998869               63.13338114                0.85883117               -0.06425651               -0.06354804                0.21579855               -0.00029766               -0.00076241                0.00588189
               0.99814166                8.00018368               63.13307752                0.37247375               -0.06354919               -0.06482090                0.21238117               -0.00119793               -0.00450704               -0.00542808
               1.99751324                8.00036328               63.13270020                0.01000000                0.01186023               -0.06328381                0.20804072                0.13967460                0.42515273               -0.01348125
               2.99837887                8.00337303               63.14098840                0.01438921                0.07935907               -0.14838900                0.23371787                0.33628794                0.85579268               -0.21180390
               3.99910043                8.00739157               63.14920010                0.01124853                0.04332675                0.03252744                0.24282702                0.40430059                1.10483301                0.85375065
               4.99924540                8.01022921               63.16246097                0.07428679               -0.03241899               -0.02409204                0.26153643                0.16430633                0.68096934                0.46967966
               5.99845205                8.01110804               63.16240878                0.15713308               -0.07905739               -0.07784048                0.25995150                0.00663550                0.00991640               -0.00086412
               6.99766425                8.01191302               63.16224963                0.26807953               -0.07808223               -0.07741798                0.25791084                0.00170558                0.00368192               -0.00257287
               7.99689040                8.01269515               63.16207189                0.42157824               -0.07692014               -0.07689320                0.25574317                0.00052339                0.00232500               -0.00167309
               8.99612585                8.01346729               63.16188340                0.64379210               -0.07611183               -0.07614856                0.25354150                0.00013380                0.00119125               -0.00016269
               9.99536816                8.01423336               63.16168047                0.89544476               -0.07576872               -0.07518145                0.25133742                0.00031029                0.00058420                0.00207435
              -0.00140709                8.99934678               63.13325241                0.99623637               -0.06438000               -0.06460484                0.21670830               -0.00006080               -0.00111059                0.00508184
               0.99794911                8.99954036               63.13288975                0.57540773               -0.06363245               -0.06411251                0.21251189               -0.00015788               -0.00262228               -0.00410187
               1.99732026                8.99973481               63.13249855                0.05630913               -0.00922131               -0.06273535                0.20798385                0.07393781                0.14430360               -0.00807754
               2.99776468                9.00141464               63.13507343                0.02645602                0.10376663               -0.15012797                0.22936959                0.30610668                1.48143737               -0.29660717
               3.99939559                9.00810232               63.16127662                0.08333244                0.03585470               -0.00615944                0.25497808                0.34645747                1.36874183                0.62531996
               4.99848178                9.00943568               63.16200911                0.15792605               -0.08670469               -0.07903892                0.25946441                0.02626352                0.05291538               -0.00210574
               5.99766150                9.01033326               63.16193972                0.26796421               -0.08007092               -0.07751337                0.25836212                0.00451898                0.00766985               -0.00171963
               6.99688036                9.01114230               63.16177512                0.42136618               -0.07744057               -0.07692328                0.25638392                0.00081872                0.00197777               -0.00132726
               7.99611269                9.01192967               63.16159133                0.64365369               -0.07636126               -0.07631364                0.25422760                0.00014923                0.00088286               -0.00100784
               8.99535313                9.01270874               63.16140284                0.98618264               -0.07562390               -0.07562780                0.25201843                0.00000734                0.00055814               -0.00038483
               9.99460021                9.01348253               63.16121045                0.99872130               -0.07529237               -0.07488065                0.24980621                0.00023252                0.00045832                0.00130778
              -0.00160416                9.99869660               63.13310340                0.99844038               -0.06453734               -0.06501779                0.21732540                0.00077630                0.00296449                0.00391649
               0.99775047                9.99890143               63.13272654                0.85583060               -0.06390627               -0.06389330                0.21294007                0.00073460                0.00434611               -0.00291995
               1.99711772                9.99910857               63.13237960                0.56030389               -0.08084893               -0.06262418                0.20899453                0.05319788                0.14108344               -0.00387244
               2.99613349               10.00037047               63.13473757                0.53703923                0.04454093               -0.10441726                0.22946975                0.24487147                1.46438198               -0.01846445
               3.99800854               10.00726839               63.16099173                0.56756328                0.07031212               -0.08339380                0.25413774                0.27519241                1.35740173                0.00797503
               4.99753973               10.00864843               63.16157794                0.60771534               -0.05863647               -0.07872496                0.25795622                0.02026488                0.04235181               -0.00089448
               5.99683581               10.00955777               63.16149195                0.67140468               -0.07277534               -0.07754921                0.25680142                0.00373650                0.00485820               -0.00052048
               6.99608423               10.01037455               63.16131496                0.76178666               -0.07544293               -0.07677534                0.25482988                0.00094218               -0.00032856               -0.00049441
               7.99532695               10.01116888               63.16112059                0.89529949               -0.07555467               -0.07607865                0.25268801                0.00043519               -0.00129793               -0.00041480
               8.99457313               10.01195473               63.16092171                0.99872982               -0.07508568               -0.07540078                0.25048945                0.00034335               -0.00110654               -0.00032293
               9.99382523               10.01273575               63.16072936                0.99233195               -0.07478986               -0.07467842                0.24827788                0.00060386               -0.00070776                0.00083063
               0.00295474                0.00488441               64.13662694                0.79195016               -0.06213600               -0.06213616                0.20961285                0.00029863                0.00096762               -0.00074043
               1.00233338                0.00577961               64.13654245                0.53382664               -0.05948483               -0.06385550                0.21015804                0.00211484                0.00210764                0.00053847
               2.00176504                0.00674524               64.13647578                0.48703501               -0.05592031               -0.06321997                0.21080061                0.00078970                0.00399338               -0.00046098
               3.00121497                0.00786008               64.13641176                0.50794881               -0.05556913               -0.06353753                0.21157289               -0.00051658                0.00540198               -0.00064384
               4.00065366                0.00913138               64.13635308                0.54594249               -0.05701240               -0.06367910                0.21242009               -0.00078387                0.00670613               -0.00064407
               5.00007473                0.01053519               64.13629863                0.59757013               -0.05880557               -0.06384261                0.21331200               -0.00075088                0.00763667               -0.00062742
               5.99947755                0.01203943               64.13624667                0.66467457               -0.06057631               -0.06401698                0.21422724               -0.00063773                0.00827076               -0.00064790
               6.99886320                0.01361245               64.13619726                0.75027985               -0.06221408               -0.06420160                0.21515126               -0.00047668                0.00884038               -0.00082948
               7.99823327                0.01522470               64.13615266                0.85862737               -0.06365121               -0.06437036                0.21609876               -0.00026891                0.00960295               -0.00117558
               8.99759018                0.01685025               64.13611741                0.99580755               -0.06473052               -0.06452408                0.21710157               -0.00003925                0.00831213               -0.00171452
               9.99693866                0.01847037               64.13604823                0.99803058               -0.06515178               -0.06471384                0.21781683                0.00076411                0.00647728                0.00496535
               0.00206253                1.00426305               64.13647304                0.53381386               -0.06384178               -0.05945948                0.21014625                0.00210244               -0.00073909               -0.00022900
               1.00142411                1.00514105               64.13638617                0.01174039               -0.06649135               -0.06654952                0.21066506                0.00627132               -0.00139360                0.00137329
               2.00073270                1.00611304               64.13628556                0.01000000               -0.07036865               -0.04337227                0.21118028                0.03468821               -0.00301338                0.03433499
               3.00001674                1.00722471               64.13617842                0.01000000               -0.07122170               -0.01952267                0.21161598                0.05656721               -0.00465805                0.08117680
               3.99930827                1.00849459               64.13606168                0.01000000               -0.07017717               -0.00447567                0.21196110                0.04839548               -0.00627665                0.10554735
               4.99861320                1.00989677               64.13593615                0.02335625               -0.06878621               -0.04362872                0.21222931                0.00841811               -0.00759191                0.02819192
               5.99793254                1.01139926               64.13580350                0.10886174               -0.06736981               -0.06436444                0.21245143               -0.00709976               -0.00854795               -0.00952302
               6.99726580                1.01297043               64.13566600                0.22186111               -0.06604308               -0.06373164                0.21264277               -0.00335367               -0.00900817               -0.00847596
               7.99661168                1.01458099               64.13552863                0.37199506               -0.06494268               -0.06368586                0.21284097               -0.00115633               -0.00879617               -0.00690779
               8.99596695                1.01620500               64.13539783                0.57438814               -0.06427554               -0.06380538                0.21308425               -0.00014477               -0.00659248               -0.00386475
               9.99532617                1.01782323               64.13530581                0.85513212               -0.06407741               -0.06411311                0.21361287                0.00070943               -0.00470227                0.00752705
               0.00124078                2.00369522               64.13632441                0.48703015               -0.06319708               -0.05579250                0.21080382                0.00075973               -0.00049416                0.00142905
               1.00060881                2.00444862               64.13624595                0.01000000               -0.04328149               -0.07054216                0.21111579                0.03471930                0.03069532                0.00103889
               2.00037515                2.00587780               64.13678897                0.01000001               -0.03220201               -0.03225846                0.21299584                0.12347502                0.07506801                0.08237242
               2.99996477                2.00746963               64.13758008                0.01000000               -0.07128191                0.00904084                0.21427274                0.16248714                0.06261998                0.16665660
               3.99894951                2.00904187               64.13789314                0.01000000               -0.13131736                0.05242685                0.21485438                0.14064318               -0.06731407                0.27373520
               4.99733842                2.00966262               64.13614958                0.01000001               -0.13438128                0.03642975                0.21055257                0.11104944               -0.13816732                0.31147369
               5.99626189                2.01075214               64.13518290                0.01145371               -0.08620155                0.05779895                0.20915894                0.15221574               -0.06278878                0.42928327
               6.99561439                2.01233782               64.13498238                0.01617094               -0.06431574               -0.01572263                0.20891838                0.15357680               -0.02404936                0.37222291
               7.99497557                2.01395098               64.13479105                0.01000000               -0.06346761                0.00727133                0.20869068                0.13564188               -0.02173171                0.46478296
               8.99434504                2.01557414               64.13463686                0.05609362               -0.06295931               -0.01206723                0.20875093                0.07226560               -0.01311907                0.16136164
               9.99371639                2.01718811               64.13461682                0.56016365               -0.06286534               -0.08311378                0.20985167                0.05318139               -0.00635898                0.16402612
               0.00057093                3.00314720               64.13618640                0.50797083               -0.06350120               -0.05531459                0.21156369               -0.00058607               -0.00059863                0.00322297
               0.99993592                3.00373021               64.13609529                0.01000000               -0.01948713               -0.07149532                0.21147984                0.05692645                0.07638655               -0.00090617
               2.00018119                3.00546787               64.13754247                0.01000000                0.00832456               -0.07151570                0.21420138                0.16364182                0.15673622                0.07071314
               3.00010241                3.00740553               64.13902895                0.01000000               -0.01265220               -0.01006521                0.21709116                0.22835840                0.17982368                0.19057219
               3.99992814                3.00954313               64.14092614                0.01198420               -0.04892474                0.00840960                0.22084148                0.21698343                0.13110056                0.27867418
               4.99912391                3.01062536               64.14144414                0.01000000               -0.08132422                0.08017330                0.22181354                0.27685347                0.13870218                0.54902909
               5.99830166                3.01255524               64.14351748                0.01826673               -0.09927100                0.07464185                0.22652193                0.24256436                0.03768362                0.58281550
               6.99713849                3.01265598               64.14206408                0.01000000               -0.11067296                0.02079274                0.22418503                0.24874257                0.00928996                0.66755860
               7.99608820                3.01472642               64.14359972                0.01450414               -0.14816841                0.07362536                0.23499830                0.32639917               -0.23877408                0.92576016
               8.99417513                3.01596366               64.13722110                0.02682998               -0.14631739                0.08181009                0.23391515                0.29330560               -0.32891418                1.60624581
               9.99316185                3.01616096               64.13700474                0.53730208               -0.10132741                0.01113119                0.23386014                0.23273111               -0.02088344                1.59456362
               0.00006304                4.00258893               64.13605315                0.54594566               -0.06363760               -0.05669459                0.21241104               -0.00086303               -0.00056339                0.00446628
               0.99942666                4.00301871               64.13593347                0.01000000               -0.00451837               -0.07047880                0.21176359                0.04893793                0.10043793               -0.00273677
               1.99997267                4.00444748               64.13783287                0.01000000                0.05150108               -0.13290563                0.21467730                0.14471918                0.26184713               -0.05252133
               3.00045668                4.00726833               64.14089865                0.01198783                0.00483374               -0.04525811                0.22070975                0.22117264                0.26488131                0.14157630
               4.00006934                4.00921006               64.14281133                0.01000000               -0.02966494               -0.02266463                0.22443952                0.22117838                0.28891190                0.30109015
               4.99986338                4.01126608               64.14637396                0.01810064               -0.04933952                0.00663925                0.23157293                0.18622597                0.16922165                0.32570635
               5.99908255                4.01224498               64.14590035                0.01000001               -0.07226618               -0.03431294                0.23022705                0.12284902                0.06047327                0.35141336
               6.99841806                4.01275367               64.14732046                0.01211712               -0.04433382                0.04589382                0.23358210                0.25827485                0.32053966                0.76044308
               7.99819588                4.01542349               64.15207898                0.01133046                0.01792761                0.03901660                0.24268256                0.38432239                0.90682666                1.18031825
               8.99877661                4.01721034               64.16521700                0.08353484               -0.01097342                0.01682558                0.25000969                0.31734167                0.67154613                1.47795360
               9.99797641                4.01741074               64.16509402                0.56769358               -0.08002031                0.03812697                0.24869174                0.25001446                0.00962534                1.47143959
              -0.00030589                5.00201330               64.13592299                0.59757403               -0.06379854               -0.05848797                0.21331609               -0.00083222               -0.00052540                0.00530587
               0.99905612                5.00232063               64.13576090                0.02337016               -0.04340755               -0.06905949                0.21197808                0.00809218                0.02895723               -0.00427747
               1.99882595                5.00280976               64.13618806                0.01000001                0.03535822               -0.13647908                0.20997113                0.11757708                0.29684168               -0.12127753
               2.99976328                5.00650036               64.14137359                0.01000000                0.07639994               -0.07616996                0.22163000                0.29040167                0.52428938                0.14757005
               4.00035395                5.00908984               64.14630867                0.01809689                0.00251177               -0.04352706                0.23164005                0.19150658                0.30987844                0.18079120
               4.99981352                5.01075815               64.14716521                0.01000001               -0.05414507               -0.04939604                0.23245010                0.10625481                0.18546542                0.19719882
               5.99927105                5.01186898               64.14963384                0.01200450               -0.03440192               -0.00580887                0.23701853                0.15324329                0.47372976                0.60189569
               6.99912548                5.01357386               64.15627728                0.01036542                0.00234646                0.05858872                0.24891075                0.23173825                0.83694110                0.97240874
               7.99931798                5.01550675               64.16598290                0.07436825               -0.02953846               -0.03512536                0.25863995                0.15840746                0.49835408                0.72416249
               8.99853471                5.01630017               64.16574225                0.15809745               -0.07783153               -0.08608848                0.25590360                0.02551296                0.00043547                0.05722956
               9.99776135                5.01692350               64.16548699                0.60782650               -0.07733616               -0.05931823                0.25384958                0.01871814               -0.00002458                0.05088222
              -0.00056826                6.00141917               64.13579407                0.66468989               -0.06396914               -0.06030543                0.21424279               -0.00071407               -0.00051448                0.00582547
               0.99879205                6.00163752               64.13557943                0.10890696               -0.06436295               -0.06756910                0.21213925               -0.00778949               -0.00650444               -0.00543805
               1.99814448                6.00171790               64.13524513                0.01145694                0.05962968               -0.08691388                0.20836214                0.16260561                0.41123503               -0.05275723
               2.99998464                6.00574493               64.14338704                0.01827261                0.07486062               -0.09613595                0.22627588                0.25852066                0.55243054                0.04774322
               3.99964169                6.00833952               64.14579517                0.01000001               -0.03876515               -0.06768060                0.23019400                0.12935179                0.33170770                0.06999664
               4.99920934                6.01027816               64.14954657                0.01200083               -0.01549920               -0.02308499                0.23710417                0.15704015                0.58542409                0.47651850
               5.99933171                6.01212880               64.15705420                0.01033373                0.01028569                0.02332464                0.25076805                0.19071051                0.83420507                0.83539597
               6.99941505                6.01392545               64.16576085                0.07426913               -0.03469971               -0.02122514                0.26000584                0.10634092                0.45228768                0.49871354
               7.99863771                6.01472098               64.16560704                0.15726237               -0.07724632               -0.07842166                0.25790226                0.00649813                0.00554839                0.00473620
               8.99787013                6.01548857               64.16537535                0.26821231               -0.07667983               -0.07930437                0.25568941                0.00436960                0.00117357                0.00706961
               9.99710412                6.01622437               64.16512907                0.67156770               -0.07660079               -0.07217858                0.25355493                0.00339514                0.00063217                0.00898091
              -0.00075688                7.00080720               64.13566618                0.75030027               -0.06415253               -0.06202241                0.21518575               -0.00054096               -0.00062258                0.00622441
               0.99860160                7.00096925               64.13539147                0.22190021               -0.06362308               -0.06613674                0.21227100               -0.00370564               -0.00610242               -0.00611047
               1.99797066                7.00107148               64.13500784                0.01617686               -0.01447582               -0.06417378                0.20799267                0.16449294                0.35296569               -0.01707228
               2.99831208                7.00457764               64.14191321                0.01000000                0.02185468               -0.10964013                0.22384764                0.26935264                0.63077706                0.01639121
               3.99840775                7.00773622               64.14710890                0.01212025                0.04264829               -0.03295062                0.23356753                0.27556392                0.72703567                0.32022803
               4.99916504                7.01029645               64.15594744                0.01036033                0.05151131                0.01890574                0.24944755                0.24257936                0.94349819                0.81480894
               5.99943798                7.01233547               64.16544615                0.07426371               -0.02524628               -0.02869440                0.26072088                0.10944695                0.49234291                0.44282384
               6.99866012                7.01314936               64.16532264                0.15730433               -0.07765789               -0.07760903                0.25877647                0.00341026                0.00756818               -0.00014278
               7.99788482                7.01393832               64.16512299                0.26828362               -0.07707026               -0.07769008                0.25664969                0.00173695                0.00304265               -0.00119872
               8.99711871                7.01471408               64.16490560                0.42173808               -0.07635843               -0.07688643                0.25450200                0.00079840                0.00143311                0.00102728
               9.99635765                7.01547993               64.16467012                0.76203562               -0.07610614               -0.07478838                0.25235722                0.00077769                0.00067906                0.00324160
              -0.00090319                8.00017872               64.13554089                0.85865621               -0.06431666               -0.06355519                0.21615648               -0.00031303               -0.00085911                0.00672480
               0.99845365                8.00031478               64.13520152                0.37207240               -0.06354343               -0.06492224                0.21241011               -0.00129076               -0.00508009               -0.00615700
               1.99782594                8.00043443               64.13477893                0.01000000                0.01266536               -0.06324085                0.20767087                0.14792111                0.43950971               -0.01529457
               2.99870695                8.00355212               64.14332984                0.01450889                0.08041117               -0.15035562                0.23444531                0.35734353                0.87686335               -0.20918768
               3.99943417                8.00768051               64.15163134                0.01133141                0.03773624                0.03638597                0.24321045                0.41622710                1.12190753                0.86426233
               4.99946168                8.01065628               64.16507314                0.07435878               -0.03832146               -0.02165061                0.26084002                0.17000036                0.69139562                0.47603884
               5.99866774                8.01155491               64.16500558                0.15724528               -0.07906345               -0.07766000                0.25935355                0.00725849                0.01028072               -0.00085271
               6.99788041                8.01237327               64.16482619                0.26825351               -0.07800069               -0.07725922                0.25737104                0.00187262                0.00375201               -0.00253546
               7.99710773                8.01316718               64.16462709                0.42182926               -0.07679619               -0.07676746                0.25526621                0.00057176                0.00233057               -0.00163478
               8.99634449                8.01395084               64.16441680                0.64412875               -0.07598698               -0.07603346                0.25311693                0.00014610                0.00118600               -0.00013616
               9.99558799                8.01472860               64.16419205                0.89562907               -0.07565005               -0.07505599                0.25096640                0.00030577                0.00058561                0.00209105
              -0.00103527                8.99953609               64.13542188                0.99585904               -0.06446569               -0.06471750                0.21719320               -0.00005713               -0.00125304                0.00579966
               0.99832007                8.99967080               64.13501535                0.57451816               -0.06364941               -0.06416831                0.21260326               -0.00016776               -0.00293832               -0.00464953
               1.99769174                8.99980667               64.13457685                0.05628476               -0.00536023               -0.06266290                0.20765684                0.08103607                0.15742418               -0.00918498
               2.99821287                9.00157053               64.13737646                0.02719880                0.09681997               -0.15162871                0.23151659                0.32194155                1.50958318               -0.29913651
               3.99962814                9.00846394               64.16382011                0.08379621                0.02388907               -0.00212007                0.25364679                0.35154963                1.38577597                0.63129779
               4.99869065                9.00986343               64.16460049                0.15808911               -0.08809901               -0.07890835                0.25876040                0.02901855                0.05702997               -0.00246613
               5.99786616                9.01078227               64.16452087                0.26813225               -0.08026723               -0.07733416                0.25783215                0.00499046                0.00835223               -0.00174665
               6.99708530                9.01160417               64.16433683                0.42160733               -0.07737396               -0.07678175                0.25593026                0.00089792                0.00210637               -0.00130819
               7.99631868                9.01240297               64.16413171                0.64398001               -0.07625466               -0.07619663                0.25383046                0.00016094                0.00089910               -0.00099405
               8.99556021                9.01319341               64.16392133                0.98657303               -0.07552180               -0.07552601                0.25167324                0.00000792                0.00055274               -0.00038302
               9.99480825                9.01397881               64.16370704                0.99910328               -0.07519662               -0.07479161                0.24951492                0.00022060                0.00045467                0.00129831
              -0.00117375                9.99888437               64.13527958                0.99804312               -0.06465294               -0.06517234                0.21791278                0.00085661                0.00338077                0.00447686
               0.99817972                9.99903142               64.13485687                0.85521645               -0.06396534               -0.06393866                0.21311736                0.00080444                0.00498759               -0.00331021
               1.99754694                9.99918117               64.13446863                0.56033917               -0.08456043               -0.06254986                0.20880062                0.05992643                0.15478226               -0.00441189
               2.99648851               10.00051955               64.13704184                0.53767974                0.03126591               -0.10509813                0.23164161                0.25041097                1.49039785               -0.01876866
               3.99817226               10.00763811               64.16352745                0.56795722                0.06176073               -0.08258370                0.25294689                0.28233976                1.37298433                0.00814262
               4.99772372               10.00907811               64.16415462                0.60782747               -0.05727230               -0.07853234                0.25733652                0.02181340                0.04594683               -0.00091529
               5.99702681               10.01000823               64.16405783                0.67150936               -0.07230265               -0.07740434                0.25634930                0.00404114                0.00550879               -0.00050879
               6.99627767               10.01083763               64.16386150                0.76192285               -0.07525555               -0.07665397                0.25445829                0.00098741               -0.00017247               -0.00047742
               7.99552170               10.01164325               64.16364593                0.89547824               -0.07544312               -0.07597243                0.25237125                0.00043642               -0.00125277               -0.00040460
               8.99476881               10.01244032               64.16342526                0.99910616               -0.07500438               -0.07530934                0.25022564                0.00033585               -0.00109301               -0.00032026
               9.99402161               10.01323277               64.16321102                0.99254072               -0.07471945               -0.07460365                0.24806847                0.00058170               -0.00070272                0.00082088
               0.00304613                0.00502835               65.13872044                0.79223743               -0.06187812               -0.06187893                0.20907515                0.00034654                0.00095289               -0.00071500
               1.00242735                0.00593858               65.13864179                0.53424412               -0.05889935               -0.06382777                0.20970152                0.00240595                0.00216292                0.00050635
               2.00186815                0.00692868               65.13858196                0.48728754               -0.05493190               -0.06310276                0.21043255                0.00090649                0.00427718               -0.00052178
               3.00132871                0.00808642               65.13852618                0.50815561               -0.05460531               -0.06346411                0.21130682               -0.00055100                0.00590995               -0.00071521
               4.00077604                0.00941834               65.13847654                0.54610540               -0.05627239               -0.06362915                0.21226918               -0.00084475                0.00735579               -0.00070439
               5.00020327                0.01089655               65.13843159                0.59769663               -0.05830188               -0.06381909                0.21327960               -0.00080548                0.00836463               -0.00067873
               5.99961000                0.01248473               65.13838936                0.66473686               -0.06027826               -0.06401949                0.21431123               -0.00067956                0.00903197               -0.00069791
               6.99899770                0.01414763               65.13834974                0.75025756               -0.06208429               -0.06422960                0.21534597               -0.00050315                0.00962134               -0.00089221
               7.99836832                0.01585279               65.13831517                0.85846150               -0.06365559               -0.06442349                0.21640750               -0.00027859                0.01042430               -0.00126648
               8.99772459                0.01757209               65.13829058                0.99542658               -0.06483302               -0.06460534                0.21753624               -0.00003366                0.00901076               -0.00185137
               9.99707166                0.01928541               65.13822907                0.99763550               -0.06529331               -0.06482611                0.21835401                0.00083427                0.00702320                0.00537077
               0.00213937                1.00440956               65.13857230                0.53426657               -0.06381249               -0.05887286                0.20969060                0.00238908               -0.00074779               -0.00011685
               1.00150125                1.00530030               65.13849100                0.01165101               -0.06680422               -0.06686657                0.21028817                0.00712098               -0.00141568                0.00130244
               2.00080329                1.00629765               65.13839587                0.01000000               -0.07114369               -0.04287008                0.21088128                0.03703429               -0.00318368                0.03498924
               3.00007837                1.00745178               65.13829342                0.01000000               -0.07203797               -0.01876262                0.21137735                0.05963478               -0.00503553                0.08240267
               3.99936253                1.00878205               65.13818042                0.01000000               -0.07081794               -0.00341286                0.21178076                0.05093078               -0.00682283                0.10715547
               4.99866202                1.01025836               65.13805784                0.02343419               -0.06924307               -0.04338215                0.21210317                0.00820653               -0.00824921                0.02778148
               5.99797767                1.01184454               65.13792768                0.10887256               -0.06766858               -0.06440701                0.21237789               -0.00767906               -0.00926729               -0.01033183
               6.99730864                1.01350534               65.13779234                0.22169313               -0.06621811               -0.06371780                0.21262023               -0.00359664               -0.00974474               -0.00917172
               7.99665331                1.01520855               65.13765723                0.37153810               -0.06503507               -0.06368328                0.21287796               -0.00123367               -0.00950133               -0.00746348
               8.99600794                1.01692603               65.13752921                0.57345573               -0.06433146               -0.06382753                0.21319034               -0.00015461               -0.00712307               -0.00416733
               9.99536668                1.01863715               65.13744291                0.85448195               -0.06412663               -0.06417800                0.21380506                0.00076996               -0.00508525                0.00815801
               0.00131244                2.00385089               65.13843077                0.48730163               -0.06307575               -0.05479407                0.21044270                0.00087247               -0.00055521                0.00176611
               1.00068168                2.00460125               65.13835568                0.01000000               -0.04275452               -0.07133349                0.21080221                0.03704761                0.03141794                0.00078471
               2.00045735                2.00607128               65.13891755                0.01000001               -0.03223344               -0.03234312                0.21272419                0.12946146                0.07633923                0.08350088
               3.00003701                2.00771117               65.13972149                0.01000000               -0.07346358                0.01002218                0.21401353                0.17052021                0.06314112                0.16940137
               3.99898808                2.00935008               65.14004045                0.01000000               -0.13660528                0.05468007                0.21458567                0.14940858               -0.07003267                0.27882114
               4.99730491                2.01002891               65.13825279                0.01000001               -0.13893153                0.03758791                0.21031383                0.12003030               -0.14259674                0.31745744
               5.99620945                2.01119659               65.13727334                0.01145492               -0.08715757                0.05959517                0.20880360                0.16171803               -0.06527109                0.43824281
               6.99556176                2.01287328               65.13706991                0.01616321               -0.06432490               -0.01649726                0.20858941                0.16312766               -0.02599676                0.38063611
               7.99492295                2.01457912               65.13687644                0.01000000               -0.06344272                0.00733243                0.20840719                0.14443237               -0.02348666                0.47940052
               8.99429290                2.01629554               65.13672313                0.05606239               -0.06290623               -0.00839129                0.20850058                0.07978141               -0.01418225                0.17642725
               9.99366482                2.01800185               65.13671473                0.56019879               -0.06280775               -0.08770967                0.20972106                0.06073967               -0.00688128                0.17951062
               0.00065612                3.00331368               65.13830086                0.50815921               -0.06343020               -0.05433013                0.21132375               -0.00062660               -0.00067230                0.00377135
               1.00002182                3.00387363               65.13820891                0.01000000               -0.01867633               -0.07234485                0.21123531                0.05997559                0.07771683               -0.00137197
               2.00028259                3.00565079               65.13968326                0.01000000                0.00940783               -0.07379093                0.21393523                0.17168618                0.15970019                0.07103622
               3.00020997                3.00765223               65.14119850                0.01000000               -0.01248145               -0.00996720                0.21686395                0.24047444                0.18341922                0.19386499
               4.00003296                3.00987565               65.14313475                0.01199461               -0.04969308                0.00918744                0.22077519                0.22979576                0.13374054                0.28437601
               4.99921611                3.01101012               65.14366273                0.01000000               -0.08326508                0.08200280                0.22174080                0.29357743                0.14169045                0.56088133
               5.99836766                3.01303644               65.14578458                0.01827968               -0.10137208                0.07570281                0.22672954                0.25866091                0.03872886                0.59555755
               6.99718867                3.01317539               65.14430750                0.01000000               -0.11239830                0.01952417                0.22447490                0.26467761                0.01334892                0.68236537
               7.99611969                3.01535520               65.14595459                0.01462883               -0.15039133                0.07353902                0.23607950                0.34889641               -0.23379136                0.94589259
               8.99418084                3.01675821               65.13957291                0.02763029               -0.14754267                0.07217309                0.23664372                0.31128350               -0.32963719                1.63106496
               9.99316884                3.01688296               65.13935603                0.53798600               -0.10120015               -0.00558923                0.23660137                0.23938164               -0.02100327                1.61663821
               0.00018001                4.00276429               65.13817664                0.54610096               -0.06359237               -0.05592817                0.21229576               -0.00093336               -0.00062764                0.00517328
               0.99954408                4.00315435               65.13805017                0.01000000               -0.00337663               -0.07116025                0.21157674                0.05144466                0.10213642               -0.00336293
               2.00011248                4.00459546               65.13997799                0.01000000                0.05387781               -0.13839965                0.21442565                0.15349206                0.26715738               -0.05546248
               3.00062164                4.00751183               65.14310517                0.01199221                0.00568119               -0.04604667                0.22060908                0.23408574                0.27090056                0.14384651
               4.00022610                4.00953383               65.14505618                0.01000000               -0.03029884               -0.02334880                0.22436756                0.23446362                0.29527151                0.30710766
               5.00001566                4.01166897               65.14868963                0.01810102               -0.05043530                0.00695181                0.23167768                0.19867377                0.17293206                0.33223549
               5.99921739                4.01271065               65.14820308                0.01000001               -0.07395570               -0.03587246                0.23042193                0.13429490                0.06220824                0.35847154
               6.99853655                4.01326376               65.14965838                0.01214269               -0.04496655                0.04566604                0.23392268                0.27393319                0.32721658                0.77494631
               7.99831806                4.01604990               65.15450712                0.01141935                0.02271338                0.03181556                0.24299407                0.39672371                0.91484634                1.19457694
               8.99899082                4.01773900               65.16770927                0.08401802               -0.00575510                0.00213143                0.24840866                0.32281314                0.67530766                1.49001265
               9.99820296                4.01789007               65.16757371                0.56811389               -0.07878572                0.02692633                0.24721858                0.25798977                0.00977188                1.48176114
              -0.00014267                5.00219512               65.13805617                0.59770380               -0.06377945               -0.05795687                0.21332208               -0.00089682               -0.00058268                0.00610283
               0.99921954                5.00245042               65.13788003                0.02345642               -0.04311909               -0.06955373                0.21183913                0.00776414                0.02862537               -0.00501424
               1.99899495                5.00288280               65.13828760                0.01000001                0.03668866               -0.14118222                0.20964657                0.12658603                0.30310103               -0.12614662
               2.99995331                5.00673129               65.14358918                0.01000000                0.07850716               -0.07807168                0.22152516                0.30748960                0.53662526                0.15018601
               4.00056510                5.00940867               65.14862506                0.01810093                0.00297271               -0.04464856                0.23173304                0.20408303                0.31697417                0.18412654
               5.00001277                5.01114916               65.14948948                0.01000001               -0.05531664               -0.05058065                0.23261646                0.11698103                0.18968720                0.20110954
               5.99945876                5.01231899               65.15200471                0.01202896               -0.03423435               -0.00619596                0.23728925                0.16508614                0.48326591                0.61378796
               6.99932808                5.01408871               65.15876703                0.01040825                0.00600842                0.05666307                0.24908443                0.24038877                0.84886932                0.98728418
               7.99957893                5.01599151               65.16856504                0.07444735               -0.02655693               -0.04222248                0.25775835                0.16452281                0.50353493                0.73292468
               8.99879694                5.01680084               65.16829692                0.15827589               -0.07762155               -0.08771095                0.25499044                0.02853104               -0.00000157                0.06176428
               9.99802650                5.01742148               65.16802149                0.60795174               -0.07704414               -0.05801971                0.25301342                0.02028815               -0.00005651                0.05481224
              -0.00034854                6.00160515               65.13793718                0.66476452               -0.06397682               -0.05998587                0.21437046               -0.00076500               -0.00057218                0.00665852
               0.99901169                6.00176327               65.13770046                0.10889362               -0.06440642               -0.06789713                0.21204881               -0.00844725               -0.00748101               -0.00624489
               1.99836333                6.00177181               65.13732566                0.01145639                0.06169335               -0.08787790                0.20786118                0.17229304                0.42048765               -0.05566074
               3.00024555                6.00595039               65.14564991                0.01828310                0.07632847               -0.09819193                0.22627796                0.27487217                0.56587084                0.04841646
               3.99988990                6.00864086               65.14809688                0.01000001               -0.04002945               -0.06942568                0.23027839                0.14070542                0.33934479                0.07122096
               4.99944496                6.01065735               65.15191894                0.01202845               -0.01551684               -0.02310120                0.23738968                0.16889646                0.59787314                0.48604451
               5.99957956                6.01258673               65.15956451                0.01038316                0.01134206                0.02380871                0.25098769                0.19825780                0.84735799                0.84844827
               6.99967181                6.01439702               65.16835704                0.07434758               -0.03415819               -0.02331202                0.25920290                0.10992591                0.45757827                0.50481908
               7.99889640                6.01520545               65.16818271                0.15739535               -0.07701689               -0.07840007                0.25714932                0.00716034                0.00547386                0.00518698
               8.99813147                6.01598478               65.16792903                0.26840160               -0.07644828               -0.07950101                0.25500684                0.00487399                0.00110513                0.00784030
               9.99736743                6.01672967               65.16766168                0.67168236               -0.07640383               -0.07167352                0.25294588                0.00369910                0.00063136                0.00967541
              -0.00047421                7.00099540               65.13781924                0.75026521               -0.06418595               -0.06188354                0.21543247               -0.00057424               -0.00069477                0.00708360
               0.99888393                7.00109248               65.13751401                0.22173785               -0.06360500               -0.06633100                0.21223059               -0.00399133               -0.00687946               -0.00693681
               1.99825369                7.00112524               65.13708575                0.01616407               -0.01511117               -0.06417191                0.20757008                0.17433824                0.36175874               -0.01918081
               2.99858171                7.00476745               65.14415179                0.01000000                0.02092761               -0.11121858                0.22396842                0.28565486                0.64634010                0.02002808
               3.99867225                7.00802016               65.14944436                0.01214105                0.04315583               -0.03376278                0.23373733                0.29125250                0.74246834                0.32680083
               4.99944483                7.01068713               65.15844412                0.01040867                0.05060022                0.02197949                0.24981646                0.25145576                0.95958154                0.82739171
               5.99968425                7.01279517               65.16804987                0.07433693               -0.02684749               -0.02852365                0.25997271                0.11301993                0.49877662                0.44819502
               6.99890788                7.01362247               65.16790720                0.15743581               -0.07749338               -0.07744517                0.25807974                0.00371631                0.00761948               -0.00001924
               7.99813438                7.01442351               65.16768649                0.26847582               -0.07688369               -0.07758543                0.25601612                0.00191746                0.00301784               -0.00108516
               8.99737020                7.01521082               65.16744795                0.42200774               -0.07618425               -0.07679667                0.25394333                0.00088227                0.00142571                0.00117698
               9.99661070                7.01598801               65.16719134                0.76218283               -0.07595060               -0.07457054                0.25187209                0.00081684                0.00068565                0.00338103
              -0.00055420                8.00036748               65.13770427                0.85847805               -0.06437834               -0.06356556                0.21653038               -0.00032689               -0.00096254                0.00763439
               0.99880202                8.00043665               65.13732572                0.37161988               -0.06353430               -0.06502307                0.21243136               -0.00138335               -0.00570152               -0.00694585
               1.99817512                8.00048838               65.13685362                0.01000000                0.01308535               -0.06319103                0.20726673                0.15716532                0.45449368               -0.01725295
               2.99906373                8.00372602               65.14567731                0.01462928                0.08100749               -0.15237712                0.23532873                0.38043044                0.89824899               -0.20544093
               3.99979527                8.00796561               65.15406430                0.01142671                0.03176724                0.04060071                0.24350819                0.42928824                1.13814686                0.87374370
               4.99969907                8.01109694               65.16767777                0.07443749               -0.04453253               -0.01911262                0.26003487                0.17637196                0.70134062                0.48169895
               5.99890462                8.01201626               65.16759585                0.15736966               -0.07906420               -0.07745437                0.25866254                0.00795647                0.01067163               -0.00086765
               6.99811779                8.01284812               65.16739705                0.26844555               -0.07791079               -0.07708228                0.25677200                0.00206302                0.00383013               -0.00250708
               7.99734640                8.01365374               65.16717721                0.42210857               -0.07665880               -0.07662817                0.25473339                0.00062574                0.00233391               -0.00159411
               8.99658461                8.01444885               65.16694574                0.64448586               -0.07585140               -0.07590980                0.25265703                0.00015839                0.00118036               -0.00010912
               9.99582937                8.01523826               65.16669980                0.89581891               -0.07552390               -0.07492414                0.25058031                0.00030029                0.00058658                0.00210729
              -0.00061909                8.99972409               65.13759628                0.99546205               -0.06455399               -0.06483653                0.21769760               -0.00005296               -0.00140601                0.00657279
               0.99873537                8.99979202               65.13714181                0.57357507               -0.06366408               -0.06422282                0.21269015               -0.00017621               -0.00327786               -0.00524130
               1.99810763                8.99986142               65.13665168                0.05626337               -0.00111415               -0.06257976                0.20729756                0.08905818                0.17210902               -0.01036805
               2.99871309                9.00171991               65.13970376                0.02799554                0.08897295               -0.15308346                0.23402227                0.33948308                1.53755326               -0.30081837
               3.99988709                9.00883217               65.16634955                0.08427566                0.01042618                0.00254816                0.25217331                0.35725674                1.40122343                0.63638568
               4.99892161                9.01030488               65.16718432                0.15826415               -0.08974434               -0.07875449                0.25796039                0.03215572                0.06151072               -0.00288007
               5.99809220                9.01124608               65.16709636                0.26831995               -0.08049809               -0.07712906                0.25723038                0.00552186                0.00910816               -0.00177437
               6.99731165                9.01208083               65.16689373                0.42187654               -0.07730161               -0.07662300                0.25542236                0.00098804                0.00224629               -0.00128820
               7.99654617                9.01289095               65.16666794                0.64432960               -0.07613984               -0.07606971                0.25339937                0.00017613                0.00091556               -0.00097868
               8.99578886                9.01369262               65.16643630                0.98697488               -0.07541490               -0.07541909                0.25131092                0.00000751                0.00054712               -0.00037899
               9.99503787                9.01448953               65.16620075                0.99948043               -0.07509820               -0.07470240                0.24922416                0.00020535                0.00045134                0.00129056
              -0.00069112                9.99907075               65.13746166                0.99762701               -0.06477127               -0.06533359                0.21852109                0.00094125                0.00383304                0.00507745
               0.99866117                9.99915220               65.13698889                0.85455835               -0.06402448               -0.06398230                0.21329165                0.00088087                0.00568699               -0.00373597
               1.99802839                9.99923678               65.13655561                0.56038280               -0.08892673               -0.06246362                0.20857898                0.06768368                0.17006381               -0.00498960
               2.99688263               10.00066435               65.13937040                0.53836530                0.01635225               -0.10555590                0.23418393                0.25594360                1.51605234               -0.01899020
               3.99835544               10.00801657               65.16605067                0.56837010                0.05228248               -0.08156064                0.25162824                0.28970948                1.38694492                0.00832270
               4.99792828               10.00952185               65.16672467                0.60794744               -0.05581635               -0.07830273                0.25663731                0.02352223                0.04985814               -0.00093728
               5.99723911               10.01047368               65.16661894                0.67161438               -0.07177997               -0.07724037                0.25584369                0.00438079                0.00623159               -0.00049348
               6.99649268               10.01131566               65.16640413                0.76206791               -0.07504879               -0.07651680                0.25404597                0.00103672               -0.00000278               -0.00045824
               7.99573813               10.01213235               65.16616802                0.89566826               -0.07532504               -0.07585978                0.25203975                0.00043633               -0.00120508               -0.00039345
               8.99498618               10.01294046               65.16592622                0.99948811               -0.07492352               -0.07521561                0.24996279                0.00032580               -0.00107782               -0.00031555
               9.99423966               10.01374421               65.16569073                0.99276462               -0.07465199               -0.07453166                0.24787673                0.00055379               -0.00069627                0.00081256
               0.00313110                0.00516638               66.14080844                0.79252460               -0.06159773               -0.06160060                0.20851867                0.00039993                0.00093566               -0.00069301
               1.00251512                0.00609131               66.14073648                0.53467916               -0.05824495               -0.06380972                0.20922704                0.00274134                0.00222254                0.00046222
               2.00196620                0.00710699               66.14068443                0.48755788               -0.05382600               -0.06297478                0.21004954                0.00104137                0.00458686               -0.00058888
               3.00143860                0.00831130               66.14063789                0.50836304               -0.05354132               -0.06338509                0.21103187               -0.00058451                0.00646660               -0.00079324
               4.00089537                0.00970953               66.14059846                0.54628742               -0.05546999               -0.06357402                0.21211331               -0.00090733                0.00806858               -0.00076958
               5.00032920                0.01126912               66.14056422                0.59782087               -0.05776625               -0.06379204                0.21324703               -0.00085997                0.00915604               -0.00073316
               5.99974004                0.01294883               66.14053289                0.66481668               -0.05996896               -0.06401887                0.21439512               -0.00071930                0.00985132               -0.00074962
               6.99912982                0.01470941               66.14050418                0.75021531               -0.06195672               -0.06425838                0.21554937               -0.00052577                0.01045601               -0.00095742
               7.99850091                0.01651524               66.14048081                0.85830117               -0.06366623               -0.06447889                0.21672743               -0.00028578                0.01130214               -0.00135883
               8.99785649                0.01833596               66.14046813                0.99507391               -0.06493779               -0.06468479                0.21797127               -0.00002669                0.00975769               -0.00199715
               9.99720215                0.02015009               66.14041531                0.99722509               -0.06543396               -0.06493633                0.21888975                0.00090488                0.00760790                0.00579897
               0.00221017                1.00455038               66.14066685                0.53466866               -0.06379410               -0.05821998                0.20922301                0.00272153               -0.00075226               -0.00000422
               1.00157223                1.00545321               66.14059193                0.01155845               -0.06717791               -0.06724533                0.20989890                0.00810679               -0.00143430                0.00120297
               2.00086661                1.00647724               66.14050318                0.01000000               -0.07203743               -0.04232807                0.21056839                0.03970852               -0.00337864                0.03562026
               3.00013148                1.00767745               66.14040596                0.01000000               -0.07296106               -0.01793609                0.21112733                0.06313246               -0.00546758                0.08360340
               3.99940739                1.00907379               66.14029730                0.01000000               -0.07152651               -0.00227871                0.21158804                0.05379659               -0.00743292                0.10872461
               4.99870095                1.01063120               66.14017821                0.02354735               -0.06973426               -0.04311180                0.21196598                0.00796215               -0.00897410                0.02747886
               5.99801271                1.01230864               66.14005106                0.10884695               -0.06797982               -0.06443666                0.21229179               -0.00825350               -0.01005152               -0.01126072
               6.99734135                1.01406682               66.13991841                0.22151525               -0.06639632               -0.06370142                0.21259481               -0.00383226               -0.01053790               -0.00990831
               7.99668478                1.01587045               66.13978619                0.37106867               -0.06512762               -0.06368075                0.21291667               -0.00130037               -0.01025416               -0.00803367
               8.99603880                1.01768911               66.13966164                0.57241753               -0.06438568               -0.06384835                0.21329491               -0.00015574               -0.00769015               -0.00449143
               9.99539707                1.01950073               66.13958192                0.85378959               -0.06417362               -0.06424444                0.21399705                0.00083266               -0.00549756                0.00882313
               0.00137986                2.00400198               66.14053326                0.48755630               -0.06294682               -0.05368126                0.21007842                0.00100216               -0.00062071                0.00214592
               1.00075039                2.00474640               66.14046200                0.01000000               -0.04218674               -0.07224660                0.21048164                0.03970336                0.03214553                0.00048997
               2.00053612                2.00626043               66.14104345                0.01000001               -0.03228480               -0.03245426                0.21242686                0.13625882                0.07761173                0.08457124
               3.00010470                2.00795258               66.14186035                0.01000000               -0.07592825                0.01108470                0.21373494                0.17956759                0.06358468                0.17212783
               3.99901756                2.00966396               66.14218485                0.01000000               -0.14255506                0.05705623                0.21441029                0.15928139               -0.07269125                0.28391377
               4.99725359                2.01040688               66.14035586                0.01000001               -0.14391069                0.03874793                0.20975368                0.13015415               -0.14720514                0.32348238
               5.99613935                2.01166010               66.13935897                0.01145069               -0.08811170                0.06140052                0.20842375                0.17236328               -0.06806640                0.44742965
               6.99549136                2.01343538               66.13915417                0.01613960               -0.06433628               -0.01760039                0.20825247                0.17378191               -0.02799750                0.38941618
               7.99485262                2.01524163               66.13895919                0.01000000               -0.06341286                0.00715678                0.20811145                0.15428955               -0.02535799                0.49486497
               8.99422310                2.01705899               66.13880687                0.05601862               -0.06285285               -0.00451432                0.20826139                0.08828598               -0.01533728                0.19322482
               9.99359556                2.01886520               66.13881124                0.56023458               -0.06275397               -0.09329945                0.20960757                0.06954516               -0.00745638                0.19674154
               0.00074138                3.00347675               66.14041287                0.50836834               -0.06335243               -0.05324512                0.21107917               -0.00066877               -0.00075369                0.00439726
               1.00010785                3.00400828               66.14032000                0.01000000               -0.01778852               -0.07330347                0.21097613                0.06345256                0.07902842               -0.00188605
               2.00038561                3.00582816               66.14182117                0.01000000                0.01057236               -0.07632684                0.21364963                0.18077808                0.16269939                0.07130956
               3.00031930                3.00789915               66.14336623                0.01000000               -0.01234432               -0.00990025                0.21666515                0.25392872                0.18706724                0.19720222
               4.00013872                3.01021492               66.14534165                0.01199677               -0.05057021                0.00989754                0.22067009                0.24398828                0.13626915                0.29002748
               4.99930790                3.01140615               66.14587895                0.01000000               -0.08536251                0.08385804                0.22172595                0.31216321                0.14466941                0.57286239
               5.99843147                3.01353665               66.14805207                0.01828533               -0.10362182                0.07670903                0.22691247                0.27636389                0.03988858                0.60866143
               6.99723546                3.01371482               66.14655358                0.01000000               -0.11422546                0.01788426                0.22491310                0.28219648                0.01789004                0.69770902
               7.99614696                3.01601359               66.14832131                0.01475595               -0.15272580                0.07314745                0.23739604                0.37366522               -0.22761594                0.96678478
               8.99418094                3.01759882               66.14195398                0.02847098               -0.14857126                0.06137935                0.23981957                0.33071120               -0.32951114                1.65547753
               9.99317554                3.01763474               66.14173677                0.53871861               -0.10054075               -0.02423515                0.23977649                0.24596183               -0.02103073                1.63812509
               0.00030343                4.00293708               66.14029906                0.54628903               -0.06353914               -0.05509622                0.21217698               -0.00100736               -0.00069920                0.00595151
               0.99966804                4.00328033               66.14016500                0.01000000               -0.00213065               -0.07191117                0.21137054                0.05430735                0.10387861               -0.00406459
               2.00026082                4.00473389               66.14212138                0.01000000                0.05642341               -0.14444952                0.21418338                0.16337340                0.27259487               -0.05868997
               3.00079651                4.00775458               66.14531083                0.01199298                0.00647502               -0.04699037                0.22062712                0.24835262                0.27699542                0.14611944
               4.00039032                4.00986191               66.14729868                0.01000000               -0.03106913               -0.02416273                0.22440505                0.24919352                0.30185537                0.31325924
               5.00017513                4.01208404               66.15100752                0.01810532               -0.05161787                0.00724371                0.23209334                0.21260405                0.17692454                0.33914672
               5.99935796                4.01319428               66.15050879                0.01000001               -0.07583873               -0.03766701                0.23085817                0.14681888                0.06388417                0.36572643
               6.99865835                4.01379307               66.15199891                0.01217148               -0.04580203                0.04530370                0.23436198                0.29086884                0.33380689                0.78945313
               7.99844192                4.01670458               66.15693886                0.01151594                0.02789120                0.02380366                0.24351988                0.41026668                0.92180162                1.20801203
               8.99921617                4.01828658               66.17018517                0.08452910                0.00005199               -0.01415640                0.24667085                0.32866081                0.67795869                1.50011478
               9.99844296                4.01838050               66.17003839                0.56854367               -0.07732146                0.01485156                0.24562907                0.26617030                0.00995592                1.49009879
               0.00003473                5.00237483               66.14018943                0.59783391               -0.06375375               -0.05739080                0.21332942               -0.00096249               -0.00064413                0.00696092
               0.99939719                5.00257006               66.13999769                0.02353158               -0.04279498               -0.07008443                0.21168119                0.00751217                0.02813441               -0.00583926
               1.99917883                5.00293917               66.14038099                0.01000001                0.03805709               -0.14636747                0.20923616                0.13666241                0.30953311               -0.13133246
               3.00015833                5.00695934               66.14580409                0.01000000                0.08071491               -0.08019692                0.22158970                0.32634105                0.54954478                0.15280074
               4.00079313                5.00973166               66.15094333                0.01811205                0.00346384               -0.04586364                0.23195313                0.21804678                0.32428950                0.18759460
               5.00022761                5.01155103               66.15181754                0.01000001               -0.05671521               -0.05198129                0.23302796                0.12878501                0.19401701                0.20505056
               5.99965882                5.01278331               66.15437962                0.01204631               -0.03425371               -0.00708360                0.23784676                0.17763348                0.49277744                0.62558155
               6.99954254                5.01462089               66.16125897                0.01046004                0.00999805                0.05442951                0.24959836                0.24982108                0.86021052                1.00176298
               7.99985879                5.01648966               66.17113807                0.07453945               -0.02321508               -0.05006498                0.25674864                0.17140383                0.50802707                0.74098178
               8.99907824                5.01731569               66.17084205                0.15847117               -0.07738473               -0.08961135                0.25397652                0.03195924               -0.00051604                0.06666386
               9.99831109                5.01793177               66.17054726                0.60808194               -0.07671447               -0.05662394                0.25209813                0.02203203               -0.00009327                0.05906708
              -0.00010627                6.00178927               66.14008148                0.66482878               -0.06397801               -0.05965291                0.21450117               -0.00081410               -0.00063073                0.00755757
               0.99925395                6.00187864               66.13982040                0.10888238               -0.06444722               -0.06824014                0.21193938               -0.00912109               -0.00848325               -0.00712806
               1.99860478                6.00180654               66.13940235                0.01146144                0.06384426               -0.08896283                0.20743138                0.18306072                0.43001132               -0.05866205
               3.00053083                6.00615064               66.14791260                0.01828786                0.07773919               -0.10042648                0.22642067                0.29300151                0.57968238                0.04913363
               4.00015957                6.00894464               66.15040073                0.01000001               -0.04158265               -0.07134205                0.23061607                0.15327180                0.34719751                0.07244158
               4.99969918                6.01104442               66.15429437                0.01205301               -0.01593987               -0.02327917                0.23769178                0.18157610                0.61004395                0.49528602
               5.99984077                6.01305260               66.16207395                0.01043480                0.01246210                0.02423605                0.25141129                0.20644234                0.85984803                0.86081271
               6.99994842                6.01488166               66.17094491                0.07444260               -0.03327867               -0.02559677                0.25825533                0.11420155                0.46241110                0.51033034
               7.99917519                6.01570328               66.17075003                0.15753181               -0.07675854               -0.07837774                0.25630426                0.00791684                0.00536584                0.00564921
               8.99841325                6.01649435               66.17047549                0.26861875               -0.07618759               -0.07973876                0.25424506                0.00544402                0.00105276                0.00868608
               9.99765144                6.01724802               66.17018798                0.67180733               -0.07618068               -0.07111718                0.25227547                0.00404183                0.00063929                0.01044266
              -0.00016031                7.00118177               66.13997483                0.75023694               -0.06421961               -0.06174480                0.21569364               -0.00060454               -0.00076931                0.00801445
               0.99919750                7.00120525               66.13963608                0.22156843               -0.06358213               -0.06652907                0.21218129               -0.00427670               -0.00770834               -0.00782349
               1.99856805                7.00115991               66.13915925                0.01614664               -0.01586135               -0.06415531                0.20709230                0.18525039                0.37098111               -0.02147758
               2.99888027                7.00495081               66.14639258                0.01000000                0.01983698               -0.11296494                0.22427762                0.30376642                0.66258864                0.02411352
               3.99896479                7.00830482               66.15178364                0.01217476                0.04354484               -0.03472227                0.23420282                0.30858551                0.75814001                0.33332704
               4.99975117                7.01108545               66.16094377                0.01046231                0.04928209                0.02528241                0.25006553                0.26104890                0.97480754                0.83897315
               5.99995043                7.01326803               66.17064560                0.07442667               -0.02876352               -0.02807680                0.25910017                0.11723171                0.50459746                0.45312730
               6.99917590                7.01410896               66.17048423                0.15758833               -0.07730009               -0.07725288                0.25726988                0.00406518                0.00765030                0.00009062
               7.99840443                7.01492211               66.17024332                0.26869575               -0.07667628               -0.07747176                0.25531296                0.00212419                0.00299078               -0.00094562
               8.99764237                7.01572092               66.16998447                0.42231064               -0.07599250               -0.07670213                0.25332824                0.00097880                0.00141717                0.00133874
               9.99688458                7.01650943               66.16970756                0.76235242               -0.07577908               -0.07433408                0.25134758                0.00085832                0.00069376                0.00352980
              -0.00016533                8.00055437               66.13987150                0.85832575               -0.06443959               -0.06358040                0.21691697               -0.00033835               -0.00107060                0.00861237
               0.99919027                8.00054806               66.13945014                0.37113329               -0.06352186               -0.06512211                0.21244444               -0.00146612               -0.00635907               -0.00779104
               1.99856423                8.00052343               66.13892427                0.01000000                0.01354866               -0.06312994                0.20684497                0.16736029                0.47040471               -0.01935697
               2.99946125                8.00389134               66.14803641                0.01475605                0.08162045               -0.15448695                0.23658898                0.40562751                0.92067633               -0.20071365
               4.00019664                8.00825019               66.15650150                0.01152181                0.02478501                0.04502348                0.24380216                0.44329917                1.15374995                0.88208889
               4.99995695                8.01155006               66.17027384                0.07452998               -0.05173746               -0.01632571                0.25910285                0.18318829                0.71062185                0.48666251
               5.99916189                8.01249107               66.17017883                0.15751527               -0.07906496               -0.07721671                0.25787452                0.00875070                0.01108716               -0.00091119
               6.99837565                8.01333660               66.16996163                0.26866976               -0.07780879               -0.07688133                0.25609109                0.00227654                0.00390759               -0.00247942
               7.99760572                8.01415384               66.16972176                0.42241529               -0.07650717               -0.07647574                0.25414790                0.00068483                0.00232945               -0.00155372
               8.99684550                8.01496031               66.16946994                0.64486990               -0.07570640               -0.07577831                0.25216330                0.00017362                0.00117415               -0.00008679
               9.99609159                8.01576134               66.16920365                0.89602248               -0.07539162               -0.07478668                0.25017950                0.00029344                0.00059019                0.00211854
              -0.00015446                8.99991016               66.13977584                0.99508166               -0.06464310               -0.06496081                0.21821572               -0.00004605               -0.00156988                0.00740144
               0.99919911                8.99990281               66.13926916                0.57253261               -0.06367814               -0.06427577                0.21277455               -0.00018113               -0.00364377               -0.00587767
               1.99857198                8.99989731               66.13872281                0.05622968                0.00334769               -0.06249581                0.20693478                0.09803666                0.18845874               -0.01164931
               2.99926606                9.00186107               66.14205691                0.02883540                0.08000364               -0.15424396                0.23685094                0.35806162                1.56523245               -0.30186407
               4.00017205                9.00920529               66.16886358                0.08478299               -0.00460038                0.00760689                0.25052184                0.36290500                1.41493933                0.64038147
               4.99917405                9.01075893               66.16975969                0.15846025               -0.09165698               -0.07857059                0.25704538                0.03570397                0.06637312               -0.00335315
               5.99833891                9.01172370               66.16966548                0.26853343               -0.08077011               -0.07689272                0.25654442                0.00612470                0.00993598               -0.00180991
               6.99755865                9.01257133               66.16944527                0.42216836               -0.07722464               -0.07644649                0.25485954                0.00108901                0.00239598               -0.00127526
               7.99679442                9.01339259               66.16919969                0.64471770               -0.07601551               -0.07593091                0.25292835                0.00019069                0.00092939               -0.00096178
               8.99603834                9.01420535               66.16894754                0.98735619               -0.07530203               -0.07530643                0.25092828                0.00000705                0.00053601               -0.00037939
               9.99528838                9.01501370               66.16869152                0.99985530               -0.07499654               -0.07461336                0.24893437                0.00018881                0.00044527                0.00127608
              -0.00015155                9.99925515               66.13965000                0.99720014               -0.06489474               -0.06550082                0.21915152                0.00103040                0.00431426                0.00572308
               0.99919950                9.99926255               66.13912270                0.85387751               -0.06408729               -0.06402637                0.21347173                0.00095766                0.00643071               -0.00419445
               1.99856670                9.99927352               66.13864021                0.56043162               -0.09425027               -0.06237915                0.20835344                0.07666848                0.18705846               -0.00561739
               2.99731450               10.00080646               66.14172552                0.53909140               -0.00049114               -0.10546100                0.23704480                0.26128405                1.54126578               -0.01907306
               3.99855688               10.00840233               66.16856001                0.56879133                0.04190614               -0.08029622                0.25014250                0.29709269                1.39913359                0.00851854
               4.99815262               10.00997865               66.16928737                0.60808094               -0.05424470               -0.07802795                0.25584256                0.02540078                0.05411085               -0.00095794
               5.99747199               10.01095321               66.16917471                0.67173526               -0.07120441               -0.07704835                0.25527204                0.00475858                0.00702275               -0.00047709
               6.99672853               10.01180767               66.16894242                0.76222987               -0.07482405               -0.07636610                0.25359925                0.00108844                0.00018121               -0.00044306
               7.99597551               10.01263522               66.16868672                0.89585927               -0.07519948               -0.07573694                0.25168614                0.00043439               -0.00115563               -0.00038005
               8.99522454               10.01345418               66.16842451                0.99986344               -0.07484145               -0.07511748                0.24969772                0.00031257               -0.00106834               -0.00031260
               9.99447868               10.01426907               66.16816855                0.99299348               -0.07458648               -0.07446211                0.24770456                0.00051978               -0.00069399                0.00080003
               0.00320878                0.00529768               67.14289081                0.79281459               -0.06129677               -0.06130251                0.20795202                0.00045930                0.00091291               -0.00065828
               1.00259582                0.00623690               67.14282633                0.53511179               -0.05751578               -0.06380671                0.20874267                0.00312709                0.00228167                0.00041839
               2.00205847                0.00727940               67.14278295                0.48782557               -0.05259011               -0.06283657                0.20965620                0.00119727                0.00492785               -0.00066326
               3.00154401                0.00853441               67.14274682                0.50858070               -0.05236925               -0.06330232                0.21075441               -0.00061632                0.00708104               -0.00087744
               4.00101108                0.01000528               67.14271880                0.54647996               -0.05460262               -0.06351313                0.21195321               -0.00097150                0.00884830               -0.00083762
               5.00045196                0.01165391               67.14269653                0.59796431               -0.05720082               -0.06376059                0.21321296               -0.00091252                0.01001108               -0.00078856
               5.99986707                0.01343341               67.14267726                0.66489651               -0.05965276               -0.06401656                0.21448231               -0.00075584                0.01072840               -0.00080097
               6.99925891                0.01530004               67.14266072                0.75020427               -0.06183279               -0.06428504                0.21575519               -0.00054475                0.01134485               -0.00102392
               7.99863041                0.01721483               67.14264972                0.85813824               -0.06368326               -0.06453396                0.21705241               -0.00028792                0.01222289               -0.00145685
               8.99798524                0.01914513               67.14265001                0.99469935               -0.06504737               -0.06476575                0.21841085               -0.00001543                0.01053759               -0.00214568
               9.99732946                0.02106817               67.14260686                0.99678232               -0.06557774               -0.06504941                0.21943072                0.00097577                0.00821943                0.00625859
               0.00227416                1.00468466               67.14275676                0.53511491               -0.06379271               -0.05749479                0.20875006                0.00310669               -0.00076106                0.00013442
               1.00163623                1.00559884               67.14268898                0.01146433               -0.06762346               -0.06769616                0.20950394                0.00924821               -0.00146403                0.00109706
               2.00092169                1.00665103               67.14260724                0.01000000               -0.07306598               -0.04173434                0.21024624                0.04276577               -0.00360561                0.03620435
               3.00017491                1.00790139               67.14251597                0.01000000               -0.07400318               -0.01704777                0.21087172                0.06712067               -0.00595366                0.08476069
               3.99944162                1.00937015               67.14241218                0.01000000               -0.07230675               -0.00106382                0.21138344                0.05712852               -0.00811118                0.11037839
               4.99872877                1.01101630               67.14229716                0.02361104               -0.07025898               -0.04280458                0.21181633                0.00789079               -0.00977076                0.02674693
               5.99803644                1.01279325               67.14217352                0.10882846               -0.06830132               -0.06446213                0.21219783               -0.00881841               -0.01090013               -0.01219606
               6.99736275                1.01465719               67.14204423                0.22130618               -0.06657274               -0.06368037                0.21256292               -0.00405359               -0.01138375               -0.01068954
               7.99670499                1.01656949               67.14191556                0.37054282               -0.06521651               -0.06367635                0.21295493               -0.00135210               -0.01105647               -0.00864959
               8.99605842                1.01849747               67.14179511                0.57129351               -0.06444066               -0.06387156                0.21340834               -0.00014750               -0.00829376               -0.00482160
               9.99541617                1.02041768               67.14172285                0.85304439               -0.06422426               -0.06431747                0.21420287                0.00089542               -0.00593591                0.00954397
               0.00144256                2.00414779               67.14263234                0.48782989               -0.06281551               -0.05244150                0.20971839                0.00115139               -0.00069631                0.00256662
               1.00081440                2.00488298               67.14256531                0.01000000               -0.04156642               -0.07329667                0.21016013                0.04273929                0.03283504                0.00014534
               2.00061123                2.00644471               67.14316609                0.01000001               -0.03235472               -0.03259904                0.21188512                0.14395680                0.07881110                0.08555507
               3.00016731                2.00819346               67.14399619                0.01000000               -0.07862425                0.01221985                0.21343139                0.18976142                0.06423773                0.17485681
               3.99903874                2.00998401               67.14432865                0.01000000               -0.14903112                0.05961094                0.21427905                0.17041787               -0.07580757                0.28910102
               4.99718669                2.01079781               67.14244787                0.01000001               -0.14944666                0.03997052                0.20937198                0.14152281               -0.15199992                0.32984421
               5.99604981                2.01214417               67.14144182                0.01145509               -0.08925503                0.06333021                0.20807354                0.18414918               -0.07064021                0.45700060
               6.99540159                2.01402643               67.14123496                0.01613228               -0.06433617               -0.01861810                0.20791245                0.18558137               -0.03017496                0.39874675
               7.99476309                2.01594131               67.14103867                0.01000000               -0.06337396                0.00708641                0.20780227                0.16516259               -0.02732907                0.51131185
               8.99413411                2.01786770               67.14088836                0.05597149               -0.06280682               -0.00040066                0.20805030                0.09786279               -0.01653540                0.21200301
               9.99350695                2.01978182               67.14090688                0.56028216               -0.06271546               -0.09996881                0.20953248                0.07973597               -0.00805105                0.21594253
               0.00082679                3.00363583               67.14252244                0.50858160               -0.06327073               -0.05205100                0.21083414               -0.00071314               -0.00084218                0.00507364
               1.00019409                3.00413290               67.14242844                0.01000000               -0.01682251               -0.07438059                0.21070362                0.06740810                0.08033362               -0.00248704
               2.00049034                3.00599905               67.14395625                0.01000000                0.01183775               -0.07914351                0.21333792                0.19100978                0.16575118                0.07162614
               3.00043084                3.00814579               67.14553180                0.01000000               -0.01223600               -0.00985503                0.21651698                0.26901300                0.19082212                0.20064888
               4.00024562                3.01056237               67.14754816                0.01200188               -0.05158858                0.01066631                0.22071798                0.25988514                0.13899655                0.29589551
               4.99939907                3.01181571               67.14809725                0.01000000               -0.08774068                0.08577491                0.22186138                0.33274160                0.14779735                0.58574001
               5.99849081                3.01405985               67.15032283                0.01829654               -0.10609172                0.07767304                0.22731855                0.29614917                0.04117175                0.62218750
               6.99727724                3.01428483               67.14880576                0.01000000               -0.11619175                0.01605001                0.22540230                0.30162013                0.02284389                0.71341340
               7.99616698                3.01671122               67.15070251                0.01489241               -0.15510402                0.07260361                0.23877735                0.40046902               -0.22012437                0.98804627
               8.99417516                3.01848946               67.14436930                0.02936625               -0.14921693                0.04927602                0.24352511                0.35117180               -0.32842479                1.67937201
               9.99318264                3.01841830               67.14415156                0.53949598               -0.09925190               -0.04501371                0.24342669                0.25231860               -0.02094619                1.65890156
               0.00043414                4.00310677               67.14242018                0.54646512               -0.06348043               -0.05419542                0.21205813               -0.00108264               -0.00077253                0.00680096
               0.99979934                4.00339537               67.14227758                0.01000000               -0.00078010               -0.07273327                0.21114526                0.05758298                0.10562001               -0.00485175
               2.00041854                4.00486184               67.14426166                0.01000000                0.05924558               -0.15119402                0.21398936                0.17449274                0.27825249               -0.06206132
               3.00098425                4.00799636               67.14751771                0.01200512                0.00739921               -0.04801230                0.22066343                0.26432587                0.28344672                0.14849857
               4.00056652                4.01019733               67.14954428                0.01000000               -0.03201042               -0.02519309                0.22458173                0.26543834                0.30868600                0.31952707
               5.00034404                4.01251331               67.15333149                0.01811355               -0.05314224                0.00738037                0.23276566                0.22790181                0.18107315                0.34624069
               5.99950368                4.01369763               67.15282024                0.01000001               -0.07807133               -0.03971940                0.23152971                0.16080968                0.06559776                0.37314071
               6.99878261                4.01434743               67.15434562                0.01220532               -0.04679206                0.04465754                0.23497884                0.30961789                0.34036968                0.80393290
               7.99856784                4.01739338               67.15937752                0.01161792                0.03339234                0.01443795                0.24424404                0.42475989                0.92726967                1.22009684
               8.99945046                4.01885322               67.17264269                0.08507547                0.00638952               -0.03228320                0.24466401                0.33452228                0.67921052                1.50792704
               9.99869563                4.01888155               67.17248629                0.56899738               -0.07548327                0.00174653                0.24380169                0.27441247                0.01015386                1.49613205
               0.00022794                5.00255192               67.14232276                0.59797096               -0.06372668               -0.05679298                0.21334610               -0.00102577               -0.00070640                0.00789669
               0.99959067                5.00267824               67.14211365                0.02362673               -0.04243634               -0.07065251                0.21150974                0.00725315                0.02771006               -0.00674279
               1.99937921                5.00297517               67.14247233                0.01000001                0.03955992               -0.15207644                0.20880188                0.14800601                0.31630216               -0.13681741
               3.00038187                5.00718554               67.14802097                0.01000000                0.08291131               -0.08258889                0.22166181                0.34699540                0.56276015                0.15541269
               4.00103744                5.01005851               67.15326412                0.01810955                0.00374721               -0.04739780                0.23245418                0.23316665                0.33184855                0.19111574
               5.00045681                5.01196332               67.15415004                0.01000001               -0.05822751               -0.05382332                0.23367987                0.14177663                0.19862507                0.20889789
               5.99987289                5.01326546               67.15676165                0.01207850               -0.03414842               -0.00803105                0.23865582                0.19184779                0.50246938                0.63760007
               6.99977384                5.01517798               67.16375900                0.01052254                0.01417512                0.05154663                0.25026744                0.25979291                0.87044899                1.01520661
               8.00015639                5.01699998               67.17370002                0.07464249               -0.01982068               -0.05900937                0.25560080                0.17855541                0.51145075                0.74812599
               8.99937743                5.01784379               67.17337645                0.15868904               -0.07710852               -0.09185662                0.25282951                0.03586805               -0.00107827                0.07196276
               9.99861422                5.01845323               67.17306345                0.60823228               -0.07632125               -0.05516617                0.25107207                0.02392416               -0.00011969                0.06366982
               0.00016099                6.00197091               67.14222720                0.66488505               -0.06398422               -0.05931278                0.21465262               -0.00086069               -0.00068998                0.00852519
               0.99952115                6.00198232               67.14193925                0.10887774               -0.06448161               -0.06859826                0.21182654               -0.00979574               -0.00954493               -0.00808680
               1.99887136                6.00182031               67.14147429                0.01145264                0.06598370               -0.09007017                0.20685870                0.19499349                0.44000654               -0.06198884
               3.00084082                6.00634458               67.15017833                0.01829027                0.07903625               -0.10298133                0.22697765                0.31281418                0.59430368                0.04984678
               4.00045208                6.00924938               67.15270921                0.01000001               -0.04340985               -0.07362900                0.23124748                0.16693427                0.35537887                0.07372889
               4.99997262                6.01143685               67.15667277                0.01207331               -0.01630522               -0.02380989                0.23857043                0.19549180                0.62287747                0.50459030
               6.00012598                6.01353701               67.16459273                0.01050295                0.01356645                0.02436867                0.25237491                0.21521828                0.87217488                0.87270862
               7.00024395                6.01537836               67.17352214                0.07453549               -0.03264227               -0.02852044                0.25723968                0.11827539                0.46623232                0.51486399
               7.99947313                6.01621319               67.17330879                0.15770283               -0.07646910               -0.07835547                0.25535880                0.00876467                0.00527615                0.00615935
               8.99871457                6.01701608               67.17301393                0.26885176               -0.07589517               -0.08003246                0.25340323                0.00609541                0.00096936                0.00961422
               9.99795523                6.01777823               67.17270719                0.67194217               -0.07593422               -0.07051484                0.25154755                0.00442308                0.00064146                0.01128513
               0.00018790                7.00136566               67.14213311                0.75021539               -0.06425518               -0.06160942                0.21596907               -0.00063285               -0.00084832                0.00900199
               0.99954535                7.00130627               67.14175763                0.22134952               -0.06355406               -0.06672808                0.21212470               -0.00454831               -0.00860970               -0.00878247
               1.99891682                7.00117377               67.14122760                0.01612546               -0.01681298               -0.06413187                0.20660880                0.19726158                0.38074764               -0.02393700
               2.99920909                7.00512592               67.14863734                0.01000000                0.01835187               -0.11485816                0.22485367                0.32356799                0.67974518                0.02861739
               3.99928385                7.00858593               67.15412842                0.01219954                0.04349658               -0.03609653                0.23489687                0.32709801                0.77396983                0.33956726
               5.00007902                7.01148712               67.16344543                0.01052708                0.04759396                0.02887103                0.25061811                0.27142309                0.98968372                0.85008285
               6.00023573                7.01375283               67.17323188                0.07453258               -0.03079255               -0.02794268                0.25808513                0.12165234                0.50977045                0.45704124
               6.99946317                7.01460757               67.17305260                0.15775622               -0.07708862               -0.07704367                0.25637817                0.00445515                0.00767119                0.00023284
               7.99869396                7.01543287               67.17279275                0.26895354               -0.07644323               -0.07734501                0.25452001                0.00235615                0.00296616               -0.00081820
               8.99793430                7.01624314               67.17251452                0.42265140               -0.07577843               -0.07660239                0.25264726                0.00108465                0.00140173                0.00151275
               9.99717839                7.01704294               67.17221830                0.76253544               -0.07559102               -0.07407795                0.25078227                0.00090521                0.00069957                0.00369789
               0.00026711                8.00073872               67.14204261                0.85813316               -0.06450391               -0.06360215                0.21731916               -0.00034718               -0.00118402                0.00964676
               0.99962207                8.00064776               67.14157461                0.37062202               -0.06350834               -0.06521810                0.21245388               -0.00154298               -0.00705138               -0.00869604
               1.99899695                8.00053768               67.14099052                0.01000000                0.01389732               -0.06306398                0.20639431                0.17859470                0.48737044               -0.02156554
               2.99990002                8.00404742               67.15040909                0.01489164                0.08179457               -0.15661954                0.23790904                0.43288258                0.94356132               -0.19475263
               4.00063284                8.00852745               67.15894035                0.01161988                0.01670810                0.04976840                0.24439304                0.45830438                1.16839924                0.88917447
               5.00023418                8.01201427               67.17285983                0.07463724               -0.05971302               -0.01314167                0.25801240                0.19094299                0.71929177                0.49088717
               5.99943858                8.01297815               67.17275334                0.15768123               -0.07905817               -0.07694127                0.25696074                0.00964160                0.01153122               -0.00098200
               6.99865302                8.01383749               67.17251887                0.26892338               -0.07769481               -0.07665192                0.25531875                0.00251632                0.00399185               -0.00244576
               7.99788468                8.01466629               67.17226017                0.42276445               -0.07634096               -0.07630628                0.25349954                0.00075365                0.00232757               -0.00152129
               8.99712620                8.01548404               67.17198900                0.64530022               -0.07554680               -0.07563443                0.25162059                0.00019097                0.00116467               -0.00006799
               9.99637374                8.01629667               67.17170339                0.89623030               -0.07524547               -0.07463924                0.24975070                0.00028448                0.00059190                0.00213046
               0.00036288                9.00009362               67.14196059                0.99469942               -0.06473491               -0.06509146                0.21874930               -0.00003829               -0.00173821                0.00828406
               0.99971553                9.00000191               67.14139730                0.57146338               -0.06369133               -0.06432678                0.21285794               -0.00018162               -0.00401197               -0.00655125
               1.99908905                8.99991249               67.14079038                0.05620154                0.00807195               -0.06240261                0.20655092                0.10807053                0.20673888               -0.01299940
               2.99987697                9.00199352               67.14444078                0.02972655                0.06970206               -0.15508687                0.24016167                0.37784684                1.59260190               -0.30207718
               4.00048309                9.00958130               67.17135999                0.08531102               -0.02148977                0.01333125                0.24865648                0.36870890                1.42663888                0.64327251
               4.99944717                9.01122429               67.17232522                0.15867564               -0.09388746               -0.07834629                0.25599193                0.03971659                0.07165830               -0.00389218
               5.99860534                9.01221401               67.17222725                0.26876439               -0.08109074               -0.07662353                0.25577197                0.00680914                0.01085348               -0.00185502
               6.99782536                9.01307453               67.17199092                0.42250032               -0.07714270               -0.07624897                0.25423382                0.00120054                0.00255904               -0.00125561
               7.99706249                9.01390675               67.17172651                0.64512546               -0.07588056               -0.07577982                0.25241452                0.00020840                0.00093689               -0.00095110
               8.99630775                9.01473045               67.17145487                0.98772184               -0.07518351               -0.07518824                0.25052605                0.00000959                0.00052374               -0.00038534
               9.99555882                9.01555015               67.17117944                1.00000000               -0.07489275               -0.07452555                0.24864902                0.00016794                0.00043977                0.00125809
               0.00044976                9.99943689               67.14184469                0.99678421               -0.06501948               -0.06567308                0.21979507                0.00112194                0.00483145                0.00641523
               0.99979957                9.99936122               67.14125832                0.85314220               -0.06415115               -0.06406891                0.21365050                0.00104092                0.00724140               -0.00467715
               1.99916674                9.99928962               67.14072268                0.56048227               -0.10057111               -0.06228657                0.20811321                0.08699197                0.20598578               -0.00628086
               2.99778815               10.00094568               67.14411130                0.53986786               -0.01952448               -0.10478448                0.24035004                0.26634043                1.56599113               -0.01908061
               3.99877625               10.00879407               67.17105352                0.56923781                0.03038275               -0.07872258                0.24847763                0.30439906                1.40930521                0.00874013
               4.99839580               10.01044734               67.17184152                0.60822452               -0.05258680               -0.07769456                0.25493255                0.02744359                0.05874259               -0.00097652
               5.99772452               10.01144568               67.17172438                0.67187621               -0.07057556               -0.07683254                0.25463830                0.00517579                0.00790243               -0.00046003
               6.99698429               10.01231251               67.17147611                0.76241246               -0.07457965               -0.07620187                0.25311463                0.00114394                0.00038196               -0.00042010
               7.99623292               10.01315069               67.17120174                0.89606342               -0.07506533               -0.07560517                0.25131120                0.00043141               -0.00111109               -0.00036875
               8.99548298               10.01398027               67.17092018                1.00000000               -0.07476083               -0.07501833                0.24943836                0.00029694               -0.00105713               -0.00031180
               9.99473771               10.01480616               67.17064482                0.99324277               -0.07452783               -0.07439957                0.24756344                0.00047735               -0.00068970                0.00078575
               0.00327832                0.00542132               68.14496748                0.79312270               -0.06097026               -0.06097807                0.20737100                0.00052514                0.00088183               -0.00062254
               1.00266861                0.00637438               68.14491133                0.53553667               -0.05670251               -0.06382057                0.20825013                0.00357737                0.00234049                0.00036191
               2.00214427                0.00744515               68.14487756                0.48809935               -0.05121226               -0.06269564                0.20926712                0.00137915                0.00530135               -0.00074706
               3.00164437                0.00875546               68.14485298                0.50880179               -0.05108201               -0.06321645                0.21047614               -0.00064612                0.00775221               -0.00097043
               4.00112262                0.01030603               68.14483753                0.54666097               -0.05367027               -0.06345167                0.21179909               -0.00103409                0.00969241               -0.00090896
               5.00057096                0.01205208               68.14482848                0.59811598               -0.05661020               -0.06372838                0.21318317               -0.00096261                0.01093166               -0.00084507
               5.99999042                0.01394030               68.14482254                0.66497485               -0.05933505               -0.06401370                0.21457425               -0.00078725                0.01165806               -0.00085220
               6.99938426                0.01592191               68.14481929                0.75017505               -0.06171676               -0.06431180                0.21596528               -0.00055748                0.01227580               -0.00108964
               7.99875609                0.01795441               68.14482185                0.85797808               -0.06370795               -0.06459000                0.21737847               -0.00028553                0.01318697               -0.00155701
               8.99811010                0.02000283               68.14483635                0.99432588               -0.06516250               -0.06485106                0.21885723               -0.00000321                0.01135302               -0.00229757
               9.99745284                0.02204328               68.14480392                0.99635999               -0.06572664               -0.06516900                0.21998445                0.00104693                0.00885896                0.00674358
               0.00233051                1.00481154               68.14484185                0.53555904               -0.06380378               -0.05668418                0.20826030                0.00354678               -0.00076914                0.00028493
               1.00169247                1.00573617               68.14478201                0.01136786               -0.06814977               -0.06822607                0.20909747                0.01056929               -0.00149561                0.00096367
               2.00096751                1.00681819               68.14470811                0.01000000               -0.07425025               -0.04113174                0.20992924                0.04621650               -0.00386337                0.03652721
               3.00020747                1.00812330               68.14462340                0.01000000               -0.07517707               -0.01607875                0.21061096                0.07179174               -0.00650473                0.08587747
               3.99946397                1.00967151               68.14452496                0.01000000               -0.07316336                0.00019876                0.21117628                0.06093055               -0.00886760                0.11205698
               4.99874420                1.01141480               68.14441454                0.02368784               -0.07081697               -0.04242034                0.21165999                0.00790611               -0.01064033                0.02632524
               5.99804763                1.01330016               68.14429501                0.10878741               -0.06862841               -0.06447539                0.21209857               -0.00934897               -0.01181495               -0.01320009
               6.99737163                1.01527880               68.14416966                0.22106585               -0.06674312               -0.06365625                0.21252935               -0.00424521               -0.01228470               -0.01149781
               7.99671277                1.01730851               68.14404529                0.36996687               -0.06529974               -0.06367484                0.21299597               -0.00139591               -0.01189634               -0.00928635
               8.99606564                1.01935432               68.14392981                0.57014738               -0.06449550               -0.06389863                0.21353233               -0.00014225               -0.00892269               -0.00515106
               9.99542286                1.02139159               68.14386597                0.85226195               -0.06427757               -0.06439654                0.21442357                0.00095954               -0.00639325                0.01031718
               0.00149999                2.00428764               68.14472763                0.48811067               -0.06266417               -0.05105782                0.20934234                0.00132392               -0.00077891                0.00303788
               1.00087335                2.00500986               68.14466520                0.01000000               -0.04092588               -0.07449502                0.20981441                0.04615607                0.03329189               -0.00025692
               2.00068147                2.00662251               68.14528116                0.01000001               -0.03232307               -0.03265442                0.21019590                0.15268915                0.08048531                0.08692088
               3.00022688                2.00843389               68.14612898                0.01000000               -0.08158681                0.01336532                0.21355092                0.20119314                0.06483349                0.17760001
               3.99904973                2.01031000               68.14647043                0.01000000               -0.15632260                0.06228441                0.21407469                0.18295102               -0.07879319                0.29450670
               4.99710043                2.01120368               68.14454330                0.01000001               -0.15551436                0.04112633                0.20938754                0.15428796               -0.15721556                0.33641999
               5.99593945                2.01265079               68.14352044                0.01144116               -0.09047110                0.06509047                0.20770007                0.19719380               -0.07371001                0.46705549
               6.99529101                2.01464879               68.14331242                0.01609566               -0.06434023               -0.02031871                0.20759932                0.19855716               -0.03244013                0.40852184
               7.99465264                2.01668091               68.14311524                0.01000000               -0.06334150                0.00635759                0.20752663                0.17721172               -0.02938756                0.52868016
               8.99402418                2.01872486               68.14296787                0.05593525               -0.06275722                0.00388058                0.20784301                0.10860987               -0.01777766                0.23303473
               9.99339750                2.02075535               68.14300189                0.56034123               -0.06266833               -0.10791138                0.20945096                0.09150984               -0.00866297                0.23734169
               0.00091255                3.00379038               68.14462956                0.50879564               -0.06318341               -0.05074257                0.21059344               -0.00075133               -0.00093714                0.00582674
               1.00028072                3.00424627               68.14453407                0.01000000               -0.01576416               -0.07558891                0.21041904                0.07201688                0.08161830               -0.00316464
               2.00059727                3.00616510               68.14608793                0.01000000                0.01315626               -0.08229628                0.21342824                0.20242998                0.16886163                0.07190909
               3.00054384                3.00839060               68.14769657                0.01000000               -0.01220317               -0.00992538                0.21643689                0.28540166                0.19486361                0.20423830
               4.00035320                3.01091720               68.14975601                0.01200469               -0.05273358                0.01132402                0.22095027                0.27736235                0.14173158                0.30187199
               4.99948917                3.01223733               68.15031618                0.01000000               -0.09034028                0.08761916                0.22212309                0.35524837                0.15106610                0.59883297
               5.99854640                3.01460197               68.15259845                0.01830017               -0.10882577                0.07837397                0.22811173                0.31757171                0.04267977                0.63639780
               6.99731265                3.01487242               68.15106162                0.01000000               -0.11827317                0.01348474                0.22628197                0.32255738                0.02834271                0.72989769
               7.99618093                3.01743566               68.15309685                0.01503482               -0.15746265                0.07140487                0.24056314                0.42985615               -0.21081616                1.01014747
               8.99416340                3.01943193               68.14682448                0.03032333               -0.14944242                0.03565495                0.24782732                0.37325638               -0.32597303                1.70243733
               9.99319209                3.01923336               68.14660531                0.54033220               -0.09713153               -0.06820470                0.24766462                0.25820880               -0.02070335                1.67857487
               0.00057318                4.00327279               68.14454022                0.54665533               -0.06342226               -0.05323192                0.21195649               -0.00115778               -0.00084993                0.00772836
               0.99993896                4.00349808               68.14438791                0.01000000                0.00062761               -0.07363697                0.21091327                0.06124559                0.10749057               -0.00572840
               2.00058574                4.00497659               68.14640117                0.01000000                0.06219304               -0.15874561                0.21380422                0.18687968                0.28406549               -0.06570886
               3.00118282                4.00823538               68.14972410                0.01200959                0.00822602               -0.04918119                0.22071654                0.28188984                0.28990514                0.15074174
               4.00075026                4.01053648               68.15179031                0.01000000               -0.03310982               -0.02640738                0.22492141                0.28342521                0.31585330                0.32605010
               5.00052063                4.01295606               68.15566283                0.01813525               -0.05472359                0.00751906                0.23347979                0.24476033                0.18548026                0.35350021
               5.99965579                4.01421827               68.15513939                0.01000001               -0.08060786               -0.04195762                0.23233759                0.17576421                0.06717798                0.38064936
               6.99890847                4.01491848               68.15669849                0.01223188               -0.04827666                0.04380415                0.23591641                0.32956164                0.34689513                0.81873055
               7.99869025                4.01810901               68.16182374                0.01172802                0.03915708                0.00426242                0.24538610                0.44044422                0.93144824                1.23125642
               8.99969161                4.01943796               68.17507845                0.08563368                0.01342849               -0.05241170                0.24242566                0.34060379                0.67885823                1.51310684
               9.99895882                4.01939125               68.17491443                0.56947199               -0.07327885               -0.01245455                0.24177793                0.28246016                0.01034459                1.49953242
               0.00043881                5.00272575               68.14445635                0.59812345               -0.06369854               -0.05616861                0.21337544               -0.00108906               -0.00077135                0.00890448
               0.99980182                5.00277353               68.14422788                0.02372037               -0.04206254               -0.07125748                0.21132476                0.00707239                0.02714056               -0.00773295
               1.99959756                5.00299019               68.14455702                0.01000001                0.04099594               -0.15825474                0.20816242                0.16067735                0.32334938               -0.14267640
               3.00062174                5.00740698               68.15023733                0.01000000                0.08517337               -0.08520900                0.22181947                0.36990107                0.57673585                0.15827146
               4.00130103                5.01038905               68.15559241                0.01812444                0.00404222               -0.04907836                0.23327855                0.25015844                0.33987254                0.19490034
               5.00070259                5.01238771               68.15649114                0.01000001               -0.06008839               -0.05576150                0.23449616                0.15631715                0.20325805                0.21286843
               6.00009926                5.01376282               68.15915274                0.01211728               -0.03447195               -0.00908627                0.23969358                0.20699530                0.51186796                0.64939374
               7.00001315                5.01574851               68.16626432                0.01059210                0.01855422                0.04834236                0.25117032                0.27033157                0.87956849                1.02794416
               8.00047034                5.01752091               68.17625009                0.07476619               -0.01599567               -0.06876385                0.25430164                0.18669348                0.51385351                0.75421746
               8.99969323                5.01838370               68.17589864                0.15894186               -0.07678197               -0.09446946                0.25152106                0.04029908               -0.00173365                0.07776366
               9.99893470                5.01898427               68.17556870                0.60839235               -0.07585318               -0.05361863                0.24991062                0.02600343               -0.00015120                0.06872500
               0.00045583                6.00214941               68.14437453                0.66497152               -0.06398669               -0.05896747                0.21481151               -0.00090463               -0.00075308                0.00955431
               0.99981596                6.00207293               68.14405693                0.10882791               -0.06449967               -0.06896448                0.21169710               -0.01044622               -0.01074362               -0.00912343
               1.99916584                6.00181149               68.14353953                0.01144380                0.06830111               -0.09126278                0.20631811                0.20820018                0.45074165               -0.06538067
               3.00118198                6.00653120               68.15245215                0.01829986                0.08034310               -0.10572915                0.22776231                0.33480148                0.60986536                0.05085998
               4.00077270                6.00955492               68.15502568                0.01000001               -0.04543920               -0.07620135                0.23205443                0.18223511                0.36388209                0.07491547
               5.00027320                6.01184083               68.15906577                0.01212000               -0.01689015               -0.02438318                0.23982770                0.21102133                0.63565939                0.51370586
               6.00043489                6.01403655               68.16712145                0.01058137                0.01419050                0.02427146                0.25326716                0.22419576                0.88275143                0.88302198
               7.00055701                6.01588533               68.17608970                0.07466951               -0.03229843               -0.03158116                0.25605043                0.12262444                0.46889400                0.51850273
               7.99978893                6.01673373               68.17585721                0.15789290               -0.07613882               -0.07832745                0.25427366                0.00973665                0.00509209                0.00668048
               8.99903423                6.01754857               68.17554355                0.26913682               -0.07555864               -0.08037989                0.25244554                0.00683824                0.00089887                0.01063786
               9.99827775                6.01831888               68.17521893                0.67210155               -0.07564805               -0.06985411                0.25073097                0.00484629                0.00065632                0.01222524
               0.00057369                7.00154640               68.14429421                0.75020887               -0.06428679               -0.06147934                0.21624988               -0.00065690               -0.00092854                0.01004678
               0.99993082                7.00139424               68.14387857                0.22113046               -0.06351977               -0.06692286                0.21205442               -0.00480387               -0.00953673               -0.00980528
               1.99930329                7.00116494               68.14329142                0.01610387               -0.01782343               -0.06410768                0.20611216                0.21047416                0.39126199               -0.02646838
               2.99957435                7.00529240               68.15088965                0.01000000                0.01664030               -0.11691714                0.22562545                0.34503731                0.69768935                0.03331705
               3.99963610                7.00886503               68.15648158                0.01223613                0.04335166               -0.03764043                0.23584338                0.34744173                0.79007341                0.34588870
               5.00044138                7.01190004               68.16595613                0.01058732                0.04512878                0.03235923                0.25148707                0.28199079                1.00370020                0.85977476
               6.00053867                7.01424825               68.17580730                0.07466545               -0.03364666               -0.02802475                0.25688011                0.12577072                0.51388375                0.45980201
               6.99976845                7.01511688               68.17561180                0.15796740               -0.07684182               -0.07679847                0.25533940                0.00488768                0.00767212                0.00029370
               7.99900184                7.01595436               68.17533372                0.26924482               -0.07617983               -0.07720406                0.25362772                0.00262155                0.00290978               -0.00067431
               8.99824485                7.01677610               68.17503742                0.42302517               -0.07554129               -0.07649896                0.25189554                0.00120840                0.00138821                0.00168575
               9.99749101                7.01758719               68.17472321                0.76273980               -0.07538433               -0.07380367                0.25017317                0.00095320                0.00071113                0.00386290
               0.00074700                8.00091983               68.14421789                0.85799531               -0.06456539               -0.06363149                0.21772663               -0.00035220               -0.00130208                0.01073979
               1.00010134                8.00073447               68.14369922                0.37005444               -0.06349165               -0.06530851                0.21245522               -0.00161114               -0.00778429               -0.00965468
               1.99947716                8.00052934               68.14305216                0.01000000                0.01406496               -0.06298908                0.20593546                0.19091883                0.50536562               -0.02392545
               3.00038264                8.00419286               68.15279459                0.01503557                0.08183603               -0.15875391                0.23929378                0.46234533                0.96705796               -0.18745188
               4.00111388                8.00880211               68.16138937                0.01173386                0.00735743                0.05462713                0.24547221                0.47397204                1.18178975                0.89471661
               5.00052979                8.01248802               68.17543409                0.07475750               -0.06902063               -0.01003271                0.25675749                0.19862607                0.72682449                0.49393435
               5.99973347                8.01347605               68.17531805                0.15786406               -0.07905694               -0.07663457                0.25594436                0.01064787                0.01201693               -0.00107497
               6.99894865                8.01434936               68.17506800                0.26921608               -0.07756679               -0.07639534                0.25445554                0.00278639                0.00408777               -0.00243935
               7.99818214                8.01518965               68.17479175                0.42316254               -0.07615378               -0.07611802                0.25277174                0.00082997                0.00231380               -0.00148852
               8.99742558                8.01601859               68.17450235                0.64573780               -0.07537436               -0.07548146                0.25103518                0.00020929                0.00114474               -0.00005437
               9.99667465                8.01684281               68.17419867                0.89645272               -0.07509276               -0.07448774                0.24931044                0.00027267                0.00058895                0.00213658
               0.00093735                9.00027377               68.14415082                0.99432752               -0.06482713               -0.06522824                0.21929119               -0.00002847               -0.00191838                0.00920956
               1.00028908                9.00008807               68.14352631                0.57029187               -0.06370353               -0.06437530                0.21294055               -0.00018070               -0.00441019               -0.00727042
               1.99966328                8.99990516               68.14285382                0.05616059                0.01297036               -0.06230224                0.20615642                0.11927656                0.22719704               -0.01442909
               3.00054849                9.00211732               68.14686014                0.03068355                0.05785483               -0.15545231                0.24410229                0.39866261                1.61949926               -0.30115190
               4.00082038                9.00995757               68.17383671                0.08587550               -0.04042641                0.01939822                0.24651091                0.37404719                1.43597611                0.64450731
               4.99973996                9.01169939               68.17487953                0.15892039               -0.09650479               -0.07807479                0.25478391                0.04424085                0.07740662               -0.00449280
               5.99889028                9.01271556               68.17478092                0.26904615               -0.08146918               -0.07631447                0.25489252                0.00757798                0.01186751               -0.00189082
               6.99811058                9.01358898               68.17452995                0.42288837               -0.07705388               -0.07602418                0.25352286                0.00132990                0.00272749               -0.00123603
               7.99734921                9.01443200               68.17424798                0.64557246               -0.07573458               -0.07561351                0.25185179                0.00022932                0.00093691               -0.00094238
               8.99659589                9.01526647               68.17395806                0.98808398               -0.07505861               -0.07506308                0.25010005                0.00000887                0.00050497               -0.00038857
               9.99584803                9.01609743               68.17366450                1.00000000               -0.07478520               -0.07443867                0.24836608                0.00014343                0.00043147                0.00124415
               0.00111781                9.99961526               68.14404590                0.99636765               -0.06514755               -0.06585041                0.22045134                0.00121653                0.00537604                0.00713815
               1.00046634                9.99944697               68.14339571                0.85234983               -0.06421833               -0.06411068                0.21383289                0.00112745                0.00809412               -0.00519809
               1.99983345                9.99928330               68.14280247                0.56054168               -0.10814286               -0.06218595                0.20786125                0.09885881                0.22709479               -0.00698368
               2.99830348               10.00108381               68.14653252                0.54069940               -0.04103458               -0.10335087                0.24426976                0.27083814                1.59002335               -0.01890868
               3.99901276               10.00919007               68.17352956                0.56970395                0.01765674               -0.07674950                0.24656410                0.31137320                1.41710061                0.00898565
               4.99865662               10.01092652               68.17438602                0.60838098               -0.05086548               -0.07728711                0.25389297                0.02965010                0.06378198               -0.00099135
               5.99799545               10.01194976               68.17426747                0.67202803               -0.06989046               -0.07657960                0.25391524                0.00563431                0.00887773               -0.00043183
               6.99725881               10.01282888               68.17400471                0.76260833               -0.07431115               -0.07600967                0.25256385                0.00120402                0.00059177               -0.00039290
               7.99650922               10.01367738               68.17371295                0.89627620               -0.07492421               -0.07546187                0.25091565                0.00042439               -0.00106847               -0.00035742
               8.99576032               10.01451733               68.17341328                1.00000000               -0.07468117               -0.07491435                0.24917982                0.00027631               -0.00104801               -0.00030852
               9.99501560               10.01535403               68.17311982                0.99349216               -0.07447227               -0.07433988                0.24744759                0.00042702               -0.00068621                0.00077366
               0.00333873                0.00553650               69.14703823                0.79340816               -0.06061763               -0.06062930                0.20678609                0.00059860                0.00085154               -0.00057558
               1.00273256                0.00650277               69.14699134                0.53600071               -0.05579434               -0.06385346                0.20774872                0.00409308                0.00240977                0.00029513
               2.00222284                0.00760336               69.14696830                0.48839686               -0.04967347               -0.06253778                0.20886262                0.00158855                0.00571171               -0.00084349
               3.00173909                0.00897417               69.14695634                0.50903858               -0.04967067               -0.06312272                0.21019264               -0.00066916                0.00848443               -0.00107253
               4.00122943                0.01061223               69.14695479                0.54687571               -0.05267494               -0.06338434                0.21164675               -0.00109419                0.01060778               -0.00098549
               5.00068559                0.01246489               69.14696020                0.59829143               -0.05600052               -0.06369010                0.21315282               -0.00100764                0.01190858               -0.00090207
               6.00010942                0.01447141               69.14696875                0.66506230               -0.05902410               -0.06400755                0.21466757               -0.00081023                0.01263447               -0.00090197
               6.99950511                0.01657749               69.14698003                0.75017693               -0.06161663               -0.06433863                0.21617780               -0.00056311                0.01324384               -0.00115496
               7.99887709                0.01873682               69.14699729                0.85784036               -0.06374360               -0.06464308                0.21769756               -0.00027850                0.01417900               -0.00165619
               8.99823023                0.02091226               69.14702715                0.99397318               -0.06527955               -0.06493351                0.21929193                0.00001138                0.01219345               -0.00245530
               9.99757150                0.02307894               69.14700655                0.99593128               -0.06587356               -0.06528877                0.22053066                0.00111659                0.00952414                0.00724055
               0.00237845                1.00493021               69.14692197                0.53598425               -0.06383866               -0.05578321                0.20777193                0.00405865               -0.00076989                0.00045980
               1.00174006                1.00586424               69.14687093                0.01084380               -0.06877060               -0.06884946                0.20868632                0.01209658               -0.00152105                0.00080265
               2.00100303                1.00697798               69.14680582                0.01000000               -0.07560512               -0.04000237                0.20959518                0.05065066               -0.00415395                0.03565408
               3.00022796                1.00834294               69.14672819                0.01000000               -0.07649516               -0.01509418                0.21033986                0.07680131               -0.00712478                0.08738421
               3.99947313                1.00997839               69.14663571                0.01000000               -0.07410183                0.00154346                0.21096161                0.06520875               -0.00970191                0.11376241
               4.99874592                1.01182799               69.14653036                0.02378072               -0.07140563               -0.04201580                0.21149312                0.00798649               -0.01159076                0.02589202
               5.99804502                1.01383134               69.14641549                0.10875069               -0.06895733               -0.06447848                0.21199312               -0.00984045               -0.01279506               -0.01421514
               6.99736677                1.01593410               69.14629482                0.22082991               -0.06690494               -0.06362897                0.21249630               -0.00440354               -0.01323318               -0.01231187
               7.99670692                1.01809039               69.14617548                0.36933153               -0.06537451               -0.06367343                0.21303838               -0.00141944               -0.01277660               -0.00993344
               8.99605928                1.02026292               69.14606576                0.56889464               -0.06454700               -0.06392705                0.21366192               -0.00013314               -0.00957993               -0.00549559
               9.99541598                1.02242606               69.14601133                0.85143008               -0.06433042               -0.06448092                0.21465468                0.00102135               -0.00687104                0.01111032
               0.00155184                2.00442084               69.14681919                0.48838326               -0.06251263               -0.04952196                0.20898051                0.00152360               -0.00087105                0.00357156
               1.00092672                2.00512578               69.14676160                0.01000000               -0.03973433               -0.07586681                0.20947304                0.05052467                0.03258984               -0.00072490
               2.00075716                2.00680331               69.14737001                0.01000001               -0.03260076               -0.03303771                0.21309673                0.16242702                0.08299412                0.08910557
               3.00027470                2.00867228               69.14826721                0.01000000               -0.08542976                0.01462447                0.21318420                0.21359370                0.06657585                0.18033321
               3.99904856                2.01064310               69.14861015                0.01000000               -0.16411674                0.06507712                0.21402248                0.19699014               -0.08226570                0.30022099
               4.99699237                2.01162457               69.14663562                0.01000001               -0.16210332                0.04224267                0.20887914                0.16853880               -0.16258458                0.34339238
               5.99580649                2.01318184               69.14559582                0.01142876               -0.09171895                0.06687604                0.20735190                0.21171435               -0.07691798                0.47791723
               6.99515799                2.01530491               69.14538695                0.01606920               -0.06433079               -0.02186991                0.20726257                0.21302051               -0.03481045                0.41925907
               7.99451988                2.01746335               69.14518920                0.01000000               -0.06330442                0.00576386                0.20727992                0.19048422               -0.03154214                0.54743750
               8.99389190                2.01963372               69.14504522                0.05587592               -0.06271094                0.00823513                0.20766440                0.12069695               -0.01907652                0.25662433
               9.99326566                2.02178933               69.14509590                0.56040227               -0.06262392               -0.11743968                0.20938939                0.10510760               -0.00931026                0.26125982
               0.00099902                3.00393977               69.14673431                0.50902483               -0.06309422               -0.04931486                0.21036372               -0.00078990               -0.00103996                0.00666134
               1.00036808                3.00434690               69.14663682                0.01000000               -0.01469742               -0.07693968                0.21012472                0.07694726                0.08333002               -0.00393139
               2.00070507                3.00631722               69.14822482                0.01000000                0.01459787               -0.08623692                0.21304257                0.21475126                0.17203293                0.07327825
               3.00066004                3.00863543               69.14986054                0.01000000               -0.01222140               -0.01009231                0.21658855                0.30406058                0.19888050                0.20767837
               4.00046065                3.01127993               69.15196716                0.01200891               -0.05410425                0.01194143                0.22134182                0.29668561                0.14480510                0.30839647
               4.99957795                3.01267284               69.15253971                0.01000000               -0.09308403                0.08918944                0.22274233                0.38005678                0.15478864                0.61263371
               5.99859897                3.01516886               69.15488506                0.01830955               -0.11161360                0.07872381                0.22924454                0.34144750                0.04459671                0.65133011
               6.99734568                3.01549671               69.15333140                0.01000000               -0.12055851                0.01072185                0.22752947                0.34574867                0.03436174                0.74738225
               7.99618780                3.01820566               69.15551378                0.01518755               -0.15992182                0.07009637                0.24287844                0.46139432               -0.19987419                1.03331825
               8.99414724                3.02042763               69.14932584                0.03136236               -0.14904393                0.02037348                0.25295062                0.39583222               -0.32227298                1.72460722
               9.99320692                3.02007726               69.14910485                0.54123967               -0.09403276               -0.09402628                0.25273072                0.26320879               -0.02020533                1.69707366
               0.00072178                4.00343454               69.14665931                0.54686937               -0.06335705               -0.05220334                0.21186136               -0.00123362               -0.00093223                0.00873362
               1.00008821                4.00358699               69.14649585                0.01000000                0.00209385               -0.07461756                0.21065916                0.06543783                0.10940631               -0.00670359
               2.00076365                4.00507857               69.14853775                0.01000000                0.06524997               -0.16669695                0.21367705                0.20075613                0.29022658               -0.06995791
               3.00139321                4.00847044               69.15193204                0.01201282                0.00906048               -0.05062547                0.22095842                0.30122597                0.29690905                0.15316271
               4.00094486                4.01088193               69.15404271                0.01000000               -0.03443161               -0.02793922                0.22559136                0.30291752                0.32343136                0.33300895
               5.00070457                4.01340836               69.15800109                0.01813619               -0.05666425                0.00724513                0.23457074                0.26290414                0.19005700                0.36093514
               5.99981158                4.01475632               69.15746699                0.01000001               -0.08342079               -0.04487953                0.23353027                0.19245444                0.06894997                0.38830414
               6.99903616                4.01551935               69.15906395                0.01227668               -0.04973676                0.04244711                0.23729738                0.35155698                0.35357822                0.83348048
               7.99881684                4.01886527               69.16428524                0.01186005                0.04503927               -0.00773964                0.24660405                0.45665885                0.93331139                1.24020345
               8.99993694                4.02004119               69.17749120                0.08623070                0.02068600               -0.07468332                0.23995129                0.34602106                0.67641387                1.51522500
               9.99923056                4.01990880               69.17732185                0.56997070               -0.07063798               -0.02770178                0.23954606                0.28996905                0.01057139                1.49987949
               0.00066945                5.00289570               69.14659027                0.59828604               -0.06366416               -0.05552022                0.21341162               -0.00114801               -0.00083711                0.00997535
               1.00003281                5.00285455               69.14634015                0.02380191               -0.04163491               -0.07189171                0.21111615                0.00703264                0.02647663               -0.00881530
               1.99983675                5.00298329               69.14663558                0.01000001                0.04241957               -0.16501335                0.20768554                0.17478424                0.33094062               -0.14879059
               3.00088120                5.00762292               69.15245736                0.01000000                0.08721626               -0.08804908                0.22221771                0.39483131                0.59168848                0.16137137
               4.00158107                5.01072115               69.15792969                0.01812300                0.00402236               -0.05117049                0.23457158                0.26830299                0.34826236                0.19878337
               5.00096164                5.01281774               69.15883997                0.01000001               -0.06220039               -0.05811938                0.23573379                0.17177952                0.20814473                0.21692612
               6.00033707                5.01427127               69.16155552                0.01216525               -0.03468891               -0.01067185                0.24139091                0.22367017                0.52161611                0.66130845
               7.00026787                5.01634565               69.16878240                0.01067554                0.02310323                0.04407955                0.25226829                0.28147608                0.88726485                1.03915928
               8.00079913                5.01805087               69.17878605                0.07491285               -0.01218630               -0.08010515                0.25275743                0.19462951                0.51474489                0.75877201
               9.00002414                5.01893396               69.17840688                0.15921155               -0.07640289               -0.09755593                0.25004973                0.04531166               -0.00247410                0.08404117
               9.99927107                5.01952323               69.17806166                0.60857302               -0.07530668               -0.05202848                0.24862577                0.02827819               -0.00018034                0.07419090
               0.00078112                6.00232414               69.14652343                0.66506220               -0.06398413               -0.05862298                0.21497422               -0.00094055               -0.00081483                0.01063515
               1.00014128                6.00214916               69.14617319                0.10877400               -0.06450740               -0.06933353                0.21154655               -0.01106205               -0.01192669               -0.01023759
               1.99949097                6.00177830               69.14560065                0.01143661                0.07053469               -0.09257555                0.20585104                0.22272649                0.46222919               -0.06891988
               3.00155197                6.00670946               69.15473357                0.01830876                0.08125661               -0.10865510                0.22862951                0.35858680                0.62592419                0.05204831
               4.00111610                6.00985852               69.15735029                0.01000001               -0.04809642               -0.07905620                0.23322778                0.19871421                0.37254858                0.07609700
               5.00059004                6.01224597               69.16146933                0.01216116               -0.01795125               -0.02517206                0.24133260                0.22750087                0.64845586                0.52270846
               6.00075708                6.01454288               69.16965808                0.01067578                0.01480184                0.02405052                0.25428451                0.23378210                0.89211381                0.89208541
               7.00088608                6.01640094               69.17864315                0.07481002               -0.03179779               -0.03552519                0.25466383                0.12713093                0.47042172                0.52073403
               8.00012112                6.01726317               69.17839426                0.15811976               -0.07576297               -0.07830123                0.25305180                0.01082693                0.00493400                0.00724368
               8.99937082                6.01809007               69.17806284                0.26944567               -0.07517637               -0.08079484                0.25136985                0.00767483                0.00079744                0.01177641
               9.99861759                6.01886823               69.17772181                0.67227668               -0.07532256               -0.06913827                0.24982528                0.00531418                0.00066142                0.01327421
               0.00100059                7.00172324               69.14645811                0.75016639               -0.06431971               -0.06136187                0.21654248               -0.00067200               -0.00100918                0.01113313
               1.00035740                7.00146788               69.14599872                0.22085336               -0.06348073               -0.06711170                0.21197999               -0.00503141               -0.01051536               -0.01089366
               1.99973098                7.00113177               69.14534984                0.01606855               -0.01923404               -0.06407689                0.20562245                0.22499271                0.40257048               -0.02918308
               2.99997272                7.00544982               69.15314985                0.01000000                0.01439318               -0.11907846                0.22667704                0.36801230                0.71640566                0.03845610
               4.00001884                7.00914002               69.15884529                0.01228018                0.04272909               -0.03959336                0.23687012                0.36887568                0.80595564                0.35205323
               5.00082730                7.01231430               69.16847517                0.01067481                0.04194497                0.03617901                0.25248300                0.29321013                1.01610189                0.86786992
               6.00085774                7.01475228               69.17836948                0.07481435               -0.03685505               -0.02799227                0.25550793                0.13043840                0.51683008                0.46144363
               7.00009020                7.01563514               69.17815939                0.15820124               -0.07656019               -0.07651941                0.25416036                0.00537805                0.00769456                0.00041026
               7.99932654                7.01648485               69.17786530                0.26959481               -0.07588093               -0.07704596                0.25261676                0.00292030                0.00287258               -0.00053692
               8.99857258                7.01731806               69.17755243                0.42346101               -0.07527517               -0.07638851                0.25105641                0.00134849                0.00136639                0.00188618
               9.99782104                7.01814046               69.17722176                0.76295498               -0.07515431               -0.07350647                0.24950947                0.00100436                0.00071982                0.00406611
               0.00127840                8.00109690               69.14639715                0.85781290               -0.06462842               -0.06367231                0.21814267               -0.00035091               -0.00142035                0.01187731
               1.00063212                8.00080692               69.14582371                0.36943586               -0.06347573               -0.06539338                0.21245893               -0.00166031               -0.00853707               -0.01066289
               2.00000889                8.00049677               69.14510923                0.01000000                0.01359254               -0.06290922                0.20548455                0.20445737                0.52451530               -0.02636877
               3.00090397                8.00432789               69.15519496                0.01518077                0.08101235               -0.16086293                0.24153065                0.49406205                0.99203021               -0.17839889
               4.00162913                8.00906665               69.16384979                0.01186056               -0.00309898                0.05956126                0.24654093                0.49030233                1.19387921                0.89818188
               5.00084199                8.01296955               69.17799498                0.07489633               -0.07920656               -0.00659016                0.25533358                0.20700890                0.73307593                0.49572191
               6.00004500                8.01398304               69.17787223                0.15809819               -0.07904569               -0.07627552                0.25476394                0.01177654                0.01253940               -0.00116297
               6.99926107                8.01487055               69.17760798                0.26955800               -0.07741974               -0.07610222                0.25346911                0.00309296                0.00415766               -0.00241566
               7.99849661                8.01572225               69.17731561                0.42361111               -0.07594508               -0.07590722                0.25195782                0.00091616                0.00229278               -0.00146686
               8.99774217                8.01656230               69.17700971                0.64623787               -0.07518616               -0.07531565                0.25039640                0.00022980                0.00113045               -0.00005023
               9.99699288                8.01739810               69.17668960                0.89667759               -0.07492883               -0.07432895                0.24884955                0.00025686                0.00059273                0.00213733
               0.00157353                9.00044980               69.14634642                0.99394777               -0.06492035               -0.06537004                0.21983510               -0.00001498               -0.00210112                0.01018190
               1.00092432                9.00016001               69.14565612                0.56903888               -0.06371822               -0.06442261                0.21303007               -0.00017229               -0.00481036               -0.00801856
               2.00029916                8.99987359               69.14491351                0.05612551                0.01798733               -0.06220575                0.20578760                0.13177447                0.25023074               -0.01592055
               3.00128407                9.00223256               69.14932282                0.03171279                0.04420311               -0.15525641                0.24874455                0.42076083                1.64577344               -0.29884520
               4.00118322                9.01033125               69.17629021                0.08646453               -0.06164896                0.02607103                0.24406326                0.37927816                1.44250050                0.64383069
               5.00005109                9.01218250               69.17742090                0.15919399               -0.09954745               -0.07775076                0.25340491                0.04935325                0.08369683               -0.00516897
               5.99919228                9.01322677               69.17732510                0.26935514               -0.08191242               -0.07595478                0.25388250                0.00844907                0.01298443               -0.00196599
               6.99841284                9.01411310               69.17706138                0.42330594               -0.07695813               -0.07577081                0.25272606                0.00147553                0.00290892               -0.00123018
               7.99765311                9.01496670               69.17676354                0.64605368               -0.07557579               -0.07543136                0.25123509                0.00025129                0.00093513               -0.00093477
               8.99690133                9.01581175               69.17645687                0.98839524               -0.07492718               -0.07493158                0.24965071                0.00000792                0.00048144               -0.00040559
               9.99615457                9.01665388               69.17614676                1.00000000               -0.07467569               -0.07435519                0.24809257                0.00011418                0.00042069                0.00121292
               0.00185767                9.99978950               69.14625372                0.99593253               -0.06527898               -0.06602992                0.22111376                0.00131141                0.00594922                0.00790320
               1.00120488                9.99951847               69.14553498                0.85151258               -0.06429194               -0.06415430                0.21402870                0.00121313                0.00899979               -0.00574035
               2.00057183                9.99925265               69.14487991                0.56061961               -0.11716760               -0.06209391                0.20763498                0.11248109                0.25075353               -0.00772649
               2.99886153               10.00122276               69.14899669                0.54158996               -0.06535348               -0.10098013                0.24891093                0.27451676                1.61317643               -0.01852102
               3.99926476               10.00958807               69.17598480                0.57019108                0.00360032               -0.07431743                0.24436736                0.31774237                1.42206690                0.00923891
               4.99893353               10.01141454               69.17691938                0.60856418               -0.04906886               -0.07679607                0.25270645                0.03203762                0.06930535               -0.00100009
               5.99828338               10.01246394               69.17680268                0.67220328               -0.06914395               -0.07628260                0.25309234                0.00614050                0.00995483               -0.00041398
               6.99755065               10.01335513               69.17652739                0.76283155               -0.07401998               -0.07579654                0.25196074                0.00126524                0.00082989               -0.00037420
               7.99680298               10.01421363               69.17622005                0.89650258               -0.07477520               -0.07530751                0.25049729                0.00041365               -0.00102010               -0.00034437
               8.99605515               10.01506367               69.17590377                1.00000000               -0.07460396               -0.07480826                0.24892885                0.00025086               -0.00104453               -0.00031127
               9.99531090               10.01591100               69.17559377                0.99374764               -0.07442458               -0.07428856                0.24737230                0.00036633               -0.00068782                0.00075146
               0.00338914                0.00564234               70.14910321                0.79369260               -0.06023957               -0.06025566                0.20620771                0.00067916                0.00080566               -0.00051778
               1.00278675                0.00662109               70.14906630                0.53644101               -0.05478259               -0.06391291                0.20724864                0.00468895                0.00247020                0.00022142
               2.00229349                0.00775322               70.14905481                0.48869471               -0.04795908               -0.06236567                0.20845077                0.00183077                0.00616201               -0.00094889
               3.00182757                0.00919033               70.14905683                0.50928287               -0.04812809               -0.06302084                0.20990770               -0.00068465                0.00928996               -0.00118099
               4.00133093                0.01092448               70.14907046                0.54709259               -0.05161963               -0.06330802                0.21149353               -0.00114769                0.01158831               -0.00106321
               5.00079517                0.01289371               70.14909154                0.59844620               -0.05538263               -0.06364899                0.21313054               -0.00104192                0.01294200               -0.00095576
               6.00022328                0.01502878               70.14911589                0.66517603               -0.05872870               -0.06399906                0.21476130               -0.00082372                0.01365224               -0.00094828
               6.99962060                0.01726924               70.14914284                0.75017496               -0.06153660               -0.06435962                0.21637721               -0.00055708                0.01422928               -0.00121829
               7.99899254                0.01956489               70.14917580                0.85766632               -0.06379455               -0.06469647                0.21800869               -0.00026045                0.01518339               -0.00175126
               8.99834471                0.02187652               70.14922219                0.99360701               -0.06540107               -0.06501725                0.21971213                0.00003099                0.01305005               -0.00260960
               9.99768452                0.02417854               70.14921453                0.99549631               -0.06601850               -0.06540944                0.22105873                0.00118026                0.01020513                0.00775322
               0.00241719                1.00503978               70.14899729                0.53644767               -0.06389905               -0.05478068                0.20728543                0.00464730               -0.00077669                0.00066563
               1.00177820                1.00598196               70.14895574                0.01079256               -0.06950030               -0.06958067                0.20827279                0.01386796               -0.00156020                0.00062196
               2.00102718                1.00712956               70.14890001                0.01000000               -0.07715527               -0.03837944                0.20925148                0.05602057               -0.00448264                0.03912261
               3.00023509                1.00856012               70.14883020                0.01000000               -0.07797100               -0.01410620                0.21006028                0.08262641               -0.00780988                0.08837823
               3.99946776                1.01029140               70.14874420                0.01000000               -0.07512436                0.00292445                0.21073638                0.07010928               -0.01062328                0.11566242
               4.99873260                1.01225722               70.14864440                0.02384315               -0.07202421               -0.04157667                0.21132557                0.00826439               -0.01261888                0.02526734
               5.99802728                1.01438879               70.14853487                0.10871616               -0.06928155               -0.06446101                0.21188455               -0.01025504               -0.01383453               -0.01525658
               6.99734697                1.01662564               70.14841959                0.22052446               -0.06704875               -0.06359221                0.21245799               -0.00450208               -0.01422875               -0.01317156
               7.99668630                1.01891793               70.14830606                0.36864800               -0.06543881               -0.06367613                0.21309302               -0.00141578               -0.01368614               -0.01057761
               8.99603820                1.02122634               70.14820305                0.56754319               -0.06459982               -0.06396274                0.21381439               -0.00011226               -0.01025211               -0.00583088
               9.99539430                1.02352444               70.14815907                0.85052044               -0.06438915               -0.06457610                0.21491105                0.00108020               -0.00736325                0.01193400
               0.00159774                2.00454673               70.14890724                0.48870087               -0.06234129               -0.04781487                0.20861029                0.00175263               -0.00097468                0.00417229
               1.00097432                2.00522947               70.14885466                0.01000000               -0.03809964               -0.07742796                0.20911421                0.05587605                0.03625387               -0.00126501
               2.00083574                2.00698563               70.14954309                0.01000001               -0.03280323               -0.03333174                0.21467690                0.17328752                0.08336440                0.08911250
               3.00031826                2.00890820               70.15039266                0.01000000               -0.08998663                0.01596106                0.21285482                0.22706767                0.06454104                0.18349306
               3.99903601                2.01098297               70.15075088                0.01000000               -0.17275951                0.06805842                0.21400860                0.21281737               -0.08539055                0.30621801
               4.99686307                2.01206218               70.14872088                0.01000001               -0.16931283                0.04336546                0.20865420                0.18455138               -0.16819771                0.35104327
               5.99564975                2.01373956               70.14766748                0.01141161               -0.09308250                0.06843043                0.20689895                0.22772929               -0.08006342                0.48964174
               6.99500142                2.01599739               70.14745767                0.01601742               -0.06431140               -0.02412891                0.20696433                0.22880071               -0.03723090                0.43081132
               7.99436353                2.01829137               70.14726083                0.01000000               -0.06327354                0.00440292                0.20707250                0.20512849               -0.03369849                0.56762911
               8.99373595                2.02059726               70.14712116                0.05582956               -0.06267993                0.01258781                0.20755861                0.13421565               -0.02040060                0.28324472
               9.99310993                2.02288701               70.14718968                0.56049181               -0.06260202               -0.12877801                0.20940303                0.12075818               -0.00998109                0.28813616
               0.00108674                3.00408349               70.14883683                0.50927463               -0.06299319               -0.04776117                0.21013326               -0.00082183               -0.00115039                0.00757516
               1.00045681                3.00443340               70.14873657                0.01000000               -0.01362690               -0.07844008                0.20980919                0.08268876                0.08457740               -0.00481002
               2.00081420                3.00646293               70.15034878                0.01000000                0.01611492               -0.09094800                0.21270544                0.22821329                0.17573971                0.07083244
               3.00077911                3.00887934               70.15202834                0.01000000               -0.01220359               -0.01031943                0.21666735                0.32437086                0.20355819                0.21168616
               4.00057013                3.01165257               70.15418284                0.01202396               -0.05560348                0.01255812                0.22168729                0.31795087                0.14795707                0.31504786
               4.99966704                3.01312453               70.15477103                0.01000000               -0.09617432                0.09061658                0.22330838                0.40696208                0.15876399                0.62731867
               5.99864665                3.01575740               70.15718334                0.01830261               -0.11479310                0.07871704                0.23076665                0.36703496                0.04670832                0.66741032
               6.99737118                3.01614306               70.15561221                0.01000000               -0.12288213                0.00698476                0.22923223                0.37044778                0.04100934                0.76574131
               7.99618900                3.01900599               70.15795442                0.01535064               -0.16221561                0.06747193                0.24574018                0.49503712               -0.18669756                1.05698622
               8.99412686                3.02147810               70.15188349                0.03248185               -0.14795216                0.00320843                0.25887846                0.41951115               -0.31701975                1.74558268
               9.99322996                3.02094888               70.15165992                0.54220792               -0.08969045               -0.12274907                0.25862522                0.26702904               -0.01948675                1.71423601
               0.00088147                4.00359150               70.14877745                0.54709555               -0.06328171               -0.05111754                0.21177301               -0.00130496               -0.00101297                0.00981589
               1.00024865                4.00366067               70.14860109                0.01000000                0.00362998               -0.07567589                0.21038011                0.07022040                0.11156211               -0.00778922
               2.00095407                4.00516667               70.15067471                0.01000000                0.06836923               -0.17557257                0.21357602                0.21630492                0.29679251               -0.07380619
               3.00161604                4.00870181               70.15414327                0.01201262                0.00978832               -0.05232298                0.22154475                0.32248726                0.30451746                0.15568151
               4.00114984                4.01123413               70.15630214                0.01000000               -0.03592798               -0.02977166                0.22632715                0.32431148                0.33163251                0.34034533
               5.00089748                4.01387451               70.16035424                0.01814012               -0.05889585                0.00667327                0.23624983                0.28261940                0.19509498                0.36895092
               5.99997192                4.01531390               70.15980999                0.01000001               -0.08678464               -0.04797451                0.23546063                0.21025389                0.07094043                0.39668315
               6.99916179                4.01613709               70.16144444                0.01230987               -0.05213440                0.04047149                0.23921798                0.37418233                0.36006119                0.84829312
               7.99892923                4.01964081               70.16675583                0.01198137                0.05107445               -0.02093288                0.24823802                0.47380530                0.93308582                1.24728237
               9.00018328                4.02066143               70.17987747                0.08687552                0.02898552               -0.09926102                0.23709869                0.35162493                0.67199591                1.51366344
               9.99950894                4.02043203               70.17970535                0.57048730               -0.06743328               -0.04403775                0.23696510                0.29663843                0.01082776                1.49659563
               0.00092230                5.00306113               70.14872458                0.59845212               -0.06362546               -0.05486155                0.21346466               -0.00119834               -0.00089899                0.01110783
               1.00028605                5.00291988               70.14845020                0.02388281               -0.04115700               -0.07255342                0.21088711                0.00709497                0.02588695               -0.00998751
               2.00009916                5.00295148               70.14871074                0.01000001                0.04376740               -0.17239202                0.20733193                0.19044814                0.33910720               -0.15533476
               3.00116140                5.00783288               70.15468168                0.01000000                0.08922520               -0.09110711                0.22290618                0.42202182                0.60782396                0.16485729
               4.00188367                5.01105713               70.16028384                0.01814460                0.00391303               -0.05364338                0.23614873                0.28815971                0.35735818                0.20307618
               5.00123966                5.01325799               70.16120582                0.01000001               -0.06472611               -0.06073584                0.23754090                0.18889149                0.21336957                0.22141268
               6.00058914                5.01479791               70.16398056                0.01222747               -0.03558702               -0.01248025                0.24344254                0.24129608                0.53096022                0.67322441
               7.00052792                5.01695249               70.17130968                0.01076997                0.02758121                0.03929694                0.25385463                0.29284456                0.89306209                1.04896922
               8.00114077                5.01858733               70.18130524                0.07507337               -0.00798888               -0.09207260                0.25103517                0.20395327                0.51418084                0.76199188
               9.00036814                5.01949288               70.18089964                0.15952318               -0.07596239               -0.10114407                0.24839212                0.05100777               -0.00326529                0.09088127
               9.99962152                5.02006813               70.18054122                0.60877465               -0.07466181               -0.05038822                0.24718682                0.03072996               -0.00019334                0.08016615
               0.00114001                6.00249427               70.14867401                0.66517026               -0.06398004               -0.05828966                0.21515118               -0.00096769               -0.00087398                0.01176136
               1.00050021                6.00220960               70.14828787                0.10874471               -0.06449865               -0.06970181                0.21138133               -0.01163519               -0.01312703               -0.01141456
               1.99985004                6.00171883               70.14765655                0.01140910                0.07253050               -0.09393907                0.20521665                0.23872368                0.47463111               -0.07265111
               3.00195082                6.00687967               70.15702474                0.01831824                0.08189390               -0.11163748                0.22986280                0.38440259                0.64317734                0.05368667
               4.00148792                6.01016126               70.15969024                0.01000001               -0.05081426               -0.08252706                0.23481010                0.21631720                0.38168958                0.07703616
               5.00093454                6.01265979               70.16389243                0.01222245               -0.01922854               -0.02631022                0.24311879                0.24513034                0.66113725                0.53154514
               6.00110334                6.01506430               70.17220714                0.01078079                0.01473613                0.02325324                0.25577950                0.24325760                0.89980955                0.89933474
               7.00122926                6.01692303               70.18118298                0.07499999               -0.03177163               -0.03961190                0.25308675                0.13168326                0.47045308                0.52167097
               8.00046791                6.01779936               70.18091824                0.15839099               -0.07533124               -0.07825241                0.25164450                0.01205011                0.00468887                0.00787362
               8.99972263                6.01863855               70.18057095                0.26981105               -0.07474333               -0.08129576                0.25016700                0.00862479                0.00069117                0.01302266
               9.99897305                6.01942427               70.18021544                0.67247414               -0.07495875               -0.06837032                0.24883480                0.00583320                0.00067632                0.01442898
               0.00147228                7.00189534               70.14862506                0.75017158               -0.06435000               -0.06126016                0.21683805               -0.00067741               -0.00108959                0.01225768
               1.00082878                7.00152585               70.14811817                0.22058300               -0.06343567               -0.06728918                0.21189688               -0.00521664               -0.01148950               -0.01202661
               2.00020357                7.00107270               70.14740387                0.01601671               -0.02108830               -0.06402676                0.20511997                0.24102335                0.41495076               -0.03200995
               3.00040702                7.00560013               70.15542319                0.01000000                0.01131599               -0.12138800                0.22818970                0.39328777                0.73628436                0.04459777
               4.00042989                7.00940659               70.16121898                0.01231794                0.04161066               -0.04202198                0.23837494                0.39175992                0.82210024                0.35793047
               5.00123923                7.01273179               70.17100579                0.01077192                0.03805857                0.03984670                0.25395948                0.30453601                1.02761087                0.87431032
               6.00119106                7.01526297               70.18091746                0.07499597               -0.04063549               -0.02835632                0.25397003                0.13481869                0.51837893                0.46158324
               7.00042652                7.01616025               70.18069500                0.15849909               -0.07624057               -0.07619838                0.25281072                0.00592374                0.00767439                0.00045589
               7.99966625                7.01702228               70.18038605                0.26999280               -0.07553991               -0.07686423                0.25146561                0.00325321                0.00278778               -0.00039799
               8.99891572                7.01786696               70.18005854                0.42395274               -0.07497535               -0.07627023                0.25011559                0.00149987                0.00134491                0.00208526
               9.99816674                7.01870072               70.17971339                0.76321711               -0.07489800               -0.07318585                0.24878391                0.00105925                0.00073519                0.00427117
               0.00186545                8.00126907               70.14858074                0.85766623               -0.06469322               -0.06372546                0.21855940               -0.00034222               -0.00154369                0.01304425
               1.00121852                8.00086382               70.14794840                0.36874552               -0.06346164               -0.06547058                0.21246806               -0.00168857               -0.00931392               -0.01171515
               2.00059622                8.00043830               70.14716185                0.01000000                0.01320791               -0.06283172                0.20506788                0.21928556                0.54555823               -0.02893164
               3.00148268                8.00445191               70.15762520                0.01535317                0.07976156               -0.16307210                0.24468221                0.52813831                1.01842068               -0.16752993
               4.00219145                8.00932082               70.16632018                0.01199412               -0.01569027                0.06462889                0.24762548                0.50736173                1.20417773                0.89965219
               5.00116887                8.01345673               70.18054076                0.07506038               -0.09100992               -0.00300925                0.25369354                0.21580606                0.73797210                0.49595967
               6.00037125                8.01449717               70.18041333                0.15836432               -0.07902248               -0.07585946                0.25339183                0.01303848                0.01308319               -0.00130023
               6.99958843                8.01539906               70.18013738                0.26995855               -0.07724935               -0.07576453                0.25233666                0.00343482                0.00424681               -0.00242905
               7.99882627                8.01626207               70.17983090                0.42412854               -0.07571174               -0.07567108                0.25104761                0.00101251                0.00226007               -0.00144530
               8.99807419                8.01711314               70.17951028                0.64677332               -0.07497757               -0.07513328                0.24968913                0.00025274                0.00110442               -0.00005150
               9.99732672                8.01796055               70.17917566                0.89692642               -0.07474744               -0.07415988                0.24835643                0.00023713                0.00059238                0.00213297
               0.00227593                9.00062083               70.14854752                0.99358015               -0.06501510               -0.06551727                0.22037594                0.00000109               -0.00228912                0.01117690
               1.00162578                9.00021643               70.14778692                0.56768839               -0.06373715               -0.06446972                0.21313313               -0.00015733               -0.00522021               -0.00880347
               2.00100119                8.99981606               70.14696958                0.05609203                0.02307372               -0.06211645                0.20545774                0.14564203                0.27613473               -0.01746451
               3.00208726                9.00233869               70.15183503                0.03284086                0.02855591               -0.15431290                0.25396510                0.44312714                1.67085826               -0.29571433
               4.00157231                9.01069917               70.17871797                0.08709169               -0.08541258                0.03324206                0.24133151                0.38364333                1.44569152                0.64121092
               5.00037901                9.01267161               70.17994763                0.15950658               -0.10314061               -0.07735858                0.25182508                0.05512920                0.09055245               -0.00594427
               5.99950950                9.01374578               70.17985857                0.26971643               -0.08243455               -0.07554224                0.25273635                0.00943203                0.01421491               -0.00202909
               6.99873031                9.01464496               70.17958447                0.42379714               -0.07685406               -0.07548460                0.25183074                0.00163413                0.00310324               -0.00121837
               7.99797242                9.01550886               70.17927269                0.64659712               -0.07540086               -0.07522983                0.25055236                0.00027540                0.00092086               -0.00092950
               8.99722230                9.01636430               70.17895108                0.98868257               -0.07478740               -0.07479200                0.24917288                0.00000954                0.00044843               -0.00042214
               9.99647667                9.01721752               70.17862636                1.00000000               -0.07456297               -0.07427525                0.24783080                0.00007922                0.00040660                0.00118408
               0.00267427                9.99995872               70.14846818                0.99548067               -0.06541276               -0.06621095                0.22177238                0.00140426                0.00654428                0.00869098
               1.00202015                9.99957443               70.14767628                0.85063450               -0.06437318               -0.06420078                0.21424003                0.00129854                0.00994923               -0.00630914
               2.00138681                9.99919597               70.14695517                0.56072551               -0.12790150               -0.06200945                0.20744202                0.12812319                0.27728540               -0.00849298
               2.99946212               10.00136565               70.15151074                0.54256026               -0.09277041               -0.09730343                0.25415374                0.27697067                1.63506764               -0.01786155
               3.99953140               10.00998566               70.17841691                0.57070610               -0.01186350               -0.07135058                0.24191794                0.32310430                1.42371994                0.00951326
               4.99922485               10.01190955               70.17944015                0.60876492               -0.04724323               -0.07620513                0.25135300                0.03461704                0.07535731               -0.00100362
               5.99858654               10.01298632               70.17932932                0.67240420               -0.06834061               -0.07594593                0.25217472                0.00669466                0.01115534               -0.00038247
               6.99785803               10.01388937               70.17904393                0.76308305               -0.07370475               -0.07555966                0.25129915                0.00132943                0.00108605               -0.00034473
               7.99711244               10.01475748               70.17872289                0.89675057               -0.07461579               -0.07513834                0.25004807                0.00039942               -0.00097969               -0.00033011
               8.99636572               10.01561730               70.17839186                1.00000000               -0.07452958               -0.07469946                0.24868831                0.00022059               -0.00104540               -0.00031246
               9.99562185               10.01647505               70.17806727                0.99400602               -0.07438674               -0.07424763                0.24734905                0.00029262               -0.00069070                0.00073016
               0.00342865                0.00573798               71.15116239                0.79397680               -0.05982928               -0.05984968                0.20562616                0.00077055                0.00075180               -0.00045777
               1.00283036                0.00672833               71.15113631                0.53689549               -0.05365473               -0.06400090                0.20674825                0.00537697                0.00253425                0.00012958
               2.00235556                0.00789397               71.15113731                0.48899723               -0.04605641               -0.06218248                0.20804792                0.00211141                0.00665378               -0.00106429
               3.00190923                0.00940382               71.15115450                0.50953307               -0.04645310               -0.06291471                0.20963464               -0.00068937                0.01016421               -0.00129686
               4.00142649                0.01124350               71.15118466                0.54732718               -0.05051135               -0.06322823                0.21135149               -0.00119251                0.01264333               -0.00114149
               5.00089900                0.01334004               71.15122281                0.59864677               -0.05476675               -0.06360543                0.21311566               -0.00106512                0.01402375               -0.00100776
               6.00033116                0.01561447               71.15126397                0.66528530               -0.05846148               -0.06398584                0.21485288               -0.00082287                0.01468216               -0.00098862
               6.99972977                0.01799963               71.15130757                0.75018627               -0.06148740               -0.06437797                0.21656778               -0.00053580                0.01521959               -0.00127164
               7.99910141                0.02044128               71.15135746                0.85753507               -0.06386349               -0.06474765                0.21829900               -0.00023086                0.01618592               -0.00184194
               8.99845250                0.02289835               71.15142139                0.99324036               -0.06552530               -0.06510181                0.22010432                0.00005633                0.01389675               -0.00276275
               9.99779091                0.02534495               71.15142772                0.99505444               -0.06615982               -0.06553512                0.22156295                0.00123611                0.01088176                0.00826922
               0.00244601                1.00513949               71.15106768                0.53687808               -0.06398762               -0.05366209                0.20679528                0.00532659               -0.00077973                0.00088817
               1.00180613                1.00608832               71.15103639                0.01074229               -0.07035421               -0.07043357                0.20785712                0.01591253               -0.00159649                0.00039647
               2.00103892                1.00727215               71.15099085                0.01000000               -0.07892800               -0.03785920                0.20891177                0.06086197               -0.00484956                0.04008380
               3.00022757                1.00877467               71.15092939                0.01000000               -0.07962327               -0.01299123                0.20978363                0.08937854               -0.00857178                0.08981448
               3.99944646                1.01061122               71.15085043                0.01000000               -0.07623538                0.00426580                0.21051212                0.07576752               -0.01162289                0.11764813
               4.99870286                1.01270399               71.15075687                0.02390030               -0.07266608               -0.04106165                0.21115865                0.00881058               -0.01372342                0.02492894
               5.99799314                1.01497462               71.15065318                0.10860654               -0.06959261               -0.06441284                0.21177792               -0.01054285               -0.01493929               -0.01640521
               6.99731101                1.01735585               71.15054398                0.22020619               -0.06716982               -0.06355562                0.21242950               -0.00452859               -0.01525538               -0.01399948
               7.99664974                1.01979380               71.15043734                0.36786962               -0.06548892               -0.06368572                0.21316575               -0.00137557               -0.01460740               -0.01122095
               8.99600123                1.02224733               71.15034205                0.56607222               -0.06465344               -0.06400923                0.21399896               -0.00008342               -0.01093605               -0.00616058
               9.99535667                1.02468959               71.15030955                0.84957439               -0.06445620               -0.06468753                0.21520737                0.00113118               -0.00786679                0.01277422
               0.00163751                2.00466474               71.15099139                0.48899247               -0.06215656               -0.04592113                0.20823959                0.00201865               -0.00108698                0.00484525
               1.00101595                2.00531966               71.15094389                0.01000000               -0.03755347               -0.07920241                0.20874905                0.06067974                0.03746396               -0.00189292
               2.00088644                2.00713679               71.15166354                0.01000001               -0.03291076               -0.03349465                0.21134386                0.18567517                0.08374774                0.08900723
               3.00035773                2.00914400               71.15252431                0.01000000               -0.09369552                0.01719354                0.21271656                0.24307975                0.06432146                0.18658569
               3.99901253                2.01132882               71.15289032                0.01000000               -0.18229571                0.07092058                0.21390744                0.23027277               -0.08945484                0.31253503
               4.99671182                2.01251881               71.15080870                0.01000001               -0.17720452                0.04409314                0.20891124                0.20236376               -0.17425520                0.35907546
               5.99546844                2.01432622               71.14973380                0.01139308               -0.09459011                0.06999684                0.20662043                0.24542592               -0.08355455                0.50255562
               6.99482001                2.01672852               71.14952623                0.01594987               -0.06430133               -0.02655436                0.20673947                0.24625575               -0.03958146                0.44376340
               7.99418241                2.01916757               71.14933065                0.01000000               -0.06324848                0.00282955                0.20696040                0.22112372               -0.03588705                0.58970197
               8.99355504                2.02161817               71.14919639                0.05579898               -0.06267041                0.01678166                0.20755873                0.14918739               -0.02171996                0.31313532
               9.99292901                2.02405119               71.14928396                0.56062040               -0.06260378               -0.14216416                0.20950883                0.13868546               -0.01064945                0.31823752
               0.00117655                3.00422106               71.15093698                0.50952428               -0.06288668               -0.04608171                0.20991097               -0.00084261               -0.00126546                0.00859683
               1.00054768                3.00450427               71.15083300                0.01000000               -0.01242279               -0.08010451                0.20948647                0.08937196                0.08634131               -0.00579703
               2.00092809                3.00660226               71.15247893                0.01000000                0.01747306               -0.09481486                0.21256393                0.24425773                0.17946970                0.07009375
               3.00089714                3.00911855               71.15419388                0.01000000               -0.01254933               -0.01066334                0.21648235                0.34628833                0.20797538                0.21561868
               4.00067710                3.01202963               71.15640091                0.01201830               -0.05722007                0.01295093                0.22223658                0.34106574                0.15136037                0.32223805
               4.99975274                3.01358585               71.15700588                0.01000000               -0.09925770                0.09168915                0.22413596                0.43658649                0.16352054                0.64293661
               5.99869195                3.01637455               71.15950040                0.01831414               -0.11789794                0.07832716                0.23266820                0.39553320                0.04993085                0.68477141
               6.99739478                3.01682476               71.15791604                0.01000000               -0.12546923                0.00296113                0.23159188                0.39736874                0.04874780                0.78571915
               7.99618256                3.01985039               71.16042858                0.01552304               -0.16467134                0.06462719                0.24947031                0.53106567               -0.17157027                1.08274712
               8.99410135                3.02258297               71.15450341                0.03371159               -0.14591197               -0.01599286                0.26547804                0.44341056               -0.31039192                1.76481168
               9.99326432                3.02184631               71.15427736                0.54327683               -0.08370280               -0.15458911                0.26521405                0.26945273               -0.01845580                1.72957060
               0.00105424                4.00374311               71.15089477                0.54731571               -0.06320468               -0.04998834                0.21170731               -0.00136979               -0.00109023                0.01099556
               1.00042219                4.00371757               71.15070345                0.01000000                0.00515423               -0.07681229                0.21009621                0.07570497                0.11384840               -0.00898818
               2.00115732                4.00524049               71.15280927                0.01000000                0.07169650               -0.18537527                0.21346895                0.23362438                0.30402343               -0.07887773
               3.00185612                4.00893073               71.15636294                0.01203117                0.01046087               -0.05399755                0.22207970                0.34573860                0.31263428                0.15857828
               4.00136654                4.01158784               71.15856925                0.01000000               -0.03787498               -0.03175292                0.22732444                0.34744319                0.34036698                0.34830078
               5.00109862                4.01435259               71.16272609                0.01817394               -0.06131734                0.00609818                0.23811198                0.30422542                0.20085607                0.37761806
               6.00014019                4.01589276               71.16217621                0.01000001               -0.09035379               -0.05179739                0.23754434                0.22978005                0.07304930                0.40477780
               6.99929155                4.01678774               71.16384831                0.01236754               -0.05473360                0.03808647                0.24157730                0.39884999                0.36652911                0.86323730
               7.99904552                4.02046011               71.16925000                0.01214266                0.05678961               -0.03610519                0.25071705                0.49104001                0.93036897                1.25227331
               9.00042734                4.02129831               71.18223317                0.08755686                0.03729245               -0.12624285                0.23386432                0.35604007                0.66466869                1.50799246
               9.99979137                4.02095941               71.18206115                0.57103713               -0.06359677               -0.06149262                0.23405623                0.30209634                0.01108197                1.48919891
               0.00120023                5.00322130               71.15085956                0.59864175               -0.06358330               -0.05421089                0.21354125               -0.00124207               -0.00095222                0.01229859
               1.00056439                5.00296803               71.15055789                0.02394809               -0.04064050               -0.07323364                0.21064283                0.00737319                0.02539113               -0.01125199
               2.00038742                5.00289475               71.15078221                0.01000001                0.04500881               -0.18041731                0.20716524                0.20799787                0.34814508               -0.16228569
               3.00146457                5.00803859               71.15691548                0.01000000                0.09083450               -0.09445252                0.22369826                0.45127626                0.62479058                0.16854594
               4.00220411                5.01139457               71.16265267                0.01816607                0.00338763               -0.05618650                0.23773545                0.30924449                0.36657267                0.20766994
               5.00153232                5.01370781               71.16359078                0.01000001               -0.06758508               -0.06378464                0.23941424                0.20706473                0.21844474                0.22558625
               6.00085240                5.01533861               71.16642437                0.01229084               -0.03639451               -0.01500431                0.24541233                0.26005987                0.54021427                0.68450106
               7.00080443                5.01758649               71.17385950                0.01089922                0.03201947                0.03306490                0.25602346                0.30410900                0.89699513                1.05686183
               8.00149279                5.01912829               71.18380675                0.07527031               -0.00407897               -0.10601406                0.24908782                0.21265115                0.51132799                0.76301693
               9.00072285                5.02005811               71.18337472                0.15989040               -0.07543738               -0.10533461                0.24648270                0.05741369               -0.00419376                0.09836019
               9.99998405                5.02061646               71.18300540                0.60900619               -0.07388060               -0.04873893                0.24553404                0.03337350               -0.00020214                0.08673644
               0.00153594                6.00265889               71.15082645                0.66526629               -0.06397336               -0.05798122                0.21535320               -0.00098210               -0.00092561                0.01290132
               1.00089620                6.00225290               71.15040082                0.10864760               -0.06446111               -0.07006057                0.21120065               -0.01211710               -0.01443027               -0.01265493
               2.00024671                6.00163215               71.14970498                0.01138957                0.07428117               -0.09542365                0.20466544                0.25631727                0.48823023               -0.07659022
               3.00238183                6.00704168               71.15933083                0.01831602                0.08177487               -0.11486401                0.23158722                0.41253421                0.66191625                0.05565118
               4.00188221                6.01046411               71.16204650                0.01000001               -0.05429712               -0.08629420                0.23680589                0.23546816                0.39096528                0.07818253
               5.00129588                6.01307690               71.16633170                0.01228801               -0.02097480               -0.02778204                0.24523307                0.26386421                0.67368528                0.54006674
               6.00146272                6.01559268               71.17477367                0.01091814                0.01440789                0.02195774                0.25796616                0.25279208                0.90563852                0.90470453
               7.00158404                6.01744904               71.18370489                0.07521953               -0.03178945               -0.04483164                0.25122551                0.13589091                0.46860410                0.52045456
               8.00082693                6.01833983               71.18342715                0.15872259               -0.07482980               -0.07820336                0.25001213                0.01342719                0.00444230                0.00851342
               9.00008745                6.01919162               71.18306618                0.27023880               -0.07423918               -0.08188332                0.24878277                0.00970441                0.00056849                0.01439558
               9.99934214                6.01998463               71.18269851                0.67270399               -0.07453026               -0.06753964                0.24770866                0.00640127                0.00069651                0.01571373
               0.00199257                7.00206167               71.15079487                0.75016624               -0.06437758               -0.06117866                0.21713278               -0.00067204               -0.00117108                0.01337786
               1.00134879                7.00156682               71.15023666                0.22025363               -0.06337963               -0.06745089                0.21180447               -0.00534332               -0.01250621               -0.01320013
               2.00072498                7.00098628               71.14945224                0.01595521               -0.02327500               -0.06398588                0.20462673                0.25855154                0.42861705               -0.03478455
               3.00088329                7.00574131               71.15771365                0.01000000                0.00766365               -0.12381167                0.23014691                0.42073142                0.75769048                0.05153469
               4.00087825                7.00966869               71.16361279                0.01237504                0.03988711               -0.04516990                0.24064737                0.41628897                0.83856418                0.36358716
               5.00168104                7.01315217               71.17355436                0.01088908                0.03289293                0.04350033                0.25595747                0.31607381                1.03709265                0.87888293
               6.00153611                7.01577776               71.18344888                0.07521969               -0.04529698               -0.02883744                0.25215330                0.13925063                0.51801715                0.45986195
               7.00077510                7.01668986               71.18321560                0.15884122               -0.07586762               -0.07582671                0.25124144                0.00654282                0.00762400                0.00052294
               8.00001876                7.01756422               71.18289461                0.27047069               -0.07514808               -0.07665584                0.25014972                0.00362871                0.00271380               -0.00025493
               8.99927213                7.01842044               71.18255474                0.42451531               -0.07463592               -0.07614416                0.24905840                0.00167514                0.00131414                0.00229819
               9.99852604                7.01926567               71.18219744                0.76350197               -0.07460970               -0.07284172                0.24798870                0.00111355                0.00074818                0.00449720
               0.00251221                8.00143531               71.15076833                0.85749757               -0.06474766               -0.06378867                0.21895894               -0.00032400               -0.00165862                0.01422344
               1.00186473                8.00090388               71.15007308                0.36800380               -0.06344808               -0.06553777                0.21248158               -0.00169059               -0.01008908               -0.01279232
               2.00124325                8.00035243               71.14921058                0.01000000                0.01246562               -0.06276523                0.20470731                0.23551653                0.56866693               -0.03149498
               3.00211404                8.00456545               71.16008861                0.01554003                0.07769429               -0.16542861                0.24798160                0.56389130                1.04493768               -0.15480051
               4.00279713                8.00956071               71.16880230                0.01213718               -0.03028782                0.06950267                0.24933067                0.52438342                1.21121659                0.89831817
               5.00150829                8.01394691               71.18306885                0.07526204               -0.10435441                0.00060244                0.25175939                0.22478627                0.74130664                0.49417333
               6.00071004                8.01501593               71.18294006                0.15869075               -0.07899265               -0.07537824                0.25180972                0.01446110                0.01365462               -0.00148269
               6.99992843                8.01593250               71.18265472                0.27042000               -0.07705643               -0.07538339                0.25106119                0.00382401                0.00432175               -0.00243135
               7.99916892                8.01680671               71.18233656                0.42473411               -0.07544640               -0.07540505                0.25001500                0.00112001                0.00221931               -0.00143794
               8.99841951                8.01766873               71.18200349                0.64736061               -0.07474737               -0.07493586                0.24891253                0.00027903                0.00107130               -0.00006572
               9.99767397                8.01852780               71.18165673                0.89717650               -0.07455383               -0.07398549                0.24784505                0.00021215                0.00058912                0.00212102
               0.00304896                9.00078590               71.15075394                0.99320641               -0.06510948               -0.06566496                0.22089811                0.00002273               -0.00247755                0.01219670
               1.00239787                9.00025606               71.14991878                0.56625427               -0.06376124               -0.06451623                0.21325247               -0.00013965               -0.00561698               -0.00960672
               2.00177374                8.99973097               71.14902266                0.05608001                0.02774858               -0.06204162                0.20519398                0.16082600                0.30515013               -0.01904488
               3.00295284                9.00243274               71.15440212                0.03403530                0.01053601               -0.15256602                0.25993795                0.46574339                1.69465308               -0.29156291
               4.00198446                9.01105874               71.18111684                0.08776397               -0.11156492                0.04098778                0.23824079                0.38720454                1.44522828                0.63633080
               5.00072154                9.01316422               71.18245740                0.15987865               -0.10723625               -0.07687399                0.24997416                0.06157182                0.09802807               -0.00682689
               5.99983973                9.01427020               71.18237983                0.27014643               -0.08303755               -0.07505654                0.25140569                0.01053194                0.01557045               -0.00211553
               6.99906079                9.01518219               71.18209799                0.42434975               -0.07674050               -0.07515845                0.25081564                0.00181479                0.00330128               -0.00120994
               7.99830492                9.01605612               71.18177459                0.64718801               -0.07520820               -0.07500488                0.24979082                0.00030383                0.00089464               -0.00093418
               8.99755663                9.01692173               71.18144033                0.98890491               -0.07463874               -0.07464371                0.24866337                0.00000967                0.00040744               -0.00045084
               9.99681215                9.01778596               71.18110338                1.00000000               -0.07444779               -0.07420110                0.24758582                0.00003829                0.00038911                0.00114425
               0.00357234               10.00012202               71.15068917                0.99505294               -0.06554744               -0.06638824                0.22242064                0.00149130                0.00716050                0.00950072
               1.00291686                9.99961355               71.14981978                0.84967562               -0.06446271               -0.06425069                0.21447122                0.00137860                0.01093992               -0.00689633
               2.00228308                9.99911160               71.14902875                0.56085643               -0.14078607               -0.06193768                0.20729736                0.14596326                0.30690143               -0.00928783
               3.00010114               10.00151413               71.15407977                0.54361284               -0.12366707               -0.09186161                0.26012087                0.27827368                1.65572128               -0.01707901
               3.99980974               10.01038046               71.18082316                0.57125492               -0.02864368               -0.06782782                0.23917484                0.32729346                1.42179372                0.00986786
               4.99952827               10.01240943               71.18194644                0.60900173               -0.04535141               -0.07547961                0.24977522                0.03738943                0.08198208               -0.00099767
               5.99890272               10.01351480               71.18184618                0.67262961               -0.06747334               -0.07553997                0.25111239                0.00729352                0.01248574               -0.00034725
               6.99817880               10.01442933               71.18155337                0.76336422               -0.07336295               -0.07528567                0.25055445                0.00139214                0.00135774               -0.00031419
               7.99743546               10.01530661               71.18122101                0.89699475               -0.07444681               -0.07495086                0.24956488                0.00037961               -0.00094365               -0.00031866
               8.99668987               10.01617586               71.18087754                1.00000000               -0.07445915               -0.07458659                0.24845893                0.00018217               -0.00105075               -0.00031845
               9.99594627               10.01704378               71.18054075                0.99425634               -0.07435934               -0.07421783                0.24738427                0.00020425               -0.00069644                0.00070267
               0.00345634                0.00582261               72.15321573                0.79426961               -0.05938288               -0.05940641                0.20503775                0.00087481                0.00068457               -0.00038426
               1.00286251                0.00682352               72.15320127                0.53732138               -0.05239807               -0.06412105                0.20624582                0.00617012                0.00259873                0.00002893
               2.00240838                0.00802485               72.15321577                0.48931246               -0.04395030               -0.06198409                0.20765415                0.00243456                0.00719903               -0.00119491
               3.00198350                0.00961460               72.15324953                0.50980512               -0.04464447               -0.06279998                0.20937280               -0.00068053                0.01111618               -0.00142183
               4.00151549                0.01157010               72.15329749                0.54757888               -0.04935861               -0.06313962                0.21121971               -0.00122551                0.01375477               -0.00121938
               5.00099633                0.01380542               72.15335385                0.59884916               -0.05416676               -0.06355160                0.21309933               -0.00106912                0.01513427               -0.00105282
               6.00043215                0.01623060               72.15341294                0.66537430               -0.05824140               -0.06397355                0.21495235               -0.00079801                0.01571426               -0.00101825
               6.99983150                0.01877099               72.15347420                0.75017898               -0.06148547               -0.06440043                0.21675704               -0.00049599                0.01618062               -0.00131761
               7.99920244                0.02136829               72.15354178                0.85736861               -0.06395624               -0.06479674                0.21855928               -0.00018752                0.01714984               -0.00192045
               8.99855238                0.02397996               72.15362427                0.99289187               -0.06564722               -0.06518243                0.22044618                0.00008881                0.01472294               -0.00290382
               9.99788950                0.02658028               72.15364579                0.99461871               -0.06628805               -0.06565875                0.22201507                0.00127862                0.01155190                0.00877581
               0.00246417                1.00522854               72.15313319                0.53734354               -0.06410818               -0.05241368                0.20629938                0.00611057               -0.00078728                0.00114858
               1.00182309                1.00618231               72.15311288                0.01069331               -0.07134936               -0.07142584                0.20743916                0.01827051               -0.00164239                0.00014825
               2.00103718                1.00740501               72.15307825                0.01000000               -0.08095070               -0.03735721                0.20857475                0.06630955               -0.00525659                0.04047851
               3.00020408                1.00898660               72.15302587                0.01000000               -0.08146811               -0.01195876                0.20950783                0.09640505               -0.00940514                0.09094014
               3.99940782                1.01093870               72.15295444                0.01013018               -0.07743428                0.00565500                0.21028847                0.08151689               -0.01271312                0.11975498
               4.99865539                1.01316990               72.15286757                0.02398776               -0.07332183               -0.04053696                0.21098744                0.00951591               -0.01490441                0.02489080
               5.99794138                1.01559086               72.15277043                0.10851521               -0.06988452               -0.06435719                0.21168983               -0.01069680               -0.01609199               -0.01740650
               6.99725770                1.01812699               72.15266818                0.21980887               -0.06726494               -0.06351985                0.21243080               -0.00445546               -0.01630692               -0.01482191
               7.99659609                1.02072032               72.15256937                0.36704434               -0.06552135               -0.06370570                0.21326513               -0.00128356               -0.01552749               -0.01181451
               8.99594727                1.02332813               72.15248302                0.56447212               -0.06470599               -0.06406797                0.21422026               -0.00003859               -0.01160517               -0.00645639
               9.99530197                1.02592369               72.15246321                0.84852028               -0.06453058               -0.06481616                0.21554709                0.00117054               -0.00836009                0.01361233
               0.00167101                2.00477433               72.15307203                0.48931815               -0.06195584               -0.04382493                0.20787215                0.00232800               -0.00121159                0.00560328
               1.00105145                2.00539500               72.15302964                0.01000000               -0.03703660               -0.08122068                0.20838771                0.06609847                0.03813474               -0.00260389
               2.00093028                2.00727770               72.15376997                0.01000001               -0.03367698               -0.03429626                0.21033629                0.19929741                0.08481290                0.08955044
               3.00037791                2.00937542               72.15464699                0.01000000               -0.09838799                0.01832404                0.21210537                0.26090257                0.06422086                0.18960954
               3.99896252                2.01168320               72.15502903                0.01000000               -0.19217130                0.07398478                0.21284608                0.24983907               -0.09385292                0.31909414
               4.99653449                2.01299468               72.15289911                0.01000001               -0.18506948                0.04479862                0.20878578                0.22214132               -0.18050785                0.36786030
               5.99526113                2.01494345               72.15179989                0.01135412               -0.09607751                0.07097772                0.20646631                0.26498156               -0.08737570                0.51670237
               6.99461294                2.01750060               72.15159246                0.01587751               -0.06427507               -0.02958113                0.20660703                0.26554847               -0.04201169                0.45814984
               7.99397563                2.02009417               72.15140004                0.01000000               -0.06323499                0.00106291                0.20696220                0.23860698               -0.03799435                0.61398993
               8.99334824                2.02269860               72.15127234                0.05580089               -0.06269148                0.02047087                0.20770926                0.16563781               -0.02301593                0.34658600
               9.99272180                2.02528395               72.15137985                0.56079227               -0.06264383               -0.15802937                0.20975565                0.15908481               -0.01132148                0.35180078
               0.00126939                3.00435204               72.15303505                0.50981571               -0.06277006               -0.04427509                0.20969381               -0.00084935               -0.00138831                0.00972346
               1.00064169                3.00455790               72.15292629                0.01000000               -0.01133369               -0.08194936                0.20916682                0.09633585                0.08785781               -0.00691253
               2.00104271                3.00671908               72.15460006                0.01000000                0.01874750               -0.09959373                0.21192867                0.26199770                0.18322514                0.06948514
               3.00101664                3.00935308               72.15635799                0.01000000               -0.01286837               -0.01118214                0.21624626                0.37150686                0.21334539                0.22014428
               4.00078535                3.01241840               72.15862757                0.01203697               -0.05893388                0.01325947                0.22295274                0.36721534                0.15549254                0.33007699
               4.99983796                3.01406588               72.15925375                0.01000000               -0.10251229                0.09236414                0.22511754                0.46825896                0.16874718                0.65936504
               5.99873510                3.01701042               72.16183670                0.01832456               -0.12100043                0.07710157                0.23487122                0.42595206                0.05364992                0.70288498
               6.99741795                3.01753537               72.16024405                0.01000000               -0.12824370               -0.00211090                0.23412347                0.42683996                0.05746460                0.80664921
               7.99617023                3.02074158               72.16294383                0.01572235               -0.16738508                0.06069654                0.25391793                0.56891527               -0.15405042                1.10933410
               8.99407025                3.02373755               72.15719305                0.03504904               -0.14286358               -0.03743122                0.27284782                0.46693915               -0.30236108                1.78198636
               9.99331295                3.02276310               72.15696420                0.54445058               -0.07572942               -0.18979915                0.27258312                0.27019605               -0.01717693                1.74286659
               0.00124232                4.00388883               72.15301160                0.54756051               -0.06311861               -0.04883085                0.21165002               -0.00142088               -0.00116650                0.01226912
               1.00061113                4.00375602               72.15280301                0.01012514                0.00663674               -0.07802118                0.20981409                0.08132649                0.11640608               -0.01032732
               2.00137505                4.00528583               72.15494409                0.01000000                0.07488044               -0.19545165                0.21245921                0.25287620                0.31133052               -0.08426333
               3.00210874                4.00915178               72.15858487                0.01203592                0.01094894               -0.05585864                0.22266776                0.37163365                0.32129847                0.16177806
               4.00159403                4.01194839               72.16084863                0.01000000               -0.04005465               -0.03425535                0.22842478                0.37223277                0.34984915                0.35672421
               5.00130765                4.01484196               72.16511648                0.01818808               -0.06416747                0.00491139                0.24017474                0.32679952                0.20688005                0.38646737
               6.00031068                4.01648548               72.16456088                0.01000001               -0.09445351               -0.05599729                0.23976806                0.25030170                0.07528542                0.41279758
               6.99941858                4.01745838               72.16627598                0.01243234               -0.05794645                0.03488937                0.24430600                0.42450524                0.37313078                0.87754241
               7.99915175                4.02130810               72.17177017                0.01231715                0.06234606               -0.05355308                0.25314820                0.50867368                0.92398855                1.25329801
               9.00066550                4.02194997               72.18455476                0.08828629                0.04614344               -0.15552401                0.23023032                0.35976167                0.65407540                1.49772325
              10.00007462                4.02148797               72.18438647                0.57162477               -0.05908765               -0.07987998                0.23082418                0.30595753                0.01139045                1.47725183
               0.00150659                5.00337543               72.15299541                0.59882861               -0.06353793               -0.05359224                0.21363694               -0.00127248               -0.00099116                0.01355021
               1.00087122                5.00299747               72.15266306                0.02403514               -0.04010609               -0.07391397                0.21039917                0.00782862                0.02522217               -0.01263477
               2.00070447                5.00281005               72.15285404                0.01000001                0.04577692               -0.18844136                0.20682472                0.22740071                0.35791324               -0.16947796
               3.00178675                5.00823591               72.15915565                0.01000000                0.09176722               -0.09786260                0.22457098                0.48310643                0.64280431                0.17296804
               4.00253982                5.01173329               72.16503855                0.01817896                0.00250475               -0.05917948                0.23993396                0.33202581                0.37674940                0.21288966
               5.00183685                5.01416410               72.16599410                0.01000001               -0.07075499               -0.06722088                0.24171195                0.22653037                0.22399005                0.23010749
               6.00112472                5.01589047               72.16888881                0.01237378               -0.03757064               -0.01758038                0.24812368                0.28006503                0.54971675                0.69616190
               7.00108544                5.01823316               72.17643015                0.01104699                0.03636938                0.02588154                0.25824944                0.31546615                0.89840914                1.06199407
               8.00185211                5.01967052               72.18628699                0.07550974                0.00000895               -0.12131690                0.24677545                0.22188118                0.50608734                0.76153260
               9.00108561                5.02062707               72.18582929                0.16031406               -0.07479961               -0.11017679                0.24428175                0.06460683               -0.00524908                0.10653334
              10.00035611                5.02116550               72.18545190                0.60926932               -0.07295020               -0.04707319                0.24365057                0.03622846               -0.00020270                0.09394132
               0.00197277                6.00281699               72.15298108                0.66537840               -0.06396933               -0.05772040                0.21557960               -0.00099012               -0.00096016                0.01403662
               1.00133308                6.00227774               72.15251188                0.10857986               -0.06440699               -0.07039442                0.21100796               -0.01249533               -0.01558724               -0.01394891
               2.00068463                6.00151700               72.15174986                0.01136552                0.07572756               -0.09693236                0.20417891                0.27556201                0.50334658               -0.08079835
               3.00284763                6.00719453               72.16165649                0.01832088                0.08108585               -0.11814315                0.23372682                0.44306596                0.68196911                0.05857332
               4.00230635                6.01076480               72.16442636                0.01000001               -0.05832792               -0.09053783                0.23931060                0.25618283                0.40079804                0.07965000
               5.00168107                6.01349755               72.16879709                0.01237208               -0.02317091               -0.02959019                0.24818401                0.28386112                0.68674491                0.54886448
               6.00184293                6.01613388               72.17736647                0.01108681                0.01333913                0.02016729                0.26058693                0.26219558                0.90937929                0.90800790
               7.00194785                6.01797601               72.18620749                0.07549120               -0.03237354               -0.05061365                0.24911249                0.13978596                0.46426160                0.51704410
               8.00119546                6.01888177               72.18591848                0.15910062               -0.07426029               -0.07813694                0.24815161                0.01498555                0.00412567                0.00919048
               9.00046265                6.01974644               72.18554661                0.27073616               -0.07365657               -0.08257245                0.24720339                0.01091525                0.00044190                0.01592080
               9.99972233                6.02054651               72.18516961                0.67297011               -0.07403194               -0.06665290                0.24643742                0.00701651                0.00072140                0.01715813
               0.00256529                7.00222102               72.15296771                0.75015870               -0.06439963               -0.06112553                0.21746612               -0.00064184               -0.00123997                0.01445913
               1.00192129                7.00158959               72.15235426                0.21988664               -0.06331827               -0.06759407                0.21169808               -0.00541008               -0.01350494               -0.01437718
               2.00129892                7.00087140               72.15149641                0.01586944               -0.02605055               -0.06395143                0.20420805                0.27764283                0.44383987               -0.03761118
               3.00140028                7.00587304               72.16002613                0.01000000                0.00307670               -0.12635523                0.23268875                0.44966077                0.78065477                0.05940853
               4.00136046                7.00992253               72.16603193                0.01242781                0.03723546               -0.04908314                0.24336917                0.44142253                0.85507183                0.36904787
               5.00214499                7.01357230               72.17612494                0.01104040                0.02648543                0.04698027                0.25862124                0.32737299                1.04451496                0.88121771
               6.00189016                7.01629382               72.18596053                0.07548794               -0.05058611               -0.02986558                0.25004464                0.14320651                0.51542530                0.45564450
               7.00113327                7.01722088               72.18571983                0.15926715               -0.07543880               -0.07539844                0.24944065                0.00722361                0.00755092                0.00055859
               8.00038139                7.01810778               72.18538905                0.27101321               -0.07470440               -0.07642154                0.24866432                0.00405801                0.00260080               -0.00009947
               8.99963918                7.01897562               72.18503971                0.42515746               -0.07425404               -0.07600997                0.24787458                0.00187321                0.00128474                0.00252796
               9.99889631                7.01983244               72.18467317                0.76381301               -0.07428712               -0.07247367                0.24711684                0.00116673                0.00076798                0.00474871
               0.00322280                8.00159447               72.15295992                0.85733944               -0.06483089               -0.06385414                0.21931618               -0.00029134               -0.00181699                0.01538184
               1.00257449                8.00092586               72.15219803                0.36719858               -0.06343857               -0.06559958                0.21250911               -0.00165386               -0.01082375               -0.01388007
               2.00195403                8.00023797               72.15125599                0.01000000                0.01076123               -0.06272012                0.20444577                0.25317463                0.59375498               -0.03404365
               3.00278972                8.00466742               72.16258484                0.01572708                0.07407568               -0.16783873                0.25196047                0.60155099                1.07342546               -0.14005969
               4.00343554                8.00978313               72.17130680                0.01231639               -0.04662350                0.07411973                0.25215045                0.54154328                1.21614530                0.89424823
               5.00185725                8.01443715               72.18557595                0.07549785               -0.11885317                0.00425856                0.24948886                0.23425104                0.74235190                0.48996017
               6.00105848                8.01553657               72.18544952                0.15906673               -0.07894406               -0.07482276                0.24999406                0.01605210                0.01429042               -0.00170375
               7.00027836                8.01646804               72.18515861                0.27099540               -0.07682994               -0.07493875                0.24958030                0.00425398                0.00440893               -0.00246286
               7.99952188                8.01735333               72.18483120                0.42542518               -0.07514599               -0.07510290                0.24884555                0.00123900                0.00214602               -0.00143369
               8.99877545                8.01822624               72.18448853                0.64801277               -0.07449304               -0.07471943                0.24805346                0.00030891                0.00103277               -0.00009047
               9.99803202                8.01909703               72.18413256                0.89743367               -0.07434257               -0.07380276                0.24730392                0.00018159                0.00059023                0.00210071
               0.00389670                9.00094394               72.15296549                0.99281396               -0.06519832               -0.06580989                0.22140486                0.00003832               -0.00265870                0.01321463
               1.00324471                9.00027759               72.15205196                0.56466961               -0.06379254               -0.06456823                0.21339939               -0.00010325               -0.00601121               -0.01043136
               2.00262085                8.99961700               72.15107346                0.05608245                0.03207136               -0.06199660                0.20505488                0.17747507                0.33771921               -0.02061812
               3.00388614                9.00251627               72.15703379                0.03536035               -0.00996263               -0.14993176                0.26707642                0.48901684                1.71715227               -0.28574473
               4.00242159                9.01140493               72.18348279                0.08848985               -0.14047822                0.04936228                0.23462755                0.39031283                1.44057943                0.62836515
               5.00107658                9.01365747               72.18494711                0.16029489               -0.11206387               -0.07628160                0.24783963                0.06883310                0.10618135               -0.00783282
               6.00018032                9.01479736               72.18488668                0.27063378               -0.08374996               -0.07449395                0.24988204                0.01177389                0.01709673               -0.00220517
               6.99940158                9.01572211               72.18460078                0.42499205               -0.07661724               -0.07478610                0.24966438                0.00201709                0.00352270               -0.00121989
               7.99864797                9.01660572               72.18426850                0.64784075               -0.07499593               -0.07475401                0.24894512                0.00033251                0.00084931               -0.00094159
               8.99790166                9.01748123               72.18392435                0.98906817               -0.07448097               -0.07448619                0.24812084                0.00000958                0.00035660               -0.00048721
               9.99715835                9.01835639               72.18357807                1.00000000               -0.07433069               -0.07413389                0.24736166               -0.00001059                0.00036963                0.00109564
               0.00455625               10.00027828               72.15291659                0.99460754               -0.06568893               -0.06656581                0.22304281                0.00157673                0.00778710                0.01032880
               1.00389936                9.99963449               72.15196571                0.84865765               -0.06456982               -0.06431016                0.21474272                0.00145290                0.01196455               -0.00750583
               2.00326485                9.99899804               72.15110112                0.56104138               -0.15586169               -0.06189583                0.20726776                0.16611557                0.33999775               -0.01010682
               3.00078213               10.00166879               72.15671315                0.54477375               -0.15821287               -0.08474806                0.26718447                0.27821535                1.67488154               -0.01597275
               4.00010060               10.01077038               72.18320041                0.57181890               -0.04703272               -0.06345476                0.23597380                0.33003678                1.41563933                0.01027781
               4.99984147               10.01291152               72.18443566                0.60926495               -0.04356377               -0.07459520                0.24797040                0.04030499                0.08921203               -0.00097786
               5.99922932               10.01404669               72.18435157                0.67289442               -0.06655621               -0.07506740                0.24990573                0.00794045                0.01399004               -0.00030640
               6.99851035               10.01497232               72.18405501                0.76368431               -0.07299583               -0.07497873                0.24973148                0.00145544                0.00166542               -0.00028539
               7.99776940               10.01585825               72.18371419                0.89725256               -0.07426908               -0.07474645                0.24905173                0.00035301               -0.00091549               -0.00030655
               8.99702497               10.01673652               72.18336104                1.00000000               -0.07439535               -0.07447181                0.24824919                0.00013578               -0.00106348               -0.00032701
               9.99628150               10.01761435               72.18301495                0.99450536               -0.07434696               -0.07420335                0.24749313                0.00009844               -0.00070579                0.00067067
               0.00347126                0.00589537               73.15526314                0.79455690               -0.05889686               -0.05892160                0.20444636                0.00099346                0.00061882               -0.00030634
               1.00288230                0.00690568               73.15526122                0.53778025               -0.05099924               -0.06427690                0.20574191                0.00708096                0.00267949               -0.00008717
               2.00245128                0.00814512               73.15529039                0.48965351               -0.04162347               -0.06175985                0.20726091                0.00280350                0.00779729               -0.00133682
               3.00204983                0.00982270               73.15534195                0.51010139               -0.04270073               -0.06266908                0.20911621               -0.00064981                0.01213571               -0.00155198
               4.00159727                0.01190522               73.15540905                0.54782801               -0.04817953               -0.06304405                0.21110655               -0.00123566                0.01491761               -0.00129401
               5.00108624                0.01429154               73.15548479                0.59906260               -0.05360850               -0.06349892                0.21310333               -0.00104967                0.01626648               -0.00108860
               6.00052510                0.01687913               73.15556302                0.66553506               -0.05808452               -0.06395896                0.21504672               -0.00075167                0.01672633               -0.00104089
               6.99992455                0.01958531               73.15564271                0.75020514               -0.06153817               -0.06441586                0.21691646               -0.00043357                0.01707864               -0.00135244
               7.99929433                0.02234769               73.15572865                0.85721046               -0.06407967               -0.06484344                0.21878074               -0.00012539                0.01803133               -0.00198630
               8.99864295                0.02512277               73.15583032                0.99249708               -0.06577143               -0.06526294                0.22073188                0.00013049                0.01547989               -0.00302670
               9.99797890                0.02788562               73.15586802                0.99414862               -0.06640490               -0.06578407                0.22240648                0.00130376                0.01217247                0.00926695
               0.00247089                1.00530615               73.15519367                0.53777235               -0.06426542               -0.05102096                0.20580100                0.00701590               -0.00078876                0.00143054
               1.00182823                1.00626291               73.15518517                0.01064637               -0.07250402               -0.07257568                0.20701967                0.02098875               -0.00168551               -0.00013928
               2.00102081                1.00752752               73.15516235                0.01000000               -0.08324781               -0.03695654                0.20823104                0.07235816               -0.00570757                0.04069497
               3.00016328                1.00919601               73.15511955                0.01000000               -0.08351579               -0.01093170                0.20922598                0.10402603               -0.01032554                0.09204654
               3.99935049                1.01127478               73.15505620                0.01031706               -0.07872467                0.00661723                0.21007441                0.08733170               -0.01388909                0.12100251
               4.99858878                1.01365655               73.15497662                0.02409796               -0.07398998               -0.04008474                0.21083810                0.01046657               -0.01614676                0.02476769
               5.99787069                1.01623954               73.15488697                0.10840674               -0.07014255               -0.06425679                0.21161682               -0.01064560               -0.01727416               -0.01840881
               6.99718593                1.01894115               73.15479259                0.21938797               -0.06731720               -0.06348335                0.21245062               -0.00426044               -0.01736448               -0.01556868
               7.99652435                1.02169926               73.15470265                0.36611776               -0.06553201               -0.06373905                0.21340419               -0.00113460               -0.01643210               -0.01236888
               8.99587529                1.02447014               73.15462645                0.56274135               -0.06476272               -0.06414571                0.21449993                0.00002435               -0.01225429               -0.00670756
               9.99522909                1.02722778               73.15462049                0.84744098               -0.06461992               -0.06496993                0.21595160                0.00119561               -0.00884167                0.01444583
               0.00169806                2.00487495               73.15514884                0.48961514               -0.06173567               -0.04150924                0.20750864                0.00269196               -0.00134734                0.00644164
               1.00108071                2.00545417               73.15511164                0.01000000               -0.03663581               -0.08351318                0.20803683                0.07213141                0.03867251               -0.00340400
               2.00096535                2.00740598               73.15587027                0.01000001               -0.03488113               -0.03548392                0.20977574                0.21449933                0.08583517                0.08994824
               3.00038308                2.00960406               73.15676641                0.01000000               -0.10409931                0.01937759                0.21169260                0.28024185                0.06380485                0.19266435
               3.99888336                2.01203756               73.15714724                0.01000000               -0.20261407                0.07683956                0.21105799                0.27132409               -0.09798398                0.32595543
               4.99633080                2.01348984               73.15498442                0.01000001               -0.19278918                0.04496136                0.20802373                0.24431030               -0.18553121                0.37728830
               5.99502758                2.01559400               73.15386312                0.01131369               -0.09755890                0.07158587                0.20626254                0.28648790               -0.09095985                0.53235482
               6.99437963                2.01831564               73.15365838                0.01577761               -0.06424647               -0.03334671                0.20659093                0.28649606               -0.04429416                0.47403381
               7.99374265                2.02107291               73.15346989                0.01000000               -0.06323555               -0.00161522                0.20710751                0.25762106               -0.04000502                0.64074027
               8.99311491                2.02383986               73.15335058                0.05584355               -0.06275535                0.02350621                0.20805352                0.18358910               -0.02421813                0.38387432
               9.99248754                2.02658622               73.15347907                0.56103540               -0.06273731               -0.17653791                0.21018763                0.18210623               -0.01194870                0.38910955
               0.00136629                3.00447597               73.15513085                0.51009073               -0.06264639               -0.04234093                0.20948600               -0.00083137               -0.00151500                0.01096106
               1.00073983                3.00459265               73.15501634                0.01000000               -0.01026969               -0.08399558                0.20887038                0.10394941                0.08939735               -0.00814459
               2.00116090                3.00681784               73.15671750                0.01000000                0.01983536               -0.10523704                0.21146744                0.28138239                0.18711298                0.06848596
               3.00113653                3.00958356               73.15851881                0.01000000               -0.01348497               -0.01177150                0.21584226                0.39940986                0.21925996                0.22530270
               4.00089120                3.01281157               73.16085996                0.01203929               -0.06089887                0.01368878                0.22369876                0.39603791                0.16017185                0.33930976
               4.99991856                3.01455577               73.16150823                0.01000000               -0.10582752                0.09258732                0.22617248                0.50264315                0.17492217                0.67710566
               5.99877465                3.01767126               73.16419782                0.01832265               -0.12408070                0.07513047                0.23746304                0.45886352                0.05834459                0.72270766
               6.99743694                3.01827422               73.16259851                0.01000000               -0.13110467               -0.00815803                0.23722572                0.45804695                0.06741247                0.82929454
               7.99615255                3.02166695               73.16550694                0.01594426               -0.17015908                0.05549989                0.25927909                0.60849589               -0.13394990                1.13689383
               8.99403376                3.02494027               73.15996037                0.03653960               -0.13870319               -0.06116625                0.28096683                0.49038491               -0.29290909                1.79654411
               9.99337849                3.02369702               73.15972902                0.54574324               -0.06552712               -0.22847368                0.28075755                0.26908627               -0.01560179                1.75370578
               0.00144807                4.00402813               73.15512777                0.54780857               -0.06302499               -0.04765744                0.21159479               -0.00144717               -0.00123752                0.01365259
               1.00081783                4.00377426               73.15489973                0.01029647                0.00770047               -0.07930904                0.20955930                0.08717449                0.11819671               -0.01179316
               2.00160208                4.00530124               73.15705845                0.01000000                0.07798623               -0.20592089                0.21067526                0.27432877                0.31930029               -0.08964847
               3.00237755                4.00936863               73.16081629                0.01205196                0.01149109               -0.05786140                0.22340799                0.40048528                0.33161015                0.16577392
               4.00183191                4.01231134               73.16313775                0.01000000               -0.04267870               -0.03684671                0.22961778                0.39911981                0.36019855                0.36617448
               5.00152398                4.01534159               73.16752958                0.01821497               -0.06727512                0.00367932                0.24262797                0.35142903                0.21386373                0.39638888
               6.00048640                4.01709661               73.16697157                0.01000001               -0.09895507               -0.06075033                0.24266119                0.27234680                0.07816221                0.42142613
               6.99954487                4.01815248               73.16873443                0.01251470               -0.06199439                0.03103240                0.24763731                0.45118921                0.37959006                0.89191845
               7.99924652                4.02218291               73.17431297                0.01251545                0.06738335               -0.07281635                0.25555314                0.52634488                0.91393794                1.25040537
               9.00089254                4.02261653               73.18683778                0.08908665                0.05546204               -0.18716687                0.22604765                0.36265221                0.64011733                1.48226068
              10.00035576                4.02201675               73.18667764                0.57224573               -0.05367845               -0.09924390                0.22713306                0.30783590                0.01176272                1.46014299
               0.00184510                5.00352282               73.15513230                0.59905831               -0.06348933               -0.05304077                0.21372332               -0.00128222               -0.00102650                0.01488140
               1.00121020                5.00300647               73.15476588                0.02410613               -0.03960017               -0.07457709                0.21018439                0.00872280                0.02499406               -0.01414463
               2.00105309                5.00269942               73.15491871                0.01000001                0.04629697               -0.19637155                0.20639368                0.24934079                0.36870049               -0.17587038
               3.00213614                5.00842633               73.16140690                0.01000000                0.09237739               -0.10129860                0.22559000                0.51711871                0.66267334                0.17815050
               4.00290064                5.01207464               73.16745135                0.01821078                0.00128635               -0.06238061                0.24244216                0.35643475                0.38783212                0.21887712
               5.00216187                5.01462936               73.16842502                0.01000001               -0.07449772               -0.07091197                0.24446884                0.24741578                0.23001167                0.23509299
               6.00141069                5.01645626               73.17138684                0.01247663               -0.03937216               -0.02077488                0.25156370                0.30095011                0.55913398                0.70783059
               7.00137443                5.01889487               73.17902448                0.01122611                0.04023567                0.01738770                0.26096145                0.32633754                0.89700446                1.06434222
               8.00221540                5.02021062               73.18874226                0.07579694                0.00392679               -0.13806616                0.24409795                0.23129358                0.49811395                0.75755654
               9.00145296                5.02119693               73.18826035                0.16080799               -0.07403119               -0.11584600                0.24174365                0.07270674               -0.00642537                0.11547723
              10.00073478                5.02171215               73.18787841                0.60957891               -0.07181862               -0.04551109                0.24149921                0.03926151               -0.00018812                0.10183051
               0.00245513                6.00296732               73.15513805                0.66552459               -0.06394535               -0.05754023                0.21579188               -0.00098155               -0.00095339                0.01521554
               1.00181568                6.00228271               73.15462098                0.10847303               -0.06430486               -0.07066741                0.21082989               -0.01268524               -0.01671632               -0.01534745
               2.00116904                6.00137381               73.15378856                0.01131001                0.07645141               -0.09857517                0.20368988                0.29683810                0.52021667               -0.08483613
               3.00334471                6.00734266               73.16400536                0.01832120                0.07942685               -0.12125975                0.23646631                0.47573188                0.70386023                0.06243827
               4.00275757                6.01106373               73.16683271                0.01000001               -0.06270175               -0.09527162                0.24210590                0.27804599                0.41099033                0.08121851
               5.00209067                6.01392335               73.17129538                0.01247966               -0.02588366               -0.03158467                0.25157235                0.30491239                0.69965048                0.55769301
               6.00223990                6.01668111               73.17998541                0.01129797                0.01132911                0.01756699                0.26332602                0.27079622                0.90988689                0.90797493
               7.00231726                6.01850024               73.18868714                0.07582205               -0.03347887               -0.05724771                0.24663728                0.14318220                0.45725028                0.51108727
               8.00157032                6.01942158               73.18839019                0.15956269               -0.07360498               -0.07805546                0.24601967                0.01674354                0.00375891                0.00995299
               9.00084516                6.02029961               73.18801025                0.27130967               -0.07298823               -0.08339247                0.24541747                0.01228441                0.00028191                0.01762943
              10.00011056                6.02110653               73.18762726                0.67327398               -0.07345977               -0.06572259                0.24502212                0.00767671                0.00074630                0.01878094
               0.00319467                7.00237201               73.15514420                0.75017165               -0.06446670               -0.06110694                0.21780650               -0.00066402               -0.00130324                0.01538412
               1.00255000                7.00159312               73.15447062                0.21945568               -0.06323808               -0.06770701                0.21157255               -0.00537977               -0.01428760               -0.01555038
               2.00192991                7.00072792               73.15353640                0.01577047               -0.02945681               -0.06396541                0.20392203                0.29852609                0.46102904               -0.04013226
               3.00196086                7.00600114               73.16236742                0.01000000               -0.00245153               -0.12930368                0.23585398                0.48141635                0.80567777                0.06868587
               4.00188088                7.01016920               73.16848017                0.01251179                0.03409354               -0.05344573                0.24664625                0.46839411                0.87178744                0.37482182
               5.00264274                7.01399767               73.17872679                0.01122993                0.01844228                0.05002936                0.26141085                0.33801597                1.04899560                0.88024964
               6.00224972                7.01680759               73.18844977                0.07581948               -0.05725697               -0.03127071                0.24760896                0.14627696                0.50991399                0.44877227
               7.00149760                7.01774991               73.18820442                0.15977108               -0.07494140               -0.07489719                0.24734717                0.00797983                0.00744743                0.00056302
               8.00075089                7.01864952               73.18786790                0.27168629               -0.07419449               -0.07615015                0.24695966                0.00453811                0.00248827                0.00004427
               9.00001371                7.01952908               73.18751223                0.42591190               -0.07382056               -0.07586620                0.24653595                0.00209139                0.00123230                0.00277475
               9.99927448                7.02039769               73.18713977                0.76418491               -0.07392242               -0.07208085                0.24615268                0.00121869                0.00078249                0.00502977
               0.00399964                8.00174518               73.15515466                0.85715605               -0.06474611               -0.06392472                0.21979298               -0.00025201               -0.00184597                0.01643661
               1.00335218                8.00092857               73.15432326                0.36624426               -0.06340510               -0.06566819                0.21248927               -0.00154988               -0.01181988               -0.01494029
               2.00273154                8.00009450               73.15329950                0.01000000                0.00897831               -0.06272180                0.20429687                0.27222013                0.62154373               -0.03638676
               3.00353175                8.00475659               73.16512782                0.01594793                0.06986926               -0.17058034                0.25719758                0.64129987                1.10409323               -0.12274592
               4.00412893                8.00999481               73.17384531                0.01252052               -0.06595731                0.07816152                0.25506221                0.55845979                1.21728771                0.88633173
               5.00221260                8.01492393               73.18805863                0.07577616               -0.13578659                0.00750958                0.24691524                0.24297093                0.74037604                0.48265056
               6.00141319                8.01605570               73.18793994                0.15953390               -0.07888354               -0.07417743                0.24789610                0.01783176                0.01497903               -0.00198171
               7.00063493                8.01700229               73.18764632                0.27165906               -0.07656395               -0.07442638                0.24786989                0.00473573                0.00446837               -0.00249342
               7.99988192                8.01789858               73.18731347                0.42622620               -0.07480626               -0.07476049                0.24752528                0.00137258                0.00207362               -0.00146324
               8.99913881                8.01878229               73.18696456                0.64873945               -0.07421037               -0.07448047                0.24709776                0.00034068                0.00098440               -0.00014052
               9.99839771                8.01966491               73.18660281                0.89771262               -0.07410980               -0.07361083                0.24672564                0.00014248                0.00058701                0.00206581
               0.00482283                9.00109352               73.15518203                0.99241729               -0.06531577               -0.06593939                0.22185770                0.00013355               -0.00281806                0.01422610
               1.00416968                9.00027976               73.15418677                0.56296815               -0.06382697               -0.06463112                0.21358991               -0.00002991               -0.00624565               -0.01121789
               2.00354629                8.99947348               73.15312376                0.05614917                0.03584389               -0.06201885                0.20517814                0.19569135                0.37444646               -0.02208506
               3.00488655                9.00258953               73.15974365                0.03684530               -0.03317839               -0.14603186                0.27511232                0.51133469                1.73694261               -0.27853120
               4.00288273                9.01173243               73.18580939                0.08927109               -0.17226406                0.05779834                0.23046045                0.39147148                1.43069558                0.61645398
               5.00144127                9.01414786               73.18741420                0.16079766               -0.11773640               -0.07555738                0.24536798                0.07701796                0.11518123               -0.00894448
               6.00052800                9.01532405               73.18737747                0.27121446               -0.08459234               -0.07383973                0.24813809                0.01317443                0.01878636               -0.00233019
               6.99974943                9.01626138               73.18709128                0.42575192               -0.07648250               -0.07435635                0.24834357                0.00224089                0.00374576               -0.00121385
               7.99899835                9.01715431               73.18675349                0.64855673               -0.07476177               -0.07447346                0.24800338                0.00036482                0.00078466               -0.00095824
               8.99825419                9.01803947               73.18640275                0.98914773               -0.07431291               -0.07431758                0.24753953                0.00000996                0.00029323               -0.00053887
               9.99751209                9.01892548               73.18605061                1.00000000               -0.07421000               -0.07407398                0.24715907               -0.00006855                0.00034522                0.00103481
               0.00562984               10.00042639               73.15515002                0.99416741               -0.06582201               -0.06671312                0.22359200                0.00165721                0.00840837                0.01107917
               1.00497162                9.99963595               73.15411464                0.84760002               -0.06471245               -0.06438041                0.21508872                0.00158163                0.01299630               -0.00807255
               2.00433559                9.99885413               73.15317410                0.56129442               -0.17360671               -0.06193535                0.20744917                0.18892999                0.37705496               -0.01083821
               3.00149949               10.00183595               73.15942346                0.54605668               -0.19677831               -0.07535780                0.27520431                0.27612612                1.69142366               -0.01448460
               4.00040003               10.01115078               73.18554264                0.57243149               -0.06690693               -0.05816543                0.23228016                0.33057189                1.40434072                0.01068389
               5.00016135               10.01341279               73.18690585                0.60956939               -0.04184352               -0.07350710                0.24588320                0.04341379                0.09721692               -0.00093478
               5.99956316               10.01457890               73.18684429                0.67320217               -0.06559302               -0.07451451                0.24854123                0.00863486                0.01566523               -0.00026464
               6.99884949               10.01551517               73.18654800                0.76404711               -0.07260167               -0.07462177                0.24880075                0.00151692                0.00199229               -0.00024427
               7.99811112               10.01640911               73.18620205                0.89753386               -0.07408276               -0.07451939                0.24850176                0.00031616               -0.00090310               -0.00029370
               8.99736783               10.01729594               73.18584252                1.00000000               -0.07433983               -0.07435333                0.24806203                0.00008039               -0.00108600               -0.00034037
               9.99662433               10.01818343               73.18549061                0.99472762               -0.07435069               -0.07420453                0.24768565               -0.00002699               -0.00071983                0.00063241
               0.00347255                0.00595544               74.15730466                0.79481263               -0.05837026               -0.05839755                0.20386667                0.00112829                0.00054964               -0.00021928
               1.00288885                0.00697389               74.15731611                0.53821040               -0.04944791               -0.06447759                0.20524588                0.00812295                0.00276958               -0.00020645
               2.00248359                0.00825420               74.15736098                0.48994666               -0.03906442               -0.06151699                0.20688917                0.00323017                0.00846018               -0.00148642
               3.00210756                0.01002837               74.15743185                0.51043062               -0.04062964               -0.06252975                0.20888833               -0.00059953                0.01324474               -0.00168237
               4.00167100                0.01224991               74.15751962                0.54812233               -0.04699342               -0.06293514                0.21100960               -0.00122232                0.01613552               -0.00136213
               5.00116769                0.01479999               74.15761592                0.59933195               -0.05311219               -0.06343548                0.21311317               -0.00100312                0.01738202               -0.00111329
               6.00060876                0.01756187               74.15771388                0.66571005               -0.05801207               -0.06392867                0.21511307               -0.00067293                0.01766079               -0.00104580
               7.00000745                0.02044419               74.15781253                0.75019426               -0.06166452               -0.06442298                0.21703851               -0.00033676                0.01787135               -0.00136652
               7.99937547                0.02338056               74.15791740                0.85700945               -0.06424269               -0.06488659                0.21895038               -0.00003922                0.01879849               -0.00203058
               8.99872260                0.02632716               74.15803891                0.99208478               -0.06589670               -0.06534351                0.22094364                0.00018129                0.01614685               -0.00312412
               9.99805753                0.02926069               74.15809392                0.99370262               -0.06650643               -0.06591339                0.22272215                0.00130563                0.01273406                0.00971965
               0.00246538                1.00537146               74.15724921                0.53820716               -0.06446890               -0.04947289                0.20531440                0.00806023               -0.00079670                0.00175007
               1.00182070                1.00632911               74.15725328                0.01060345               -0.07383652               -0.07390631                0.20660861                0.02410968               -0.00174697               -0.00043610
               2.00098865                1.00763903               74.15724287                0.01000000               -0.08584923               -0.03663417                0.20789627                0.07912890               -0.00620897                0.04080357
               3.00010371                1.00940307               74.15721039                0.01000000               -0.08578435               -0.00994590                0.20895985                0.11255033               -0.01130879                0.09305740
               3.99927297                1.01162056               74.15715593                0.01051232               -0.08010141                0.00743170                0.20986995                0.09382001               -0.01513200                0.12164871
               4.99850168                1.01416563               74.15708434                0.02411875               -0.07465187               -0.03955748                0.21070429                0.01211553               -0.01744998                0.02429366
               5.99777993                1.01692258               74.15700277                0.10825572               -0.07034720               -0.06410831                0.21155191               -0.01032306               -0.01848808               -0.01934360
               6.99709474                1.01979996               74.15691719                0.21885199               -0.06731704               -0.06344142                0.21250259               -0.00390284               -0.01840492               -0.01625376
               7.99643359                1.02273169               74.15683746                0.36507183               -0.06551968               -0.06379371                0.21360247               -0.00091867               -0.01727966               -0.01283980
               8.99578434                1.02567372               74.15677302                0.56091524               -0.06482655               -0.06424965                0.21485561                0.00009797               -0.01284613               -0.00688906
               9.99513706                1.02860156               74.15678225                0.84627719               -0.06472870               -0.06515393                0.21643818                0.00119809               -0.00928193                0.01524416
               0.00171846                2.00496598               74.15722221                0.48996610               -0.06149861               -0.03895662                0.20715215                0.00311498               -0.00149752                0.00736879
               1.00110347                2.00549576               74.15719038                0.01000000               -0.03631230               -0.08610969                0.20770571                0.07889157                0.03910320               -0.00426263
               2.00099221                2.00752152               74.15796548                0.01000001               -0.03632155               -0.03692052                0.20912616                0.23137679                0.08675691                0.09019667
               3.00037704                2.00982945               74.15888085                0.01000000               -0.11036867                0.02030916                0.21102487                0.30163452                0.06306489                0.19557112
               3.99878484                2.01239855               74.15925019                0.01000000               -0.21345292                0.07967616                0.20962003                0.29528929               -0.10195928                0.33380779
               4.99610798                2.01400884               74.15705958                0.01000001               -0.20084312                0.04485955                0.20818902                0.26890079               -0.18999054                0.38775704
               5.99476797                2.01627970               74.15592514                0.01126722               -0.09938486                0.07167706                0.20626682                0.30991489               -0.09400362                0.54956161
               6.99412028                2.01917536               74.15572427                0.01565947               -0.06423238               -0.03773775                0.20677704                0.30936626               -0.04636967                0.49180376
               7.99348333                2.02210468               74.15554219                0.01000000               -0.06327948               -0.00476553                0.20750711                0.27812934               -0.04177503                0.67042063
               8.99285469                2.02504216               74.15543341                0.05596187               -0.06287488                0.02537537                0.20864291                0.20292830               -0.02527734                0.42519457
               9.99222583                2.02795761               74.15558361                0.56138012               -0.06288645               -0.19814511                0.21082708                0.20787251               -0.01251577                0.43033891
               0.00146812                3.00459233               74.15722477                0.51041066               -0.06251346               -0.04027707                0.20927740               -0.00078138               -0.00165191                0.01229224
               1.00084299                3.00460692               74.15710370                0.01000000               -0.00928108               -0.08625720                0.20860163                0.11246057                0.09083376               -0.00947987
               2.00128250                3.00690062               74.15882941                0.01000000                0.02081942               -0.11149334                0.21076391                0.30273108                0.19088371                0.06703586
               3.00125937                3.00980925               74.16067484                0.01000000               -0.01415679               -0.01251415                0.21515687                0.42990332                0.22597727                0.23093150
               4.00099936                3.01321408               74.16310155                0.01206484               -0.06304164                0.01409716                0.22442125                0.42767242                0.16605323                0.35028228
               4.99999854                3.01506283               74.16377720                0.01000000               -0.10938266                0.09220538                0.22726842                0.53925793                0.18234993                0.69683453
               5.99881171                3.01835612               74.16658596                0.01833127               -0.12707295                0.07226415                0.24018497                0.49417369                0.06426959                0.74387351
               6.99745708                3.01904520               74.16498856                0.01000000               -0.13411706               -0.01522910                0.24080573                0.49144776                0.07925693                0.85350764
               7.99612937                3.02263638               74.16812941                0.01619390               -0.17335486                0.04881020                0.26562118                0.64899322               -0.11150160                1.16601711
               8.99398998                3.02618123               74.16281239                0.03819147               -0.13328759               -0.08734802                0.28967053                0.51253739               -0.28232072                1.80788598
               9.99346362                3.02463865               74.16257935                0.54718556               -0.05263681               -0.27080859                0.28960065                0.26595872               -0.01378143                1.76168752
               0.00167365                4.00416044               74.15724349                0.54810359               -0.06292644               -0.04647727                0.21152827               -0.00144243               -0.00130879                0.01509991
               1.00104439                4.00377062               74.15699420                0.01048534                0.00854210               -0.08067905                0.20934986                0.09364584                0.11943774               -0.01337707
               2.00184449                4.00529165               74.15915759                0.01000000                0.08086283               -0.21690440                0.20932574                0.29817548                0.32809765               -0.09471186
               3.00266164                4.00957917               74.16305302                0.01207144                0.01201099               -0.05997042                0.22388113                0.43185230                0.34339953                0.17044837
               4.00208471                4.01268049               74.16544099                0.01000000               -0.04552724               -0.03991070                0.23068839                0.42763782                0.37166113                0.37653427
               5.00175110                4.01585295               74.16996904                0.01824464               -0.07078204                0.00186690                0.24526317                0.37737709                0.22176044                0.40695616
               6.00066907                4.01772499               74.16941410                0.01000001               -0.10410595               -0.06614390                0.24577775                0.29570273                0.08148862                0.43026001
               6.99966898                4.01887078               74.17122873                0.01260584               -0.06709549                0.02610473                0.25137139                0.47844643                0.38575611                0.90600633
               7.99932716                4.02308089               74.17688123                0.01274786                0.07170953               -0.09459779                0.25835718                0.54367879                0.89981436                1.24329072
               9.00110317                4.02329520               74.18907571                0.08995645                0.06514974               -0.22085439                0.22116435                0.36457615                0.62222964                1.46113353
              10.00063016                4.02254144               74.18892913                0.57292140               -0.04730130               -0.11930802                0.22288405                0.30725428                0.01220634                1.43734998
               0.00221891                5.00366278               74.15726987                0.59929872               -0.06342264               -0.05255180                0.21376562               -0.00123523               -0.00104769                0.01624668
               1.00158469                5.00299333               74.15686675                0.02417028               -0.03907285               -0.07522862                0.21002872                0.01018014                0.02493124               -0.01577089
               2.00143746                5.00256253               74.15698191                0.01000001                0.04614481               -0.20445315                0.20635419                0.27382970                0.38035156               -0.18178558
               3.00250758                5.00860985               74.16366745                0.01000000                0.09204412               -0.10481970                0.22653798                0.55361878                0.68377867                0.18472411
               4.00327834                5.01241587               74.16988740                0.01823963               -0.00029984               -0.06600726                0.24505791                0.38208717                0.39970315                0.22558059
               5.00250159                5.01510016               74.17088348                0.01000001               -0.07852012               -0.07516534                0.24741108                0.26938304                0.23654364                0.24048272
               6.00170794                5.01703325               74.17392008                0.01260232               -0.04157391               -0.02472692                0.25549445                0.32234866                0.56871292                0.71931106
               7.00167011                5.01956730               74.18164938                0.01146058                0.04352896                0.00735245                0.26406678                0.33651397                0.89233095                1.06355872
               8.00257852                5.02074443               74.19116895                0.07614099                0.00754248               -0.15628505                0.24100350                0.24086021                0.48676348                0.75071608
               9.00182096                5.02176414               74.19066417                0.16137107               -0.07311409               -0.12240276                0.23883494                0.08180550               -0.00778542                0.12536609
              10.00111623                5.02225249               74.19028188                0.60993012               -0.07047237               -0.04403386                0.23906645                0.04248943               -0.00015105                0.11055730
               0.00298784                6.00310940               74.15729692                0.66565704               -0.06396033               -0.05753471                0.21593354               -0.00096280               -0.00096270                0.01642648
               1.00234824                6.00226604               74.15672848                0.10829534               -0.06416324               -0.07085193                0.21074243               -0.01240821               -0.01775921               -0.01687259
               2.00170458                6.00120259               74.15582365                0.01126559                0.07662228               -0.10023581                0.20367211                0.32009880                0.53906459               -0.08888391
               3.00388068                6.00748277               74.16638581                0.01832846                0.07657809               -0.12427678                0.23947679                0.51101200                0.72735162                0.06759054
               4.00323614                6.01136034               74.16926848                0.01000001               -0.06796500               -0.10047516                0.24518187                0.30126841                0.42134686                0.08342078
               5.00252138                6.01434964               74.17382853                0.01261284               -0.02936125               -0.03430577                0.25528538                0.32619082                0.71252678                0.56627745
               6.00264891                6.01723045               74.18263299                0.01154724                0.00833476                0.01407384                0.26668747                0.27855327                0.90741813                0.90501398
               7.00268808                6.01901782               74.19114023                0.07622041               -0.03506963               -0.06471703                0.24379847                0.14593612                0.44720319                0.50203805
               8.00194752                6.01995519               74.19083888                0.16011019               -0.07284323               -0.07795241                0.24356310                0.01870744                0.00332859                0.01077446
               9.00123121                6.02084715               74.19045496                0.27199589               -0.07221377               -0.08436662                0.24338205                0.01382831                0.00011042                0.01955533
              10.00050325                6.02166076               74.19007006                0.67364707               -0.07279688               -0.06475027                0.24343519                0.00839305                0.00078800                0.02062274
               0.00388637                7.00251209               74.15732384                0.75015483               -0.06430378               -0.06120152                0.21803141               -0.00053715               -0.00124660                0.01652795
               1.00324333                7.00157630               74.15658571                0.21898772               -0.06318349               -0.06775683                0.21156107               -0.00546278               -0.01489716               -0.01686343
               2.00262270                7.00055782               74.15557485                0.01565449               -0.03366329               -0.06398547                0.20396888                0.32118911                0.48049734               -0.04259191
               3.00257007                7.00612431               74.16474321                0.01000000               -0.00929313               -0.13232487                0.23949206                0.51468172                0.83211823                0.07938190
               4.00243684                7.01040637               74.17096485                0.01260313                0.02926155               -0.05898990                0.25029163                0.49520432                0.88780220                0.38021172
               5.00315530                7.01441405               74.18135316                0.01145559                0.00869894                0.05265571                0.26426511                0.34785526                1.04995034                0.87591766
               6.00261082                7.01731472               74.19091271                0.07622997               -0.06456045               -0.03306068                0.24472881                0.14901783                0.50161402                0.43887442
               7.00186409                7.01827296               74.19066678                0.16037269               -0.07437391               -0.07432580                0.24496490                0.00883920                0.00729284                0.00054558
               8.00112334                7.01918538               74.19032824                0.27247720               -0.07360702               -0.07583564                0.24499625                0.00507247                0.00234196                0.00019282
               9.00039195                7.02007681               74.18997043                0.42677831               -0.07332348               -0.07571182                0.24501471                0.00233448                0.00118199                0.00302679
               9.99965687                7.02095749               74.18959622                0.76460300               -0.07350794               -0.07166246                0.24508505                0.00126858                0.00080637                0.00532535
               0.00484868                8.00188537               74.15735578                0.85693059               -0.06554288               -0.06394972                0.22019550               -0.00022135               -0.00185611                0.01730428
               1.00419325                8.00091091               74.15644782                0.36523586               -0.06341684               -0.06572195                0.21258255               -0.00138753               -0.01180004               -0.01586070
               2.00358034                7.99992288               74.15534193                0.01000000                0.00662582               -0.06285613                0.20448104                0.29277787                0.65284120               -0.03838947
               3.00432577                8.00483628               74.16772879                0.01619885                0.06350708               -0.17371516                0.26370250                0.68134814                1.13575848               -0.10286751
               4.00485049                8.01018055               74.17640804                0.01275375               -0.08778183                0.08151560                0.25768266                0.57473010                1.21375974                0.87394333
               5.00257013                8.01540276               74.19051425                0.07613202               -0.15400617                0.01086539                0.24385804                0.25227562                0.73561153                0.47229618
               6.00177036                8.01656923               74.19040744                0.16008756               -0.07879628               -0.07341557                0.24543588                0.01983480                0.01568496               -0.00233004
               7.00099421                8.01753131               74.19011600                0.27245022               -0.07626235               -0.07384033                0.24592935                0.00528106                0.00453640               -0.00255404
               8.00024512                8.01843847               74.18978171                0.42716939               -0.07442063               -0.07437021                0.24602123                0.00152324                0.00197149               -0.00150026
               8.99950579                8.01933291               74.18943048                0.64954406               -0.07389269               -0.07421583                0.24602881                0.00037478                0.00092040               -0.00021044
               9.99876726                8.02022751               74.18906707                0.89801125               -0.07385324               -0.07341036                0.24611168                0.00009282                0.00058134                0.00201366
               0.00583087                9.00123309               74.15740264                0.99198223               -0.06527978               -0.06607436                0.22215650                0.00020174               -0.00287031                0.01483515
               1.00517807                9.00026186               74.15632376                0.56115548               -0.06389909               -0.06468035                0.21390664                0.00047771               -0.00634651               -0.01179643
               2.00455289                8.99930069               74.15517702                0.05627188                0.03806453               -0.06211430                0.20567798                0.21524696                0.41538734               -0.02320573
               3.00593936                9.00265001               74.16253604                0.03848660               -0.05939638               -0.14083921                0.28391020                0.53261403                1.75355128               -0.27014979
               4.00336496                9.01203668               74.18809200                0.09013734               -0.20636205                0.06685086                0.22566166                0.39179385                1.41523277                0.60078017
               5.00181212                9.01463136               74.18985447                0.16136268               -0.12430007               -0.07466211                0.24249027                0.08618794                0.12508560               -0.01029601
               6.00087896                9.01584641               74.18984945                0.27189323               -0.08558266               -0.07307402                0.24612880                0.01474520                0.02069164               -0.00246726
               7.00010047                9.01679615               74.18956766                0.42661182               -0.07633801               -0.07386607                0.24684656                0.00248956                0.00398732               -0.00122784
               7.99935220                9.01769797               74.18922857                0.64935572               -0.07450314               -0.07416035                0.24695208                0.00040264                0.00070228               -0.00098747
               8.99861041                9.01859249               74.18887514                0.98911221               -0.07413362               -0.07413791                0.24691704                0.00000980                0.00021154               -0.00060457
               9.99786953                9.01948928               74.18852125                1.00000000               -0.07408795               -0.07402572                0.24698976               -0.00013844                0.00031261                0.00096057
               0.00679519               10.00056388               74.15738843                0.99370828               -0.06599836               -0.06692110                0.22398276                0.00177348                0.00892122                0.01169004
               1.00613521                9.99961730               74.15626748                0.84640218               -0.06490273               -0.06445577                0.21555418                0.00154875                0.01396841               -0.00852947
               2.00549713                9.99868059               74.15525010                0.56163507               -0.19465695               -0.06201016                0.20797396                0.21453413                0.41809149               -0.01149567
               3.00224207               10.00201949               74.16221724                0.54748647               -0.23960603               -0.06305149                0.28412318                0.27211872                1.70526465               -0.01267253
               4.00070501               10.01151756               74.18784601                0.57310093               -0.08789538               -0.05191154                0.22808560                0.32850627                1.38754355                0.01120200
               5.00048416               10.01390951               74.18935332                0.60992269               -0.04022698               -0.07218433                0.24347662                0.04671309                0.10604433               -0.00089044
               5.99990047               10.01510775               74.18932239                0.67356735               -0.06458617               -0.07386576                0.24699019                0.00937510                0.01756587               -0.00020817
               6.99919244               10.01605399               74.18903103                0.76446854               -0.07218248               -0.07421617                0.24776202                0.00157226                0.00234843               -0.00020632
               7.99845682               10.01695527               74.18868422                0.89782243               -0.07388756               -0.07427063                0.24791528                0.00027083               -0.00089593               -0.00028388
               8.99771468               10.01785015               74.18832228                1.00000000               -0.07429524               -0.07423383                0.24790702                0.00001424               -0.00112076               -0.00035870
               9.99697092               10.01874700               74.18796866                0.99492540               -0.07437646               -0.07422819                0.24798416               -0.00017647               -0.00074162                0.00058603
               0.00345936                0.00600187               75.15934048                0.79507092               -0.05779977               -0.05782649                0.20329480                0.00128172                0.00047886               -0.00013350
               1.00288136                0.00702722               75.15936614                0.53862927               -0.04773085               -0.06472965                0.20476419                0.00931566                0.00289322               -0.00033248
               2.00250474                0.00835162               75.15942818                0.49031810               -0.03626392               -0.06125320                0.20654316                0.00371532                0.00920453               -0.00165147
               3.00215608                0.01023197               75.15951972                0.51074279               -0.03844158               -0.06238154                0.20869439               -0.00051683                0.01441468               -0.00181698
               4.00173591                0.01260537               75.15962924                0.54843899               -0.04582304               -0.06281833                0.21094082               -0.00117802                0.01737218               -0.00141861
               5.00123962                0.01533243               75.15974706                0.59958233               -0.05271050               -0.06336745                0.21313433               -0.00091459                0.01845410               -0.00111929
               6.00068170                0.01828044               75.15986528                0.66586114               -0.05805842               -0.06390243                0.21518347               -0.00055170                0.01849443               -0.00102522
               7.00007845                0.02134865               75.15998348                0.75020595               -0.06188908               -0.06443190                0.21713240               -0.00020479                0.01852239               -0.00135420
               7.99944392                0.02446696               75.16010765                0.85679547               -0.06445437               -0.06492929                0.21905426                0.00007149                0.01938792               -0.00204515
               8.99878937                0.02759207               75.16024919                0.99164336               -0.06601783               -0.06541989                0.22104830                0.00024222                0.01666462               -0.00318895
               9.99812356                0.03070337               75.16032247                1.00000000               -0.06658040               -0.06603887                0.22291811                0.00127518                0.01319338                0.01010764
               0.00244683                1.00542360               75.15929995                0.53864509               -0.06471892               -0.04775501                0.20482867                0.00925199               -0.00081393                0.00208702
               1.00179964                1.00637992               75.15931734                0.01056501               -0.07536576               -0.07543634                0.20620411                0.02768105               -0.00181178               -0.00074821
               2.00093951                1.00773909               75.15932027                0.01000000               -0.08878004               -0.03641228                0.20757388                0.08667587               -0.00675351                0.04065267
               3.00002404                1.00960816               75.15929875                0.01000000               -0.08828061               -0.00904678                0.20871540                0.12208444               -0.01237196                0.09380037
               3.99917390                1.01197719               75.15925360                0.01070301               -0.08155491                0.00813645                0.20969102                0.10100634               -0.01644872                0.12178782
               4.99839294                1.01469875               75.15919071                0.02421558               -0.07529149               -0.03901544                0.21060103                0.01403254               -0.01879364                0.02464542
               5.99766807                1.01764141               75.15911801                0.10807521               -0.07048988               -0.06391998                0.21154293               -0.00966563               -0.01969125               -0.02011280
               6.99698314                1.02070433               75.15904265                0.21826661               -0.06725745               -0.06341503                0.21262170               -0.00335108               -0.01938302               -0.01675617
               7.99632292                1.02381767               75.15897470                0.36393255               -0.06547808               -0.06387956                0.21388055               -0.00061815               -0.01804515               -0.01316939
               8.99567358                1.02693787               75.15892356                0.55892871               -0.06489569               -0.06438412                0.21530356                0.00019514               -0.01336767               -0.00698882
               9.99502501                1.03004298               75.15894925                0.84499538               -0.06485725               -0.06537378                0.21701952                0.00117457               -0.00967211                0.01596098
               0.00173177                2.00504677               75.15929188                0.49032993               -0.06122743               -0.03615392                0.20678383                0.00359976               -0.00165851                0.00836218
               1.00111950                2.00551849               75.15926575                0.01000000               -0.03608759               -0.08903449                0.20737757                0.08644151                0.03928624               -0.00517027
               2.00101002                2.00762338               75.16005279                0.01000001               -0.03799107               -0.03863224                0.20812558                0.25002362                0.08728820                0.09005540
               3.00035967                2.01005104               75.16098691                0.01000000               -0.11722883                0.02109260                0.20983781                0.32523103                0.06186280                0.19806358
               3.99866544                2.01276810               75.16133964                0.01000000               -0.22518143                0.08246174                0.20851419                0.32185394               -0.10505947                0.34215360
               4.99585605                2.01455212               75.15914820                0.01000001               -0.20913149                0.04421236                0.20844749                0.29610700               -0.19390234                0.39868969
               5.99448281                2.01700204               75.15798846                0.01120383               -0.10104339                0.07091768                0.20650407                0.33544138               -0.09747489                0.56830139
               6.99383518                2.02008035               75.15779392                0.01551960               -0.06423976               -0.04322070                0.20728024                0.33414079               -0.04815780                0.51137083
               7.99319802                2.02318937               75.15762004                0.01000000               -0.06336121               -0.00847056                0.20820583                0.29999043               -0.04327566                0.70328054
               8.99256795                2.02630439               75.15752343                0.05619291               -0.06305954                0.02589054                0.20955682                0.22351747               -0.02616154                0.47057267
               9.99193683                2.02939590               75.15769562                0.56184751               -0.06311278               -0.22288685                0.21176111                0.23634726               -0.01301205                0.47552648
               0.00157539                3.00470053               75.15931640                0.51077340               -0.06235236               -0.03808719                0.20904438               -0.00069401               -0.00178758                0.01370135
               1.00095186                3.00459923               75.15918837                0.01000000               -0.00839753               -0.08874096                0.20834646                0.12194525                0.09199906               -0.01087886
               2.00140744                3.00696645               75.16093278                0.01000000                0.02160372               -0.11844379                0.20964741                0.32629888                0.19426874                0.06531094
               3.00138394                3.01003001               75.16282195                0.01000000               -0.01487683               -0.01330240                0.21389139                0.46312247                0.23322576                0.23716467
               4.00110990                3.01362642               75.16534839                0.01210297               -0.06513977                0.01440398                0.22436502                0.46183299                0.17257099                0.36213439
               5.00008114                3.01558300               75.16605360                0.01000000               -0.11306139                0.09111554                0.22778392                0.57816839                0.19083414                0.71702958
               5.99884867                3.01905977               75.16900152                0.01833783               -0.13012565                0.06828252                0.24294168                0.53152963                0.07142511                0.76639820
               6.99747863                3.01983992               75.16741463                0.01000000               -0.13749883               -0.02342782                0.24453619                0.52730897                0.09308102                0.87907753
               7.99609870                3.02364826               75.17081936                0.01649028               -0.17706119                0.04099064                0.27273601                0.69067827               -0.08650699                1.19621608
               8.99393741                3.02745568               75.16575378                0.04007907               -0.12648804               -0.11584784                0.29856273                0.53291324               -0.27086225                1.81520738
               9.99356893                3.02558525               75.16552103                0.54883446               -0.03684709               -0.31673393                0.29871370                0.26076744               -0.01173827                1.76635172
               0.00192048                4.00428503               75.15935834                0.54844403               -0.06280032               -0.04530980                0.21142557               -0.00138533               -0.00136882                0.01657996
               1.00129248                4.00374367               75.15908673                0.01069505                0.00923646               -0.08212270                0.20917926                0.10071999                0.12025108               -0.01502117
               2.00210521                4.00525450               75.16124496                0.01000000                0.08348332               -0.22843993                0.20798123                0.32466550                0.33728837               -0.09931373
               3.00296215                4.00978499               75.16529392                0.01209929                0.01219487               -0.06209932                0.22400943                0.46619869                0.35631233                0.17616362
               4.00234911                4.01305618               75.16775152                0.01000000               -0.04880398               -0.04338319                0.23099321                0.45791071                0.38422943                0.38795491
               5.00198607                4.01637443               75.17243484                0.01828490               -0.07463104               -0.00017394                0.24798089                0.40452132                0.23074773                0.41880033
               6.00085649                4.01836769               75.17188712                0.01000001               -0.10965996               -0.07180881                0.24883186                0.32038645                0.08540397                0.43978885
               6.99979287                4.01961179               75.17376186                0.01273782               -0.07303358                0.02073095                0.25498105                0.50675183                0.39163445                0.91942527
               7.99939582                4.02400918               75.17948011                0.01302695                0.07481804               -0.11904792                0.26082000                0.56064129                0.88049896                1.23078999
               9.00128923                4.02398743               75.19126107                0.09094267                0.07486123               -0.25653344                0.21535388                0.36494747                0.59967228                1.43395502
              10.00089304                4.02306122               75.19113532                0.57364661               -0.03961863               -0.14014375                0.21788406                0.30374795                0.01275529                1.40839886
               0.00263039                5.00379433               75.15940761                0.59957188               -0.06336056               -0.05215744                0.21375860               -0.00114178               -0.00105087                0.01757643
               1.00199679                5.00295678               75.15896645                0.02424221               -0.03854844               -0.07586862                0.20995845                0.01222966                0.02504512               -0.01743017
               2.00185942                5.00239765               75.15904579                0.01000001                0.04547229               -0.21256493                0.20642586                0.30095132                0.39262494               -0.18702501
               3.00290623                5.00878802               75.16593766                0.01000000                0.09096248               -0.10831401                0.22714959                0.59229415                0.70648985                0.19263137
               4.00367867                5.01275876               75.17235251                0.01828177               -0.00230875               -0.07007468                0.24797671                0.40920889                0.41309912                0.23364737
               5.00286006                5.01557952               75.17337324                0.01000000               -0.08298170               -0.07976077                0.25052336                0.29277314                0.24421868                0.24672406
               6.00201904                5.01762359               75.17649673                0.01277530               -0.04439428               -0.02894640                0.25992944                0.34475423                0.57855092                0.73128750
               7.00197217                5.02025454               75.18430582                0.01172712                0.04584225               -0.00440947                0.26736682                0.34531325                0.88341353                1.05865780
               8.00293589                5.02126730               75.19356233                0.07656282                0.01060736               -0.17656984                0.23741548                0.24984153                0.47168510                0.74053269
               9.00218432                5.02232501               75.19303705                0.16206713               -0.07197841               -0.13014864                0.23543510                0.09210151               -0.00932738                0.13638237
              10.00149632                5.02278237               75.19265974                0.61034021               -0.06880035               -0.04282858                0.23624968                0.04588975               -0.00006909                0.12023173
               0.00357276                6.00324188               75.15945672                0.66584501               -0.06390019               -0.05753089                0.21595521               -0.00077807               -0.00095142                0.01753432
               1.00293376                6.00222630               75.15883582                0.10812525               -0.06398847               -0.07101317                0.21078819               -0.01172043               -0.01855637               -0.01839148
               2.00229299                6.00100320               75.15786200                0.01118900                0.07565811               -0.10199219                0.20408222                0.34576731                0.55951257               -0.09273381
               3.00444692                6.00761871               75.16879490                0.01833553                0.07244003               -0.12711114                0.24232412                0.54792352                0.75223791                0.07408322
               4.00374179                6.01165469               75.17173635                0.01000001               -0.07351111               -0.10624431                0.24834285                0.32544014                0.43243173                0.08614241
               5.00297670                6.01477922               75.17640109                0.01278192               -0.03326138               -0.03746108                0.25928239                0.34839531                0.72589224                0.57513691
               6.00307656                6.01778876               75.18531915                0.01187749                0.00393650                0.00935174                0.27047437                0.28468647                0.90111006                0.89802546
               7.00305543                6.01952360               75.19356311                0.07672204               -0.03771948               -0.07347407                0.24048071                0.14723860                0.43338017                0.48958743
               8.00232217                6.02047779               75.19326145                0.16078876               -0.07196201               -0.07783784                0.24072614                0.02095232                0.00278804                0.01170773
               9.00161619                6.02138446               75.19287789                0.27282000               -0.07130270               -0.08554601                0.24103065                0.01559512               -0.00010563                0.02172135
              10.00089612                6.02220465               75.19249596                0.67406922               -0.07200680               -0.06375936                0.24162141                0.00915442                0.00083895                0.02268465
               0.00464599                7.00264371               75.15950482                0.75015008               -0.06449386               -0.06147065                0.21804903               -0.00043586               -0.00116763                0.01751846
               1.00400105                7.00153651               75.15870184                0.21841856               -0.06318178               -0.06764929                0.21177256               -0.00448190               -0.01539277               -0.01812897
               2.00338236                7.00035780               75.15761578                0.01549771               -0.03939163               -0.06393296                0.20450192                0.34618470                0.50188209               -0.04485738
               3.00321322                7.00624580               75.16715726                0.01000000               -0.01776923               -0.13561508                0.24363743                0.55049774                0.86053141                0.09249125
               4.00302697                7.01063387               75.17348600                0.01272523                0.02403339               -0.06540737                0.25404015                0.52306820                0.90366461                0.38524920
               5.00369389                7.01483030               75.18401209                0.01173687               -0.00292948                0.05446631                0.26745236                0.35627438                1.04720680                0.86773213
               6.00296838                7.01781063               75.19334435                0.07672179               -0.07329840               -0.03582022                0.24140018                0.15016658                0.48986950                0.42519947
               7.00222792                7.01878505               75.19310371                0.16111868               -0.07371520               -0.07366348                0.24220524                0.00979405                0.00713744                0.00046641
               8.00149408                7.01971054               75.19276782                0.27344063               -0.07292790               -0.07547704                0.24273666                0.00568654                0.00215156                0.00032485
               9.00076936                7.02061409               75.19241252                0.42779650               -0.07275262               -0.07555402                0.24328544                0.00261528                0.00110933                0.00328991
              10.00003903                7.02150718               75.19204148                0.76508145               -0.07303368               -0.07122459                0.24389991                0.00131102                0.00083036                0.00564333
               0.00577844                8.00201246               75.15955857                0.85675487               -0.06484154               -0.06430700                0.22008913               -0.00005579               -0.00184430                0.01799556
               1.00513003                8.00087331               75.15857491                0.36409572               -0.06355252               -0.06561751                0.21298732               -0.00103033               -0.01168248               -0.01669968
               2.00450739                7.99972454               75.15738912                0.01000000                0.00253887               -0.06283055                0.20536227                0.31462526                0.68754659               -0.04006579
               3.00518081                8.00490641               75.17040187                0.01650229                0.05556310               -0.17738597                0.27100827                0.72256871                1.16875260               -0.08034070
               4.00561866                8.01034654               75.17899896                0.01303681               -0.11276874                0.08380992                0.26010557                0.59020540                1.20467937                0.85661299
               5.00292543                8.01586854               75.19293579                0.07654706               -0.17467566                0.01362851                0.24028144                0.26087324                0.72763009                0.45818348
               6.00212514                8.01707236               75.19284866                0.16075482               -0.07870186               -0.07254366                0.24263698                0.02210288                0.01654033               -0.00271813
               7.00135139                8.01805033               75.19256491                0.27340335               -0.07591376               -0.07316256                0.24368703                0.00590066                0.00460125               -0.00265193
               8.00060687                8.01896824               75.19223389                0.42827802               -0.07397714               -0.07392498                0.24429775                0.00169383                0.00183816               -0.00157194
               8.99987185                8.01987338               75.19188514                0.65044728               -0.07353562               -0.07392526                0.24483239                0.00041420                0.00084243               -0.00031143
               9.99913615                8.02078015               75.19152504                0.89831791               -0.07356962               -0.07320437                0.24546053                0.00003196                0.00057380                0.00193684
               0.00692318                9.00135757               75.15962516                0.99155575               -0.06548144               -0.06619242                0.22219722                0.00024471               -0.00289694                0.01529715
               1.00626837                9.00022416               75.15846490                0.55913162               -0.06407093               -0.06476928                0.21441631                0.00014530               -0.00638173               -0.01230265
               2.00564176                8.99910119               75.15723732                0.05648468                0.03871163               -0.06232504                0.20669094                0.23570970                0.46058061               -0.02411638
               3.00704260                9.00269808               75.16542186                0.04035241               -0.08864083               -0.13431529                0.29345146                0.55184742                1.76641001               -0.26087227
               4.00386895                9.01231007               75.19032262                0.09110889               -0.24285328                0.07601280                0.21991751                0.39004760                1.39357371                0.58057889
               5.00218554                9.01510287               75.19226400                0.16204779               -0.13201491               -0.07356268                0.23914230                0.09650531                0.13611914               -0.01177763
               6.00122865                9.01635975               75.19230005                0.27272495               -0.08677442               -0.07217556                0.24381005                0.01652767                0.02284846               -0.00261833
               7.00045005                9.01732180               75.19202821                0.42763092               -0.07618681               -0.07330195                0.24513979                0.00277603                0.00423451               -0.00124795
               7.99970491                9.01823204               75.19169253                0.65026825               -0.07421543               -0.07380584                0.24576472                0.00044365                0.00058409               -0.00102687
               8.99896574                9.01913559               75.19134109                0.98895736               -0.07394020               -0.07394458                0.24624372                0.00000909                0.00010886               -0.00068796
               9.99822611                9.02004310               75.19099041                1.00000000               -0.07396290               -0.07399121                0.24685972               -0.00022070                0.00027250                0.00086831
               0.00805016               10.00068862               75.15962968                1.00000000               -0.06608455               -0.06689569                0.22412655                0.00162873                0.00936603                0.01219856
               1.00738931                9.99957793               75.15842572                0.84514587               -0.06512469               -0.06462360                0.21617845                0.00156598                0.01485177               -0.00893888
               2.00674767                9.99847804               75.15733358                0.56208728               -0.21902193               -0.06231499                0.20904066                0.24269911                0.46325973               -0.01207529
               3.00300888               10.00222010               75.16510592                0.54911887               -0.28664239               -0.04779792                0.29389009                0.26606509                1.71595650               -0.01065987
               4.00101482               10.01186679               75.19010435                0.57382002               -0.11015107               -0.04432766                0.22314325                0.32344634                1.36449044                0.01184485
               5.00080585               10.01439729               75.19177538                0.61032811               -0.03890268               -0.07055833                0.24071124                0.05013452                0.11585048               -0.00079405
               6.00023676               10.01562885               75.19178409                0.67398478               -0.06356145               -0.07309075                0.24520592                0.01016185                0.01970420               -0.00013451
               6.99953463               10.01658429               75.19150324                0.76493647               -0.07174039               -0.07375083                0.24660093                0.00162200                0.00272382               -0.00016039
               7.99880196               10.01749213               75.19116036                0.89813372               -0.07368237               -0.07399139                0.24727844                0.00021385               -0.00091498               -0.00027145
               8.99806098               10.01839448               75.19080066                1.00000000               -0.07426185               -0.07411019                0.24778468               -0.00006593               -0.00117311               -0.00038206
               9.99731672               10.01930033               75.19045030                0.99507269               -0.07442582               -0.07427667                0.24840539               -0.00035437               -0.00077130                0.00053054
               0.00343080                0.00603381               76.16137055                0.79531087               -0.05717842               -0.05720146                0.20272564                0.00145502                0.00041974               -0.00004679
               1.00285901                0.00706483               76.16141139                0.53905378               -0.04583458               -0.06503011                0.20428591                0.01067080                0.00304862               -0.00046062
               2.00251411                0.00843698               76.16149185                0.49069078               -0.03321124               -0.06095079                0.20620294                0.00426457                0.01003435               -0.00182472
               3.00219479                0.01043398               76.16160574                0.51113000               -0.03614986               -0.06220885                0.20851629               -0.00039228                0.01567171               -0.00194912
               4.00179111                0.01297282               76.16173844                0.54880400               -0.04470263               -0.06269030                0.21090299               -0.00109160                0.01862407               -0.00146368
               5.00130074                0.01589030               76.16187860                0.59992222               -0.05244457               -0.06328974                0.21316657               -0.00077982                0.01944740               -0.00110390
               6.00074222                0.01903590               76.16201755                0.66602876               -0.05826044               -0.06387526                0.21525273               -0.00038117                0.01915862               -0.00098093
               7.00013553                0.02229878               76.16215518                0.75020750               -0.06223488               -0.06443771                0.21718081               -0.00002964                0.01894135               -0.00131086
               7.99949752                0.02560557               76.16229848                0.85653442               -0.06472264               -0.06496485                0.21906262                0.00021774                0.01972472               -0.00202157
               8.99884107                0.02891463               76.16245988                0.99110391               -0.06613376               -0.06549328                0.22102057                0.00032135                0.01697681               -0.00320382
               9.99817484                0.03220928               76.16255229                1.00000000               -0.06662296               -0.06616484                0.22297385                0.00120336                0.01350179                0.01041300
               0.00241433                1.00546180               76.16134579                0.53909373               -0.06501871               -0.04585194                0.20433851                0.01061044               -0.00083491                0.00244898
               1.00176414                1.00641453               76.16137736                0.01053124               -0.07710727               -0.07717530                0.20579666                0.03174704               -0.00189160               -0.00105933
               2.00087218                1.00782747               76.16139434                0.01000000               -0.09205973               -0.03634277                0.20724724                0.09500340               -0.00733795                0.04005014
               2.99992294                1.00981189               76.16138470                0.01000000               -0.09100746               -0.00832278                0.20847915                0.13255533               -0.01348076                0.09392880
               3.99905203                1.01234592               76.16134975                0.01090686               -0.08307729                0.00870058                0.20954817                0.10883836               -0.01780764                0.12164506
               4.99826140                1.01525740               76.16129636                0.02427090               -0.07589323               -0.03852780                0.21054156                0.01658046               -0.02015052                0.02469811
               5.99753417                1.01839715               76.16123363                0.10787778               -0.07055011               -0.06368390                0.21160540               -0.00862304               -0.02086747               -0.02067405
               6.99685040                1.02165440               76.16116963                0.21767387               -0.06711984               -0.06339919                0.21282018               -0.00256010               -0.02028377               -0.01702465
               7.99619177                1.02495592               76.16111507                0.36264483               -0.06539802               -0.06399711                0.21425141               -0.00019629               -0.01868510               -0.01332432
               8.99554244                1.02825970               76.16107909                0.55676022               -0.06497661               -0.06456171                0.21588116                0.00032567               -0.01377552               -0.00696733
               9.99489224                1.03154763               76.16112264                0.84367142               -0.06501978               -0.06564586                0.21774279                0.00111157               -0.00998490                0.01657326
               0.00173754                2.00511677               76.16135788                0.49070501               -0.06092534               -0.03309514                0.20641375                0.00416085               -0.00182687                0.00941875
               1.00112828                2.00552133               76.16133793                0.01000000               -0.03603582               -0.09230836                0.20706102                0.09478998                0.03899171               -0.00610096
               2.00101682                2.00771012               76.16212799                0.01000001               -0.04004175               -0.04064008                0.20658355                0.27041539                0.08696143                0.08917513
               3.00032745                2.01026752               76.16307760                0.01000000               -0.12472287                0.02168268                0.20787492                0.35110240                0.06049664                0.19967490
               3.99852236                2.01314683               76.16342047                0.01000000               -0.23731656                0.08494891                0.20689147                0.35096622               -0.10819122                0.35024467
               4.99558112                2.01511974               76.16122853                0.01000001               -0.21748018                0.04296837                0.20839453                0.32580402               -0.19705906                0.40987842
               5.99417276                2.01776222               76.16005522                0.01114176               -0.10277822                0.06941376                0.20699584                0.36280342               -0.10003909                0.58850625
               6.99352555                2.02103080               76.15986988                0.01535799               -0.06422315               -0.04977971                0.20798442                0.36069353               -0.04950072                0.53274966
               7.99288829                2.02432563               76.15970631                0.01000000               -0.06348342               -0.01276455                0.20927108                0.32304544               -0.04436123                0.73948744
               8.99225588                2.02762340               76.15962454                0.05661277               -0.06335344                0.02440222                0.21092619                0.24496817               -0.02676065                0.51968798
               9.99162123                2.03089636               76.15981883                0.56250539               -0.06346569               -0.25108209                0.21311596                0.26740114               -0.01337707                0.52431336
               0.00168843                3.00479989               76.16140566                0.51110862               -0.06218437               -0.03579744                0.20883539               -0.00055476               -0.00191464                0.01515956
               1.00106659                3.00456837               76.16127063                0.01000000               -0.00770688               -0.09146085                0.20814694                0.13246374                0.09259956               -0.01231418
               2.00153429                3.00701467               76.16302236                0.01000000                0.02208461               -0.12588799                0.20768585                0.35217150                0.19670760                0.06323142
               3.00150828                3.01024554               76.16495266                0.01000000               -0.01575814               -0.01403979                0.21146957                0.49920605                0.24067729                0.24393447
               4.00121913                3.01404490               76.16758885                0.01213217               -0.06730962                0.01443175                0.22314760                0.49886204                0.17998681                0.37435450
               5.00016209                3.01611677               76.16833288                0.01000000               -0.11699741                0.08947813                0.22737802                0.61949281                0.20090448                0.73930469
               5.99887918                3.01978542               76.17144479                0.01834827               -0.13306140                0.06316645                0.24531952                0.57097078                0.07984649                0.79052898
               6.99750086                3.02065881               76.16987929                0.01000000               -0.14095553               -0.03313542                0.24771833                0.56491703                0.10894510                0.90598432
               7.99606007                3.02470063               76.17358413                0.01685267               -0.18148959                0.03140459                0.27952545                0.73192895               -0.05915936                1.22632480
               8.99387107                3.02874775               76.16878364                0.04224439               -0.11828642               -0.14661832                0.30684785                0.55054388               -0.25909274                1.81733021
               9.99369434                3.02652598               76.16855363                0.55072557               -0.01767239               -0.36628243                0.30730026                0.25360052               -0.00963986                1.76694820
               0.00218950                4.00440082               76.16147200                0.54880911               -0.06267149               -0.04419809                0.21133076               -0.00128198               -0.00140787                0.01804813
               1.00156278                4.00369211               76.16117779                0.01089344                0.00967874               -0.08363660                0.20908467                0.10861781                0.12041103               -0.01667126
               2.00238307                4.00519236               76.16331722                0.01000000                0.08592783               -0.24048355                0.20627838                0.35395311                0.34640117               -0.10317856
               3.00328134                4.00998673               76.16753321                0.01213800                0.01226506               -0.06420268                0.22288193                0.50327458                0.36987317                0.18271927
               4.00262837                4.01343547               76.17006085                0.01000000               -0.05254471               -0.04704553                0.23026314                0.49040935                0.39865662                0.40136753
               5.00223045                4.01690931               76.17492866                0.01834524               -0.07891190               -0.00241851                0.25082525                0.43348636                0.24167489                0.43267365
               6.00105014                4.01902555               76.17439074                0.01000000               -0.11608806               -0.07792293                0.25162298                0.34629877                0.08989703                0.45061130
               6.99990868                4.02036809               76.17632835                0.01287559               -0.08061001                0.01401997                0.25870053                0.53500438                0.39648842                0.93293034
               7.99943794                4.02495372               76.18209763                0.01336871                0.07663610               -0.14634446                0.26168485                0.57719294                0.85510978                1.21214277
               9.00144141                4.02469103               76.19338279                0.09203964                0.08494115               -0.29363916                0.20841606                0.36414605                0.57238080                1.40055602
              10.00113676                4.02357071               76.19328682                0.57447933               -0.03046476               -0.16147496                0.21197852                0.29672402                0.01340576                1.37308904
               0.00308022                5.00391593               76.16154505                0.59987953               -0.06328124               -0.05189751                0.21371475               -0.00097504               -0.00103268                0.01877446
               1.00244741                5.00289563               76.16106592                0.02431850               -0.03807383               -0.07646456                0.20997862                0.01490537                0.02523153               -0.01905077
               2.00231874                5.00220500               76.16111043                0.01000001                0.04416300               -0.22072178                0.20660408                0.33092673                0.40500598               -0.19108382
               3.00333067                5.00896149               76.16821044                0.01000000                0.08929972               -0.11209451                0.22677959                0.63343728                0.73046826                0.20191302
               4.00410474                5.01310399               76.17484693                0.01836016               -0.00444674               -0.07428863                0.25049224                0.43785613                0.42800221                0.24347084
               5.00324173                5.01606840               76.17589394                0.01000000               -0.08791788               -0.08478870                0.25327760                0.31744765                0.25293978                0.25422278
               6.00234638                5.01822696               76.17911867                0.01299910               -0.04844764               -0.03411054                0.26430089                0.36648850                0.58885005                0.74369524
               7.00227278                5.02093921               76.18699672                0.01207883                0.04673028               -0.01782038                0.27177373                0.35257413                0.87031340                1.04978818
               8.00328099                5.02177374               76.19591726                0.07708500                0.01321104               -0.19849350                0.23320433                0.25931565                0.45230622                0.72731186
               9.00253700                5.02287496               76.19537287                0.16287990               -0.07057555               -0.13924652                0.23145842                0.10379632               -0.01118821                0.14887972
              10.00186947                5.02329649               76.19500688                0.61083226               -0.06675261               -0.04189948                0.23299446                0.04950886                0.00004187                0.13114186
               0.00421060                6.00336287               76.16161602                0.66601738               -0.06387694               -0.05776641                0.21589864               -0.00056739               -0.00087781                0.01837890
               1.00357183                6.00216282               76.16094424                0.10793296               -0.06374215               -0.07105005                0.21095743               -0.01039159               -0.01920522               -0.01977459
               2.00293575                6.00077793               76.15990530                0.01112077                0.07396352               -0.10357231                0.20468100                0.37340971                0.58126928               -0.09598473
               3.00505110                6.00774484               76.17123230                0.01835917                0.06714160               -0.12971597                0.24449960                0.58757868                0.77868062                0.08187681
               4.00427858                6.01194970               76.17423533                0.01000000               -0.07973383               -0.11276267                0.25090207                0.35096324                0.44416474                0.08943946
               5.00345642                6.01521353               76.17901418                0.01298880               -0.03847431               -0.04172036                0.26359287                0.36965005                0.73943751                0.58461831
               6.00350910                6.01834334               76.18804247                0.01227629               -0.00215151                0.00311201                0.27484574                0.28841759                0.89044144                0.88645035
               7.00341339                6.02001168               76.19594985                0.07732753               -0.04103027               -0.08293641                0.23668312                0.14755467                0.41552290                0.47331077
               8.00268849                6.02098385               76.19565340                0.16160711               -0.07094006               -0.07771565                0.23744642                0.02354992                0.00215961                0.01273932
               9.00199459                6.02190610               76.19527557                0.27380397               -0.07023014               -0.08697983                0.23832439                0.01761767               -0.00036329                0.02423654
              10.00128389                6.02273272               76.19490248                0.67455594               -0.07106982               -0.06276064                0.23955982                0.00996669                0.00089616                0.02507006
               0.00546898                7.00276060               76.16168482                0.75016304               -0.06444575               -0.06189663                0.21791649               -0.00017125               -0.00115566                0.01796973
               1.00482452                7.00147463               76.16082117                0.21773059               -0.06320292               -0.06744815                0.21212803               -0.00349142               -0.01576507               -0.01914367
               2.00420492                7.00013355               76.15966488                0.01534921               -0.04570252               -0.06389528                0.20560550                0.37305514                0.52489506               -0.04647637
               3.00391047                7.00636717               76.16961596                0.01000000               -0.02748090               -0.13899829                0.24664390                0.58775313                0.88985342                0.10710565
               4.00365530                7.01084873               76.17604566                0.01287078                0.01653079               -0.07367562                0.25838995                0.54991962                0.91909077                0.38950472
               5.00424109                7.01523399               76.18670220                0.01207129               -0.01693594                0.05504903                0.27189102                0.36285442                1.04084484                0.85587386
               6.00331659                7.01828920               76.19574071                0.07731714               -0.08288623               -0.03920836                0.23769959                0.15047171                0.47447411                0.40752054
               7.00258336                7.01928048               76.19551088                0.16203079               -0.07295127               -0.07289535                0.23898176                0.01089171                0.00690909                0.00036939
               8.00185756                7.02021943               76.19518297                0.27456213               -0.07214397               -0.07507629                0.24014854                0.00640238                0.00191452                0.00045707
               9.00114048                7.02113537               76.19483614                0.42898029               -0.07209920               -0.07539903                0.24132444                0.00293756                0.00103580                0.00357683
              10.00041558                7.02204127               76.19447422                0.76563590               -0.07249083               -0.07077003                0.24258178                0.00134244                0.00086446                0.00599332
               0.00677911                8.00212494               76.16175756                0.85650353               -0.06500629               -0.06463387                0.21984318                0.00011556               -0.00178475                0.01849881
               1.00612905                8.00081386               76.16070756                0.36279929               -0.06373977               -0.06548201                0.21353226               -0.00055813               -0.01229145               -0.01750271
               2.00550432                7.99950002               76.15944918                0.01000000               -0.00190371               -0.06298235                0.20678500                0.33768168                0.72488930               -0.04142587
               3.00609098                8.00496487               76.17314895                0.01685485                0.04529169               -0.18193301                0.27765883                0.76239748                1.20108605               -0.05572966
               4.00641015                8.01047618               76.18161015                0.01337079               -0.14089706                0.08470686                0.26148732                0.60443152                1.18956347                0.83336521
               5.00327304                8.01631451               76.19531988                0.07707446               -0.19690532                0.01611064                0.23613404                0.26994931                0.71657400                0.43996878
               6.00247205                8.01755917               76.19526018                0.16158382               -0.07860181               -0.07152964                0.23939055                0.02471967                0.01746694               -0.00322424
               7.00170100                8.01855377               76.19498974                0.27452672               -0.07551966               -0.07238116                0.24111013                0.00662294                0.00462618               -0.00278946
               8.00096165                8.01948232               76.19466766                0.42957010               -0.07347524               -0.07342266                0.24234257                0.00188988                0.00166973               -0.00165987
               9.00023150                8.02039812               76.19432713                0.65144850               -0.07313639               -0.07360795                0.24349663                0.00046124                0.00074918               -0.00044548
               9.99949893                8.02131732               76.19397628                0.89864026               -0.07325696               -0.07299403                0.24476966               -0.00004218                0.00056466                0.00182832
               0.00809346                9.00146793               76.16184659                0.99104004               -0.06551803               -0.06630585                0.22200664                0.00027200               -0.00294779                0.01585963
               1.00743828                9.00016499               76.16061209                0.55694303               -0.06429589               -0.06484892                0.21509969                0.00026300               -0.00634222               -0.01285363
               2.00680754                8.99887390               76.15931084                0.05687411                0.03719898               -0.06267291                0.20831883                0.25706637                0.50965449               -0.02497582
               3.00818226                9.00272851               76.16840507                0.04250557               -0.12066266               -0.12633497                0.30266368                0.56842089                1.77364729               -0.25092936
               4.00439429                9.01254287               76.19249035                0.09219490               -0.28125882                0.08574130                0.21303781                0.38714502                1.36527323                0.55561121
               5.00255708                9.01555621               76.19463732                0.16286768               -0.14112851               -0.07218236                0.23520605                0.10820649                0.14860581               -0.01357908
               6.00157172                9.01685861               76.19472565                0.27369865               -0.08822063               -0.07111033                0.24112917                0.01856509                0.02532542               -0.00284736
               7.00079267                9.01783286               76.19447045                0.42881312               -0.07603565               -0.07265293                0.24319398                0.00310071                0.00450175               -0.00128220
               8.00005101                9.01875098               76.19414387                0.65128259               -0.07389788               -0.07340633                0.24442814                0.00049026                0.00042989               -0.00107993
               8.99931471                9.01966321               76.19380001                0.98862172               -0.07373338               -0.07373807                0.24551805                0.00001016               -0.00001742               -0.00079543
               9.99857634                9.02058139               76.19345845                1.00000000               -0.07383745               -0.07397455                0.24677972               -0.00031644                0.00022373                0.00075215
               0.00939042               10.00079882               76.16187096                1.00000000               -0.06620891               -0.06691027                0.22403935                0.00150167                0.00980114                0.01263783
               1.00872833                9.99951688               76.16059105                0.84377142               -0.06541469               -0.06481141                0.21698533                0.00139234                0.01566599               -0.00934144
               2.00808213                9.99824656               76.15943092                0.56274338               -0.24689528               -0.06273408                0.21068349                0.27352325                0.51233111               -0.01255449
               3.00379043               10.00243817               76.16809504                0.55098735               -0.33783868               -0.02903390                0.30351323                0.25803917                1.72207817               -0.00851349
               4.00132536               10.01219101               76.19230887                0.57462777               -0.13345027               -0.03518609                0.21730787                0.31474148                1.33459200                0.01257761
               5.00112142               10.01487087               76.19416754                0.61081678               -0.03793291               -0.06853392                0.23748873                0.05373186                0.12685822               -0.00065853
               6.00056670               10.01613697               76.19422651                0.67449371               -0.06253865               -0.07216451                0.24316521                0.01099020                0.02213973               -0.00006477
               6.99987065               10.01710071               76.19396305                0.76549979               -0.07127957               -0.07321419                0.24529746                0.00165948                0.00313948               -0.00010989
               7.99914111               10.01801420               76.19362979                0.89845751               -0.07346847               -0.07367776                0.24658659                0.00014238               -0.00096047               -0.00026342
               8.99840128               10.01892336               76.19327797                1.00000000               -0.07424401               -0.07398458                0.24770590               -0.00016172               -0.00124513               -0.00041518
               9.99765623               10.01983783               76.19293677                0.99516742               -0.07450548               -0.07435641                0.24897323               -0.00056459               -0.00081046                0.00046354
               0.00338608                0.00605047               77.16339499                0.79552156               -0.05650395               -0.05652111                0.20216406                0.00165173                0.00036933                0.00003555
               1.00282104                0.00708607               77.16345186                0.53944000               -0.04374982               -0.06538760                0.20381784                0.01220483                0.00324567               -0.00058522
               2.00251108                0.00851013               77.16355224                0.49110137               -0.02990574               -0.06061878                0.20588694                0.00488390                0.01095707               -0.00200128
               3.00222292                0.01063508               77.16369005                0.51151085               -0.03377778               -0.06202050                0.20837352               -0.00022290                0.01700380               -0.00207067
               4.00183553                0.01335348               77.16384730                0.54923277               -0.04367313               -0.06254276                0.21089124               -0.00095538                0.01985980               -0.00148516
               5.00134946                0.01647484               77.16401039                0.60020975               -0.05236135               -0.06320534                0.21322467               -0.00058197                0.02031665               -0.00105328
               6.00078830                0.01982866               77.16417034                0.66626594               -0.05865585               -0.06383991                0.21530317               -0.00015025                0.01960453               -0.00089973
               7.00017634                0.02329353               77.16432710                0.75015661               -0.06272943               -0.06443955                0.21716987                0.00020309                0.01905532               -0.00122671
               7.99953371                0.02679336               77.16448891                0.85622126               -0.06506219               -0.06500015                0.21896428                0.00040580                0.01971600               -0.00194759
               8.99887510                0.03028956               77.16466960                0.99041090               -0.06624646               -0.06556999                0.22083996                0.00041912                0.01700903               -0.00315087
               9.99820878                0.03377093               77.16478195                1.00000000               -0.06663193               -0.06630254                0.22287694                0.00108214                0.01360710                0.01060146
               0.00236699                1.00548525               77.16338672                0.53950812               -0.06537395               -0.04375954                0.20385495                0.01214697               -0.00086343                0.00282559
               1.00171325                1.00643219               77.16343328                0.01050467               -0.07907870               -0.07914367                0.20539780                0.03634370               -0.00198415               -0.00136185
               2.00078542                1.00790395               77.16346522                0.01000000               -0.09571154               -0.03656336                0.20693815                0.10405848               -0.00795657                0.03865986
               2.99979902                1.01001487               77.16346833                0.01000000               -0.09396644               -0.00792531                0.20827443                0.14391552               -0.01462977                0.09301594
               3.99890609                1.01272805               77.16344457                0.01114255               -0.08464848                0.00902048                0.20944692                0.11715408               -0.01919158                0.12044642
               4.99810605                1.01584279               77.16340154                0.02438168               -0.07643178               -0.03808363                0.21055716                0.01964334               -0.02149036                0.02519714
               5.99737745                1.01919026               77.16335012                0.10764182               -0.07050125               -0.06338324                0.21174869               -0.00706366               -0.02196218               -0.02094441
               6.99669603                1.02264913               77.16329905                0.21694317               -0.06688495               -0.06339238                0.21312514               -0.00145880               -0.02105235               -0.01710087
               7.99603975                1.02614336               77.16325972                0.36124513               -0.06527605               -0.06416514                0.21475833                0.00035714               -0.01914670               -0.01323763
               8.99539051                1.02963386               77.16324119                0.55446905               -0.06507624               -0.06479807                0.21663085                0.00048343               -0.01402221               -0.00676735
               9.99473823                1.03310791               77.16330411                0.84224440               -0.06522763               -0.06598789                0.21865826                0.00100135               -0.01018331                0.01704574
               0.00173514                2.00517527               77.16342015                0.49108202               -0.06059201               -0.02978290                0.20606426                0.00479986               -0.00199685                0.01055973
               1.00112922                2.00550320               77.16340698                0.01000000               -0.03627827               -0.09595519                0.20677126                0.10387490                0.03788218               -0.00701410
               2.00100957                2.00777887               77.16418446                0.01000001               -0.04260463               -0.04310479                0.20425298                0.29237561                0.08516939                0.08679294
               3.00027713                2.01047657               77.16514441                0.01000000               -0.13294425                0.02191098                0.20465408                0.37934967                0.05844857                0.19934484
               3.99835069                2.01353389               77.16547747                0.01000000               -0.24985035                0.08725413                0.20375273                0.38299681               -0.10978479                0.35706664
               4.99528012                2.01571317               77.16331609                0.01000001               -0.22550039                0.04130882                0.20839918                0.35821703               -0.19850266                0.42054670
               5.99384068                2.01856100               77.16212838                0.01104958               -0.10430230                0.06722823                0.20782871                0.39171245               -0.10225452                0.60968187
               6.99319407                2.02202568               77.16195360                0.01517351               -0.06422762               -0.05740008                0.20910920                0.38856129               -0.05024251                0.55505024
               7.99255613                2.02551006               77.16180546                0.01000000               -0.06369265               -0.01799630                0.21084155                0.34696564               -0.04476309                0.77807645
               8.99192022                2.02899360               77.16174196                0.05729068               -0.06377081                0.02050885                0.21284403                0.26683341               -0.02696759                0.57162666
               9.99128071                2.03245117               77.16195794                0.56343357               -0.06395082               -0.28258416                0.21496010                0.30065486               -0.01356779                0.57576287
               0.00180715                3.00488960               77.16349311                0.51155039               -0.06199900               -0.03343371                0.20865474               -0.00036947               -0.00203714                0.01667917
               1.00118716                3.00451309               77.16335131                0.01000000               -0.00737952               -0.09441185                0.20799829                0.14392627                0.09200659               -0.01372637
               2.00165956                3.00704185               77.16508650                0.01000000                0.02219171               -0.13380063                0.20441341                0.38041179                0.19707098                0.06058776
               3.00163099                3.01045309               77.16705134                0.01000000               -0.01650660               -0.01474838                0.20683101                0.53850686                0.24795905                0.25025465
               4.00132942                3.01447314               77.16981134                0.01216905               -0.06938519                0.01457785                0.21969700                0.53959912                0.18841579                0.38694392
               5.00024329                3.01666897               77.17060116                0.01000000               -0.12151168                0.08768331                0.22510993                0.66356233                0.21295656                0.76260381
               5.99889919                3.02053483               77.17390791                0.01837817               -0.13625466                0.05725223                0.24696492                0.61231132                0.08835262                0.81606131
               6.99751819                3.02150113               77.17236899                0.01000000               -0.14440191               -0.04363564                0.24743255                0.60351382                0.12473141                0.93343518
               7.99601115                3.02578343               77.17640987                0.01727620               -0.18660684                0.02044264                0.28042395                0.77151733               -0.03268705                1.25963594
               8.99378606                3.03004403               77.17189074                0.04478695               -0.10874897               -0.17921356                0.31340440                0.56501147               -0.24671547                1.81326471
               9.99383617                3.02745622               77.17166704                0.55292069                0.00501160               -0.41907137                0.31448537                0.24483864               -0.00748375                1.76264234
               0.00248076                4.00450660               77.16358495                0.54922273               -0.06252744               -0.04318961                0.21125350               -0.00112163               -0.00142975                0.01944699
               1.00185549                4.00361496               77.16326842                0.01111285                0.00985227               -0.08518917                0.20905841                0.11725662                0.11965308               -0.01829742
               2.00267781                4.00510286               77.16537053                0.01000000                0.08802443               -0.25269812                0.20337350                0.38610547                0.35408391               -0.10622402
               3.00361598                4.01018160               77.16975155                0.01217358                0.01244932               -0.06629439                0.21922108                0.54353512                0.38325852                0.19024809
               4.00292680                4.01382545               77.17235678                0.01000000               -0.05631511               -0.05097225                0.22693801                0.52555118                0.41565577                0.41717788
               5.00248968                4.01746684               77.17745135                0.01842662               -0.08360272               -0.00452539                0.25270946                0.46422112                0.25546482                0.44919859
               6.00125474                4.01970604               77.17691958                0.01000000               -0.12369648               -0.08445330                0.25345447                0.37401047                0.09582390                0.46302149
               7.00001575                4.02115297               77.17893587                0.01305852               -0.09055844                0.00638343                0.26376624                0.56372606                0.40121470                0.94834269
               7.99944357                4.02591891               77.18471381                0.01378490                0.07659565               -0.17628337                0.26201630                0.59255319                0.82553272                1.19216012
               9.00154766                4.02540932               77.19542939                0.09333089                0.09547689               -0.33171032                0.20012169                0.36178592                0.54064827                1.36132443
              10.00135311                4.02406975               77.19537489                0.57540973               -0.01945489               -0.18333412                0.20501282                0.28569005                0.01422841                1.33176681
               0.00356800                5.00402580               77.16368191                0.60024005               -0.06319636               -0.05184611                0.21366784               -0.00074982               -0.00097998                0.01978644
               1.00293603                5.00280931               77.16316602                0.02438628               -0.03764874               -0.07697007                0.21008314                0.01834850                0.02549409               -0.02058741
               2.00281502                5.00198789               77.16317787                0.01000001                0.04215330               -0.22869006                0.20696252                0.36352027                0.41668023               -0.19367217
               3.00377910                5.00912720               77.17047325                0.01000000                0.08700954               -0.11654371                0.22450298                0.67701616                0.75523024                0.21296604
               4.00455521                5.01345369               77.17736235                0.01842216               -0.00659917               -0.07903507                0.25237298                0.46838298                0.44557885                0.25614392
               5.00364712                5.01657846               77.17843880                0.01000000               -0.09309729               -0.09017574                0.25516887                0.34303495                0.26419952                0.26432201
               6.00269327                5.01884576               77.18178275                0.01327329               -0.05336341               -0.04051583                0.26899068                0.38726631                0.60236425                0.75771471
               7.00257985                5.02162880               77.18974129                0.01253081                0.04562962               -0.03386570                0.27919309                0.35756073                0.85265720                1.03728881
               8.00360586                5.02225776               77.19822642                0.07770666                0.01455454               -0.22260243                0.22850525                0.26885504                0.42722345                0.71181301
               9.00287094                5.02340983               77.19766622                0.16389673               -0.06883634               -0.15017052                0.22681158                0.11719777               -0.01335837                0.16324323
              10.00222913                5.02378954               77.19731963                0.61142216               -0.06418058               -0.04155207                0.22918685                0.05332627                0.00022594                0.14352934
               0.00489876                6.00346968               77.16377469                0.66623822               -0.06383892               -0.05821183                0.21582071               -0.00030225               -0.00080145                0.01892066
               1.00426037                6.00207556               77.16305497                0.10763170               -0.06342225               -0.07094949                0.21121691               -0.00854834               -0.01974411               -0.02101472
               2.00363032                6.00052905               77.16195562                0.01104334                0.07150619               -0.10517448                0.20593514                0.40228062                0.60334660               -0.09849215
               3.00569050                6.00785073               77.17368489                0.01838232                0.06064406               -0.13279714                0.24568332                0.62830553                0.80552145                0.08886546
               4.00484320                6.01224475               77.17675439                0.01000000               -0.08660962               -0.12022733                0.25285153                0.37899611                0.45766142                0.09500293
               5.00395831                6.01566332               77.18167295                0.01327249               -0.04467375               -0.04681893                0.26877566                0.39097966                0.75491390                0.59767819
               6.00394972                6.01889572               77.19081607                0.01277795               -0.01016737               -0.00512166                0.28135234                0.28841271                0.87520106                0.87066934
               7.00375496                6.02047565               77.19829677                0.07808771               -0.04550397               -0.09381275                0.23234572                0.14575641                0.39265910                0.45187734
               8.00303965                6.02146686               77.19801038                0.16261640               -0.06975598               -0.07761722                0.23367876                0.02657556                0.00133008                0.01398148
               9.00235984                6.02240591               77.19764438                0.27497212               -0.06897162               -0.08878810                0.23524212                0.01998682               -0.00068809                0.02716956
              10.00166021                6.02323870               77.19728716                0.67516778               -0.06996258               -0.06181447                0.23724007                0.01082995                0.00096942                0.02780462
               0.00635019                7.00286157               77.16386315                0.75012597               -0.06445036               -0.06245002                0.21775910                0.00007388               -0.00109233                0.01819804
               1.00570569                7.00139032               77.16294440                0.21701886               -0.06323650               -0.06716121                0.21255468               -0.00224793               -0.01598206               -0.02004339
               2.00508546                6.99988440               77.16172789                0.01515825               -0.05380869               -0.06394904                0.20713004                0.40072068                0.54798716               -0.04753228
               3.00462952                7.00647126               77.17209014                0.01000000               -0.03814615               -0.14240108                0.24589873                0.62578982                0.91905876                0.12131589
               4.00432254                7.01104915               77.17865380                0.01307855                0.00931075               -0.08377974                0.26366280                0.57833078                0.93596446                0.39392195
               5.00481573                7.01564208               77.18944991                0.01251770               -0.03366766                0.05347405                0.27951701                0.36713789                1.02952550                0.83903768
               6.00364919                7.01874333               77.19809834                0.07807971               -0.09459453               -0.04363943                0.23337336                0.14826796                0.45372005                0.38482173
               7.00292384                7.01975255               77.19788335                0.16310607               -0.07210387               -0.07203404                0.23533894                0.01217843                0.00651866                0.00015851
               8.00220711                7.02070542               77.19757079                0.27593053               -0.07125051               -0.07463526                0.23720350                0.00723759                0.00165237                0.00058300
               9.00149883                7.02163407               77.19723901                0.43038468               -0.07134790               -0.07526603                0.23910515                0.00331037                0.00093049                0.00389560
              10.00078015                7.02255325               77.19689311                0.76627966               -0.07186780               -0.07031056                0.24112127                0.00136484                0.00089318                0.00638044
               0.00784274                8.00222068               77.16395543                0.85615346               -0.06501600               -0.06501007                0.21966216                0.00031671               -0.00178790                0.01868530
               1.00719258                8.00073233               77.16284555                0.36132841               -0.06394775               -0.06533578                0.21414223                0.00004884               -0.01235332               -0.01813326
               2.00656379                7.99925007               77.16152482                0.01000000               -0.00755176               -0.06322328                0.20865928                0.36133912                0.76420270               -0.04231155
               3.00704155                8.00500271               77.17595504                0.01727819                0.03376034               -0.18689261                0.27875626                0.80127996                1.23711238               -0.03117722
               4.00723900                8.01056915               77.18422871                0.01378604               -0.17173338                0.08372139                0.26225434                0.61748581                1.17318797                0.80533976
               5.00360688                8.01673280               77.19765847                0.07770948               -0.22171889                0.01707744                0.23138173                0.27802016                0.70277558                0.41585673
               6.00280462                8.01802294               77.19763647                0.16258774               -0.07852225               -0.07034246                0.23562937                0.02775043                0.01858557               -0.00396946
               7.00203644                8.01903497               77.19738711                0.27588742               -0.07508707               -0.07148449                0.23816915                0.00746201                0.00465797               -0.00294335
               8.00130288                8.01997415               77.19708075                0.43110203               -0.07291102               -0.07285524                0.24011988                0.00212304                0.00145607               -0.00180017
               9.00057822                8.02090059               77.19675507                0.65259307               -0.07268673               -0.07326151                0.24199647                0.00051569                0.00062813               -0.00062904
               9.99984914                8.02183249               77.19642043                0.89898070               -0.07290737               -0.07278004                0.24402970               -0.00013223                0.00054952                0.00168102
               0.00933322                9.00156137               77.16406530                0.99037955               -0.06559464               -0.06640266                0.22167363                0.00038622               -0.00293605                0.01609238
               1.00867727                9.00008360               77.16276689                0.55461299               -0.06456722               -0.06495794                0.21595256                0.00043299               -0.00624653               -0.01325142
               2.00804187                8.99861993               77.16140370                0.05749716                0.03293824               -0.06316409                0.21056135                0.27881580                0.56171223               -0.02545713
               3.00933604                9.00273341               77.17147513                0.04501807               -0.15498565               -0.11664077                0.31024215                0.58172864                1.77460693               -0.23991343
               4.00494216                9.01272357               77.19458338                0.09345404               -0.32068427                0.09560686                0.20480957                0.38226900                1.33075812                0.52573409
               5.00292235                9.01598363               77.19696812                0.16387377               -0.15200676               -0.07045662                0.23057940                0.12157041                0.16295779               -0.01570920
               6.00190203                9.01733648               77.19712263                0.27487479               -0.09002441               -0.06985566                0.23805802                0.02093328                0.02823225               -0.00310996
               7.00112186                9.01832286               77.19689209                0.43022129               -0.07590372               -0.07190344                0.24098156                0.00347659                0.00478939               -0.00132930
               8.00038395                9.01924831               77.19658110                0.65241139               -0.07355281               -0.07295754                0.24293273                0.00054641                0.00022098               -0.00116153
               8.99965081                9.02016884               77.19625145                0.98811345               -0.07351203               -0.07351665                0.24473331                0.00001076               -0.00017247               -0.00093491
               9.99891371                9.02109765               77.19592600                1.00000000               -0.07370962               -0.07397712                0.24675263               -0.00043036                0.00016604                0.00060693
               0.01080600               10.00089262               77.16411046                1.00000000               -0.06633237               -0.06687414                0.22377383                0.00133306                0.01010422                0.01291559
               1.01014268                9.99943317               77.16276543                0.84235254               -0.06578508               -0.06504263                0.21798878                0.00124873                0.01632150               -0.00964752
               2.00949030                9.99798679               77.16154725                0.56364221               -0.27850969               -0.06331423                0.21284641                0.30667822                0.56432612               -0.01288727
               3.00457248               10.00266989               77.17117618                0.55316954               -0.39280715               -0.00635170                0.31175639                0.24836944                1.72333769               -0.00631980
               4.00163416               10.01248129               77.19445051                0.57554437               -0.15735492               -0.02422833                0.21043940                0.30188839                1.29816982                0.01347404
               5.00142538               10.01532367               77.19652516                0.61141244               -0.03750496               -0.06599579                0.23371417                0.05752988                0.13933918               -0.00045675
               6.00088406               10.01662582               77.19664740                0.67508581               -0.06156256               -0.07106556                0.24085401                0.01186475                0.02494500                0.00003451
               7.00019413               10.01759690               77.19640919                0.76615082               -0.07081158               -0.07259507                0.24384009                0.00168595                0.00357867               -0.00005445
               7.99946782               10.01851500               77.19609209                0.89881203               -0.07325183               -0.07333105                0.24585021                0.00005506               -0.00105037               -0.00026183
               8.99872910               10.01943026               77.19575478                1.00000000               -0.07424582               -0.07385751                0.24768078               -0.00027381               -0.00134004               -0.00045919
               9.99798291               10.02035295               77.19542976                0.99519894               -0.07461880               -0.07446991                0.24970570               -0.00081136               -0.00085883                0.00038327
               0.00332444                0.00605106               78.16541383                0.79566245               -0.05577615               -0.05579108                0.20161840                0.00187511                0.00034108                0.00011007
               1.00276668                0.00709030               78.16548775                0.53984006               -0.04146903               -0.06581164                0.20336187                0.01392443                0.00350143               -0.00071221
               2.00249506                0.00857099               78.16560959                0.49149461               -0.02634414               -0.06025461                0.20559635                0.00557841                0.01199767               -0.00218505
               3.00223980                0.01083600               78.16577321                0.51198499               -0.03135490               -0.06181528                0.20827608                0.00000085                0.01841639               -0.00218212
               4.00186796                0.01374859               78.16595626                0.54965139               -0.04278811               -0.06239142                0.21093508               -0.00075071                0.02106523               -0.00147951
               5.00138404                0.01708693               78.16614310                0.60060606               -0.05251844               -0.06312853                0.21332620               -0.00031298                0.02101256               -0.00096965
               6.00081759                0.02065833               78.16632361                0.66645605               -0.05929858               -0.06381158                0.21534860                0.00015252                0.01972815               -0.00077550
               7.00019806                0.02433035               78.16649857                0.75008848               -0.06341277               -0.06444656                0.21710043                0.00050057                0.01876169               -0.00108972
               7.99954934                0.02802498               78.16667777                0.85578567               -0.06549244               -0.06503647                0.21874193                0.00064113                0.01925829               -0.00180944
               8.99888822                0.03170845               78.16687668                0.98960295               -0.06635199               -0.06564512                0.22046268                0.00053914                0.01667972               -0.00301780
               9.99822230                0.03537698               78.16700982                1.00000000               -0.06659156               -0.06644287                0.22256234                0.00089597                0.01346174                0.01061608
               0.00230395                1.00549314               78.16542289                0.53984879               -0.06579909               -0.04147365                0.20339879                0.01387940               -0.00089652                0.00323599
               1.00164596                1.00643218               78.16548531                0.01048782               -0.08129774               -0.08136413                0.20501972                0.04151151               -0.00208137               -0.00163895
               2.00067800                1.00796844               78.16553311                0.01000000               -0.09974786               -0.03731404                0.20664923                0.11366871               -0.00858626                0.03602450
               2.99965100                1.01021784               78.16555018                0.01000000               -0.09715032               -0.00822941                0.20811794                0.15599264               -0.01579089                0.09021010
               3.99873499                1.01312468               78.16553869                0.01135417               -0.08624839                0.00863998                0.20942720                0.12624125               -0.02055760                0.11740378
               4.99792603                1.01645565               78.16550750                0.02446166               -0.07687886               -0.03779358                0.21068403                0.02358306               -0.02277091                0.02534834
               5.99719741                1.02002022               78.16546860                0.10737204               -0.07031442               -0.06301328                0.21201918               -0.00486046               -0.02294815               -0.02083382
               6.99651975                1.02368588               78.16543213                0.21615771               -0.06653562               -0.06342444                0.21358287               -0.00000232               -0.02163657               -0.01677674
               7.99586670                1.02737462               78.16541024                0.35973294               -0.06510694               -0.06439863                0.21544383                0.00107275               -0.01936471               -0.01282481
               8.99521761                1.03105200               78.16541171                0.55197230               -0.06519859               -0.06510335                0.21759001                0.00068858               -0.01404886               -0.00635943
               9.99456273                1.03471255               78.16549580                0.84078052               -0.06548795               -0.06641480                0.21979452                0.00083621               -0.01021144                0.01728886
               0.00172396                2.00522158               78.16547917                0.49150465               -0.06023405               -0.02622331                0.20575569                0.00551034               -0.00217644                0.01178330
               1.00112162                2.00546302               78.16547335                0.01000000               -0.03705919               -0.09998944                0.20652201                0.11352482                0.03548035               -0.00789933
               2.00098277                2.00782470               78.16621305                0.01000001               -0.04591023               -0.04640423                0.20100798                0.31530409                0.08061059                0.08174732
               3.00020341                2.01067141               78.16717068                0.01000000               -0.14138927                0.02128225                0.19984103                0.40941523                0.05485259                0.19493271
               3.99815499                2.01392139               78.16749553                0.01000000               -0.26216274                0.08898941                0.19908164                0.41811449               -0.11079655                0.36020817
               4.99496016                2.01633106               78.16539651                0.01000001               -0.23324183                0.03889695                0.20835021                0.39376443               -0.19751968                0.42916030
               5.99349015                2.01939807               78.16421179                0.01096271               -0.10582683                0.06476115                0.20920461                0.42058942               -0.10299771                0.63131334
               6.99284362                2.02306186               78.16405206                0.01496422               -0.06427360               -0.06703182                0.21084020                0.41563612               -0.05018897                0.57523998
               7.99220468                2.02673701               78.16392314                0.01000000               -0.06397835               -0.01948080                0.21301212                0.36812051               -0.04440513                0.81351346
               8.99156405                2.03040638               78.16388142                0.05832246               -0.06433810                0.01368068                0.21545589                0.28868296               -0.02668329                0.62478216
               9.99091792                2.03404868               78.16411803                0.56471535               -0.06461365               -0.31753368                0.21744657                0.33569720               -0.01353891                0.62844008
               0.00193129                3.00496868               78.16557875                0.51197079               -0.06179581               -0.03103080                0.20851098               -0.00012794               -0.00214597                0.01822961
               1.00131333                3.00443239               78.16543060                0.01000000               -0.00778042               -0.09757833                0.20789751                0.15601633                0.08947777               -0.01510274
               2.00177568                3.00704035               78.16711062                0.01000000                0.02146427               -0.14241010                0.19971065                0.41049707                0.19327145                0.05647822
               3.00174262                3.01064349               78.16908928                0.01000000               -0.01690276               -0.01508183                0.19897059                0.58104824                0.25240578                0.25386501
               4.00143763                3.01490447               78.17198279                0.01221672               -0.07089865                0.01533105                0.21108972                0.58384016                0.19684220                0.39707641
               5.00032465                3.01723359               78.17283507                0.01000000               -0.12796131                0.08622901                0.21901371                0.71138775                0.22841117                0.78518461
               5.99887840                3.02131544               78.17638409                0.01844683               -0.14155587                0.05065366                0.24931931                0.65518005                0.09495453                0.84356566
               6.99749353                3.02234524               78.17482794                0.01000000               -0.14969079               -0.05496099                0.24125307                0.64823473                0.13083470                0.95460974
               7.99588459                3.02698500               78.17919261                0.01782907               -0.19069684                0.01216836                0.23739654                0.81153803                0.00647390                1.29791789
               8.99367959                3.03132561               78.17505173                0.04778028               -0.09462596               -0.21321708                0.31655065                0.57030558               -0.22906188                1.80155487
               9.99399207                3.02836188               78.17484333                0.55554638                0.03124753               -0.47476145                0.32034090                0.23424700               -0.00556324                1.75327652
               0.00279397                4.00460097               78.16569707                0.54967739               -0.06237027               -0.04233758                0.21121803               -0.00089694               -0.00142145                0.02077622
               1.00217027                4.00351145               78.16535895                0.01136591                0.00938242               -0.08675298                0.20910502                0.12617615                0.11693228               -0.01985247
               2.00298162                4.00497650               78.16738469                0.01000000                0.08949988               -0.26469447                0.19849632                0.42138783                0.35759763               -0.10780064
               3.00396026                4.01036977               78.17191764                0.01221748                0.01300388               -0.06780092                0.21056473                0.58798440                0.39398465                0.19770938
               4.00324169                4.01422801               78.17459961                0.01000000               -0.05916637               -0.05376059                0.21797226                0.56495047                0.43430615                0.43520323
               5.00277694                4.01805564               78.17998285                0.01853205               -0.08798016               -0.00501711                0.24979880                0.49819029                0.27340202                0.46769200
               6.00148209                4.02041114               78.17945983                0.01000000               -0.13190905               -0.09153348                0.25405620                0.40598815                0.10845764                0.47943464
               7.00013876                4.02196264               78.18160368                0.01332865               -0.10135093               -0.00105791                0.26983683                0.59789804                0.41097239                0.95916532
               7.99945507                4.02698038               78.18733796                0.01429840                0.07272662               -0.21357846                0.28168318                0.60976717                0.78307688                1.18475495
               9.00159329                4.02614204               78.19738523                0.09485822                0.10376252               -0.37003886                0.19031973                0.35350537                0.50286295                1.31744606
              10.00153032                4.02455345               78.19738707                0.57651200               -0.00629647               -0.20535364                0.19648172                0.26989682                0.01520557                1.28504129
               0.00409239                5.00412193               78.16581840                0.60062868               -0.06310684               -0.05204630                0.21365621               -0.00045794               -0.00089742                0.02058989
               1.00346132                5.00269733               78.16526758                0.02447536               -0.03736364               -0.07736522                0.21027899                0.02251422                0.02583877               -0.02201757
               2.00334512                5.00174647               78.16524968                0.01000001                0.03947379               -0.23592163                0.20729135                0.39906432                0.42594539               -0.19362730
               3.00425080                5.00928747               78.17270050                0.01000000                0.08528271               -0.12322585                0.21840190                0.72426424                0.77905843                0.22729884
               4.00505077                5.01382926               78.17989439                0.01854221               -0.00727367               -0.08348551                0.24968943                0.50239181                0.46531712                0.27345214
               5.00410532                5.01713324               78.18099732                0.01000000               -0.09798017               -0.09498287                0.25402433                0.36857981                0.27888579                0.27820450
               6.00309117                5.01948477               78.18449848                0.01364995               -0.06115334               -0.04850027                0.27453948                0.40490252                0.62221731                0.77503835
               7.00288226                5.02232409               78.19258058                0.01306461                0.04046807               -0.05277333                0.29431772                0.35810846                0.83084381                1.01233322
               8.00390053                5.02271343               78.20048737                0.07849327                0.01471825               -0.25306366                0.22347345                0.27565774                0.39401957                0.69273285
               9.00317662                5.02392483               78.19990910                0.16512016               -0.06666772               -0.16326692                0.22140495                0.13260652               -0.01619741                0.17999487
              10.00256717                5.02425480               78.19959062                0.61213567               -0.06094471               -0.04190619                0.22470339                0.05736729                0.00046375                0.15786165
               0.00563400                6.00356004               78.16593243                0.66645707               -0.06379855               -0.05890520                0.21574680                0.00002259               -0.00068585                0.01915700
               1.00499601                6.00196414               78.16516858                0.10738587               -0.06306160               -0.07070742                0.21156782               -0.00615725               -0.01968755               -0.02212535
               2.00437277                6.00025807               78.16402400                0.01095991                0.06833732               -0.10663795                0.20770412                0.43074610                0.62538211               -0.10002524
               3.00636276                6.00790526               78.17614596                0.01843357                0.05354968               -0.13820674                0.24840973                0.67075861                0.83445911                0.09439183
               4.00544376                6.01255830               78.17929236                0.01000000               -0.09348715               -0.12882032                0.25380986                0.41073902                0.47578995                0.10684778
               5.00449302                6.01615598               78.18438970                0.01364048               -0.05272305               -0.05520090                0.27473697                0.40822850                0.77339528                0.61708186
               6.00438930                6.01944114               78.19366952                0.01340186               -0.02103751               -0.01597682                0.29115681                0.28087853                0.85327816                0.84845188
               7.00407227                6.02090717               78.20059676                0.07901984               -0.05109087               -0.10653913                0.22740828                0.14184963                0.36291510                0.42288902
               8.00336748                6.02191910               78.20032698                0.16382009               -0.06841100               -0.07763564                0.22941639                0.03019718                0.00031252                0.01523853
               9.00270405                6.02287670               78.19998041                0.27639771               -0.06748768               -0.09111211                0.23173014                0.02281919               -0.00107409                0.03068654
              10.00201773                6.02371533               78.19964728                0.67589178               -0.06863183               -0.06096005                0.23461275                0.01176646                0.00106609                0.03109463
               0.00728463                7.00294382               78.16604000                0.75006702               -0.06444875               -0.06317677                0.21758644                0.00039192               -0.00098143                0.01804470
               1.00664015                7.00128318               78.16507226                0.21621308               -0.06328536               -0.06677207                0.21309394               -0.00067656               -0.01583303               -0.02075989
               2.00601893                6.99961371               78.16380749                0.01496519               -0.06372055               -0.06400442                0.20910462                0.42731351                0.56873721               -0.04798092
               3.00536574                7.00652334               78.17453393                0.01000000               -0.05020514               -0.14744594                0.23991099                0.67028592                0.94234860                0.12663866
               4.00501482                7.01125285               78.18131891                0.01333998                0.00106617               -0.09524523                0.26968769                0.61163085                0.94854349                0.40301188
               5.00538706                7.01602923               78.19229255                0.01306991               -0.05286376                0.04787270                0.29483740                0.36700781                1.00557745                0.81787255
               6.00395755                7.01916524               78.20040818                0.07900585               -0.10728880               -0.04928211                0.22843735                0.14449470                0.42538892                0.35527212
               7.00324128                7.02019330               78.20021766                0.16444985               -0.07113030               -0.07105043                0.23118669                0.01365522                0.00607830               -0.00013199
               8.00253494                7.02116072               78.19992704                0.27756021               -0.07022528               -0.07415429                0.23384229                0.00823130                0.00126999                0.00070868
               9.00183678                7.02210259               78.19961824                0.43202490               -0.07048491               -0.07517966                0.23660366                0.00376041                0.00080281                0.00423818
              10.00112524                7.02303560               78.19929665                0.76704230               -0.07115328               -0.06986401                0.23951383                0.00137400                0.00093207                0.00679883
               0.00896311                8.00229651               78.16615080                0.85576918               -0.06505150               -0.06545401                0.21933154                0.00056540               -0.00167747                0.01840552
               1.00831260                8.00062870               78.16499041                0.35977214               -0.06421141               -0.06515465                0.21490995                0.00081391               -0.01208955               -0.01850415
               2.00767888                7.99897798               78.16362236                0.01000000               -0.00916315               -0.06356890                0.21115180                0.38211286                0.80044393               -0.04233798
               3.00812933                8.00495634               78.17872408                0.01783749                0.02458017               -0.19071183                0.23611339                0.84021987                1.27730447                0.00694260
               4.00817049                8.01065340               78.18685524                0.01430545               -0.21042748                0.07914527                0.28189459                0.63293677                1.16812777                0.76408072
               5.00392078                8.01711344               78.19994752                0.07849368               -0.25276872                0.01730526                0.22630650                0.28460142                0.68541151                0.38364891
               6.00311511                8.01845550               78.19997277                0.16380935               -0.07854489               -0.06898744                0.23135243                0.03137875                0.01978150               -0.00485188
               7.00234989                8.01948616               78.19975313                0.27751781               -0.07461469               -0.07045576                0.23481463                0.00846153                0.00466470               -0.00321305
               8.00162282                8.02043602               78.19947006                0.43289239               -0.07227592               -0.07221579                0.23759351                0.00240363                0.00117665               -0.00198758
               9.00090437                8.02137311               78.19916706                0.65386221               -0.07218184               -0.07288974                0.24031791                0.00058091                0.00047771               -0.00087115
              10.00017918                8.02231805               78.19885688                0.89932974               -0.07251861               -0.07256992                0.24324368               -0.00024024                0.00052790                0.00147375
               0.01063155                9.00163474               78.16628006                0.98959195               -0.06565986               -0.06648530                0.22116060                0.00050848               -0.00284204                0.01592162
               1.00997495                8.99998009               78.16493114                0.55212588               -0.06489984               -0.06509216                0.21699610                0.00064825               -0.00591682               -0.01341088
               2.00933355                8.99834233               78.16352206                0.05851693                0.02598838               -0.06381371                0.21348637                0.30040100                0.61523772               -0.02542397
               3.01049472                9.00270910               78.17460991                0.04800343               -0.19085453               -0.10233345                0.31416926                0.58590100                1.76739181               -0.22355126
               4.00551646                9.01283575               78.19658654                0.09496025               -0.36088625                0.10364189                0.19509964                0.37177598                1.29109776                0.48982344
               5.00327699                9.01637533               78.19924891                0.16510560               -0.16520312               -0.06828886                0.22518389                0.13701321                0.17967647               -0.01841688
               6.00221240                9.01778549               78.19948681                0.27629656               -0.09234999               -0.06836880                0.23454091                0.02376549                0.03169563               -0.00345462
               7.00142999                9.01878419               78.19929008                0.43187573               -0.07581634               -0.07103717                0.23847202                0.00392824                0.00510406               -0.00140901
               8.00069607                9.01971640               78.19900252                0.65368998               -0.07318143               -0.07245175                0.24125444                0.00061508               -0.00004816               -0.00126407
               8.99996636                9.02064480               78.19869468                0.98734363               -0.07327578               -0.07327986                0.24388400                0.00001207               -0.00037159               -0.00110900
               9.99923055                9.02158421               78.19839350                0.99993405               -0.07358075               -0.07400390                0.24679034               -0.00056372                0.00008936                0.00042333
               0.01228258               10.00096680               78.16634644                1.00000000               -0.06646073               -0.06679432                0.22330528                0.00110971                0.01022024                0.01288393
               1.01161798                9.99932686               78.16495083                0.84082860               -0.06623440               -0.06532321                0.21920342                0.00104823                0.01671804               -0.00977827
               2.01095790                9.99770171               78.16368785                0.56490722               -0.31320241               -0.06406209                0.21561628                0.34157499                0.61774350               -0.01297453
               3.00535393               10.00290967               78.17433017                0.55578685               -0.45090595                0.02005679                0.31840646                0.23714769                1.71917089               -0.00454257
               4.00193978               10.01272624               78.19651766                0.57662277               -0.18213061               -0.01095180                0.20202138                0.28423131                1.25590520                0.01455733
               5.00171132               10.01574766               78.19884183                0.61212658               -0.03791063               -0.06276708                0.22925191                0.06152666                0.15367474               -0.00018012
               6.00118156               10.01708812               78.19904359                0.67581954               -0.06068903               -0.06973681                0.23821844                0.01280473                0.02825309                0.00015207
               7.00049754               10.01806542               78.19883985                0.76690470               -0.07035257               -0.07187689                0.24221396                0.00169762                0.00405999                0.00000617
               7.99977451               10.01898698               78.19854680                0.89915999               -0.07303641               -0.07294207                0.24505846               -0.00005120               -0.00119072               -0.00026058
               8.99903681               10.01990751               78.19823159                0.99992010               -0.07427112               -0.07372856                0.24771719               -0.00040599               -0.00147693               -0.00051572
               9.99828909               10.02083797               78.19793089                0.99513761               -0.07477171               -0.07462330                0.25062872               -0.00110031               -0.00092745                0.00028438
               0.00324507                0.00603456               79.16742736                0.79585378               -0.05497587               -0.05499228                0.20105824                0.00212627                0.00031960                0.00018448
               1.00269531                0.00707669               79.16751910                0.54023383               -0.03897494               -0.06628858                0.20288714                0.01585038                0.00381851               -0.00082927
               2.00246557                0.00861939               79.16766416                0.49194421               -0.02253709               -0.05984222                0.20531946                0.00636406                0.01317538               -0.00237711
               3.00224457                0.01103748               79.16785557                0.51248643               -0.02893161               -0.06158837                0.20823249                0.00028799                0.01991673               -0.00227680
               4.00188694                0.01415905               79.16806600                0.55022574               -0.04211039               -0.06221833                0.21101988               -0.00047407                0.02221578               -0.00144265
               5.00140237                0.01772664               79.16827691                0.60108043               -0.05297788               -0.06303035                0.21343041                0.00004145                0.02146245               -0.00084374
               6.00082738                0.02152317               79.16847731                0.66672218               -0.06024726               -0.06377677                0.21537178                0.00054656                0.01944718               -0.00059710
               7.00019742                0.02540462               79.16866911                0.75000809               -0.06433063               -0.06445125                0.21694866                0.00087727                0.01794067               -0.00089078
               7.99954077                0.02929224               79.16886374                0.85519569               -0.06603898               -0.06507460                0.21837084                0.00093618                0.01820493               -0.00159425
               8.99887664                0.03315913               79.16907886                0.98855500               -0.06645256               -0.06572094                0.21984837                0.00068538                0.01586196               -0.00277396
               9.99821172                0.03701130               79.16923319                1.00000000               -0.06649195               -0.06658220                0.22197157                0.00062671                0.01295661                0.01042917
               0.00222421                1.00548464               79.16745470                0.54022964               -0.06628028               -0.03897440                0.20293107                0.01582490               -0.00095354                0.00368175
               1.00156140                1.00641381               79.16753367                0.01047879               -0.08376924               -0.08383835                0.20462587                0.04729786               -0.00218667               -0.00188190
               2.00054882                1.00802097               79.16759820                0.01000000               -0.10418896               -0.03915475                0.20637174                0.12333356               -0.00922288                0.03167853
               2.99947762                1.01042160               79.16763069                0.01000000               -0.10056003               -0.01006779                0.20802599                0.16815131               -0.01691393                0.08473512
               3.99853762                1.01353687               79.16763311                0.01162660               -0.08784532                0.00674514                0.20948970                0.13483635               -0.02185771                0.11168331
               4.99772072                1.01709634               79.16761522                0.02463340               -0.07718803               -0.03789198                0.21090857                0.02798179               -0.02394112                0.02573284
               5.99699386                1.02088541               79.16759050                0.10711979               -0.06995288               -0.06257002                0.21243614               -0.00192179               -0.02375315               -0.02012673
               6.99632166                1.02476011               79.16757071                0.21530130               -0.06604911               -0.06349741                0.21422194                0.00188071               -0.02196991               -0.01599155
               7.99567288                1.02864149               79.16756860                0.35809409               -0.06488484               -0.06471436                0.21635472                0.00198545               -0.01926933               -0.01202110
               8.99502396                1.03250192               79.16759299                0.54937872               -0.06535284               -0.06549565                0.21881421                0.00095047               -0.01379249               -0.00565333
               9.99436582                1.03634548               79.16770000                0.83919234               -0.06581422               -0.06694284                0.22119700                0.00060539               -0.01003012                0.01728695
               0.00170324                2.00525507               79.16753527                0.49196903               -0.05982963               -0.02241789                0.20545746                0.00630162               -0.00236747                0.01310000
               1.00110494                2.00539993               79.16753742                0.01000000               -0.03893905               -0.10441857                0.20628320                0.12323297                0.03132103               -0.00872455
               2.00092446                2.00783630               79.16820462                0.01000001               -0.05066192               -0.05105939                0.19704397                0.33768374                0.07296461                0.07377857
               3.00009170                2.01083612               79.16914123                0.01000000               -0.15077644                0.01809216                0.19512917                0.43934860                0.04770177                0.18347118
               3.99790893                2.01429395               79.16945910                0.01000000               -0.27391205                0.08868592                0.19340339                0.45577673               -0.11113175                0.35419615
               4.99461346                2.01696880               79.16748309                0.01000001               -0.23918749                0.03449922                0.20816880                0.43336543               -0.19321073                0.43234293
               5.99312518                2.02027177               79.16631247                0.01087723               -0.10672570                0.06363499                0.21118754                0.44887141               -0.10248841                0.65425912
               6.99247895                2.02413467               79.16617041                0.01475973               -0.06432557               -0.08591967                0.21322110                0.43654434               -0.04917960                0.58991077
               7.99183867                2.02799795               79.16606570                0.01000000               -0.06436417               -0.01572592                0.21592870                0.39792527               -0.04296695                0.80664613
               8.99119166                2.03184922               79.16605108                0.05986961               -0.06509730                0.00347034                0.21893036                0.31023127               -0.02568988                0.67635665
               9.99053672                2.03567244               79.16630687                0.56648116               -0.06549439               -0.35463831                0.22072609                0.37111646               -0.01318506                0.68125054
               0.00206054                3.00503628               79.16766333                0.51251654               -0.06156972               -0.02863001                0.20840991                0.00018222               -0.00224390                0.01983549
               1.00144484                3.00432543               79.16750926                0.01000000               -0.00971195               -0.10094995                0.20784377                0.16825411                0.08427519               -0.01640162
               2.00186630                3.00699978               79.16908071                0.01000000                0.01810507               -0.15142559                0.19501919                0.44023142                0.18227859                0.04878527
               3.00180694                3.01078344               79.17103075                0.01000000               -0.01729102               -0.01557744                0.18928590                0.62499238                0.24859666                0.24943571
               4.00152048                3.01531058               79.17403313                0.01230977               -0.06983675                0.01619803                0.19453959                0.63208294                0.19952458                0.39612005
               5.00041021                3.01778632               79.17498143                0.01000000               -0.13575302                0.08448138                0.20410410                0.76657782                0.24796128                0.79757816
               5.99880542                3.02215811               79.17889430                0.01851238               -0.15419184                0.04542865                0.24800828                0.69666421                0.10892138                0.86691841
               6.99732637                3.02304171               79.17719405                0.01000000               -0.14442902               -0.07755195                0.24257024                0.70234935                0.09120541                0.99308602
               7.99591684                3.02832697               79.18115780                0.01854635               -0.18861362                0.01606512                0.09061049                0.85072541                0.03110794                1.15818479
               8.99355410                3.03257133               79.17822175                0.05143108               -0.08875661               -0.24741704                0.31448179                0.56449376               -0.17277872                1.78110135
               9.99414170                3.02925271               79.17807386                0.55872919                0.05876075               -0.53245765                0.32397736                0.22397852               -0.00301905                1.73798827
               0.00312858                4.00468247               79.16780931                0.55018223               -0.06220527               -0.04170199                0.21125092               -0.00059697               -0.00138543                0.02200726
               1.00250652                4.00338093               79.16745052                0.01158754                0.00712527               -0.08830522                0.20924384                0.13510008                0.11122738               -0.02131486
               2.00327108                4.00480779               79.16934046                0.01000000                0.08871126               -0.27618772                0.19316119                0.45891807                0.35216596               -0.10881052
               3.00428075                4.01052457               79.17396285                0.01229654                0.01383113               -0.06692940                0.19423996                0.63593729                0.39399152                0.19974509
               4.00354770                4.01461791               79.17671622                0.01000000               -0.05916253               -0.05403016                0.19815868                0.60890546                0.44692909                0.44686059
               5.00309750                4.01865843               79.18244732                0.01868337               -0.08723173               -0.00253097                0.23401646                0.53864833                0.29412526                0.48417322
               6.00180307                4.02118035               79.18200071                0.01000000               -0.13702154               -0.10106347                0.24952830                0.43370715                0.12680301                0.49700733
               7.00035707                4.02258363               79.18433261                0.01368317               -0.12397546               -0.00796691                0.28091295                0.65101886                0.45457185                0.99350203
               7.99932356                4.02831925               79.19034747                0.01495712                0.05993675               -0.26017865                0.33716525                0.62790698                0.73890932                1.00786074
               9.00155580                4.02690088               79.19923578                0.09671109                0.11649845               -0.40783948                0.17959893                0.32968403                0.43980218                1.26973081
              10.00165353                4.02502329               79.19930452                0.57782570                0.00977269               -0.22830755                0.18570685                0.24892465                0.01631931                1.23409192
               0.00465169                5.00420224               79.16795503                0.60106766               -0.06301636               -0.05256292                0.21370227               -0.00008198               -0.00077209                0.02113265
               1.00402153                5.00255933               79.16737160                0.02463883               -0.03753414               -0.07762776                0.21059447                0.02711595                0.02609382               -0.02332317
               2.00390101                5.00147603               79.16732370                0.01000001                0.03470147               -0.24185203                0.20715373                0.43875075                0.42967083               -0.18995139
               3.00471556                5.00944485               79.17484129                0.01000000                0.08318607               -0.13097226                0.20378118                0.77922622                0.79269458                0.24655626
               4.00556473                5.01422998               79.18235614                0.01868405               -0.00474099               -0.08303669                0.23383105                0.54292072                0.48264154                0.29320596
               5.00462074                5.01773570               79.18351928                0.01000000               -0.10051886               -0.09743469                0.24549242                0.39292049                0.29750550                0.29614736
               6.00355436                5.02013684               79.18727354                0.01410777               -0.07064502               -0.06126400                0.28342679                0.40759126                0.65307976                0.79749928
               7.00320784                5.02288238               79.19562765                0.01377245                0.03016881               -0.06436397                0.31161834                0.34926514                0.81958278                0.96316341
               8.00415773                5.02312340               79.20269589                0.07949868                0.01179508               -0.29936495                0.21720299                0.29354257                0.34669309                0.65028845
               9.00344374                5.02441454               79.20209432                0.16667470               -0.06411779               -0.17951882                0.21497023                0.15127029               -0.02000834                0.19972218
              10.00287538                5.02468656               79.20181370                0.61303390               -0.05683653               -0.04343618                0.21948845                0.06191489                0.00077511                0.17502032
               0.00641276                6.00363122               79.16808962                0.66666921               -0.06377029               -0.05990747                0.21570579                0.00043369               -0.00051608                0.01899165
               1.00577506                6.00182837               79.16728633                0.10713990               -0.06260916               -0.07030205                0.21207519               -0.00302260               -0.01915605               -0.02305005
               2.00516058                5.99997074               79.16610970                0.01087249                0.06681315               -0.10748032                0.20976868                0.45871405                0.64914830               -0.09990272
               3.00711132                6.00790513               79.17865309                0.01851419                0.04773454               -0.15094665                0.24769108                0.71179676                0.85954425                0.10774461
               4.00611527                6.01295718               79.18183058                0.01000000               -0.10311329               -0.13417379                0.24917634                0.43873363                0.49441595                0.12455562
               5.00504905                6.01670973               79.18716769                0.01412362               -0.06535233               -0.06469967                0.28359691                0.41075813                0.79651379                0.64752992
               6.00480822                6.01995507               79.19663921                0.01420265               -0.03466241               -0.02956574                0.30253258                0.26320576                0.82276695                0.81788546
               7.00435581                6.02129635               79.20284493                0.08018083               -0.05729860               -0.11444179                0.22189445                0.13477956                0.32395367                0.38027954
               8.00366225                6.02233195               79.20259870                0.16531133               -0.06688785               -0.07734465                0.22456011                0.03441723               -0.00106877                0.01642879
               9.00301805                6.02331050               79.20227898                0.27810475               -0.06572303               -0.09411792                0.22775482                0.02620773               -0.00161844                0.03493401
              10.00234779                6.02415457               79.20197941                0.67677150               -0.06702609               -0.06034625                0.23168437                0.01273691                0.00117753                0.03509846
               0.00826606                7.00300409               79.16821488                0.75001247               -0.06445081               -0.06412406                0.21734729                0.00078109               -0.00079816                0.01735978
               1.00762155                7.00115329               79.16720628                0.21533796               -0.06337618               -0.06625016                0.21380612                0.00132539               -0.01518883               -0.02121989
               2.00699853                6.99932642               79.16590998                0.01476719               -0.08282442               -0.06410050                0.21176877                0.44755244                0.58391921               -0.04732887
               3.00596506                7.00642592               79.17688836                0.01000000               -0.07318673               -0.14197752                0.24189252                0.72317618                0.98170491                0.08630450
               4.00553480                7.01154651               79.18404755                0.01368813               -0.00635226               -0.11870184                0.28071982                0.66393183                0.98428440                0.44655349
               5.00583802                7.01644171               79.19534666                0.01376308               -0.06514740                0.03698411                0.31225338                0.35737712                0.95783947                0.80735697
               6.00423185                7.01954552               79.20266709                0.08018477               -0.11557365               -0.05538977                0.22286032                0.13691240                0.38323626                0.31649615
               7.00352654                7.02059354               79.20250708                0.16607766               -0.06999615               -0.06990322                0.22643258                0.01538098                0.00539930               -0.00060022
               8.00283193                7.02157651               79.20224764                0.27951089               -0.06906295               -0.07365137                0.23006828                0.00944354                0.00081237                0.00079100
               9.00214528                7.02253218               79.20197109                0.43398803               -0.06949707               -0.07518830                0.23380703                0.00430170                0.00064056                0.00463214
              10.00144199                7.02347963               79.20168339                0.76793420               -0.07032968               -0.06947260                0.23775422                0.00135919                0.00097361                0.00728266
               0.01012999                8.00234873               79.16834206                0.85521355               -0.06507520               -0.06599635                0.21883832                0.00087103               -0.00148497                0.01750520
               1.00947924                8.00050337               79.16714375                0.35808791               -0.06454953               -0.06491632                0.21587706                0.00176901               -0.01139544               -0.01854870
               2.00883900                7.99868873               79.16574786                0.01000000               -0.00622382               -0.06402260                0.21437979                0.41157668                0.79424147               -0.04126735
               3.00935476                8.00506558               79.18067731                0.01854631                0.02695581               -0.18848134                0.09083531                0.87743725                1.13816105                0.02894935
               4.00937811                8.01058314               79.18986660                0.01496214               -0.25785889                0.06555568                0.33641832                0.64870795                0.99532841                0.72281885
               5.00419758                8.01744942               79.20218460                0.07947695               -0.29917381                0.01396351                0.22013348                0.30208620                0.64470400                0.33711036
               6.00339464                8.01884727               79.20226352                0.16530017               -0.07825711               -0.06744769                0.22647106                0.03558923                0.02088305               -0.00613364
               7.00263244                8.01989829               79.20208341                0.27948493               -0.07410792               -0.06927935                0.23101482                0.00966725                0.00465058               -0.00354846
               8.00191248                8.02085893               79.20183262                0.43498918               -0.07157420               -0.07151047                0.23475666                0.00274557                0.00082636               -0.00224407
               9.00120095                8.02180674               79.20156143                0.65528779               -0.07162066               -0.07250264                0.23845794                0.00066489                0.00029055               -0.00119628
              10.00048006                8.02276511               79.20128531                0.89972359               -0.07208899               -0.07237642                0.24241926               -0.00036898                0.00049726                0.00118629
               0.01197421                9.00168417               79.16848851                0.98851368               -0.06572827               -0.06655936                0.22042189                0.00066156               -0.00262718                0.01523786
               1.01131693                8.99985496               79.16710681                0.54948098               -0.06531777               -0.06525652                0.21829601                0.00090977               -0.00528393               -0.01326860
               2.01066786                8.99804597               79.16567342                0.06004466                0.01512347               -0.06464988                0.21725490                0.32140785                0.66718366               -0.02466831
               3.01161940                9.00265629               79.17775852                0.05164292               -0.22713684               -0.09635265                0.31272792                0.57914869                1.75081589               -0.16834301
               4.00612512                9.01285762               79.19848537                0.09681276               -0.40018934                0.11635223                0.18438803                0.34635879                1.24718575                0.42879753
               5.00361561                9.01672098               79.20147180                0.16663460               -0.18151783               -0.06575941                0.21878525                0.15571588                0.19929857               -0.02213209
               6.00249476                9.01819657               79.20181345                0.27802488               -0.09536901               -0.06659859                0.23054402                0.02717170                0.03589293               -0.00391580
               7.00170823                9.01920795               79.20166153                0.43384440               -0.07581849               -0.07003972                0.23565238                0.00447087                0.00546216               -0.00151788
               8.00097839                9.02014630               79.20140619                0.65511604               -0.07279186               -0.07188444                0.23938312                0.00069850               -0.00039972               -0.00140427
               9.00025239                9.02108213               79.20112913                0.98630062               -0.07302708               -0.07303039                0.24297084                0.00001607               -0.00061718               -0.00133272
               9.99951785                9.02203211               79.20086181                0.99899346               -0.07345422               -0.07406241                0.24690740               -0.00071755               -0.00000350                0.00018841
               0.01380162               10.00101755               79.16857657                1.00000000               -0.06659966               -0.06666182                0.22260219                0.00081010                0.01011004                0.01248397
               1.01313563                9.99919824               79.16714949                0.83926211               -0.06678988               -0.06567258                0.22069504                0.00077921                0.01682526               -0.00967831
               2.01246583                9.99739574               79.16585958                0.56666933               -0.35047720               -0.06502322                0.21915370                0.37681129                0.67131726               -0.01273130
               3.00612608               10.00313853               79.17754431                0.55893707               -0.51126127                0.04822348                0.32265604                0.22639086                1.70835201               -0.00203290
               4.00224060               10.01291019               79.19849093                0.57792946               -0.20765658                0.00525675                0.19125700                0.26133316                1.20889973                0.01573593
               5.00197295               10.01613423               79.20111020                0.61302651               -0.03947522               -0.05867501                0.22405432                0.06598947                0.17076917                0.00016017
               6.00145110               10.01751530               79.20141177                0.67670679               -0.06004128               -0.06812686                0.23525677                0.01379654                0.03227863                0.00029937
               7.00077213               10.01849750               79.20125347                0.76781362               -0.06994115               -0.07104582                0.24042243                0.00168630                0.00459149                0.00006999
               8.00005227               10.01942124               79.20099326                0.89955249               -0.07283289               -0.07250604                0.24421229               -0.00018048               -0.00140731               -0.00027138
               8.99931547               10.02034613               79.20070912                0.99898853               -0.07432571               -0.07360007                0.24782572               -0.00056130               -0.00165662               -0.00058953
               9.99856576               10.02128387               79.20044233                0.99497026               -0.07497089               -0.07482411                0.25176650               -0.00143565               -0.00101190                0.00016539
               0.00314735                0.00600006               80.16943500                0.79591833               -0.05411080               -0.05411929                0.20049096                0.00240871                0.00032204                0.00026801
               1.00260625                0.00704457               80.16954549                0.54051050               -0.03626274               -0.06683403                0.20242179                0.01801257                0.00421924               -0.00092974
               2.00242210                0.00865536               80.16971598                0.49247902               -0.01849773               -0.05938117                0.20506649                0.00722490                0.01453706               -0.00256587
               3.00223629                0.01124022               80.16993786                0.51307229               -0.02655816               -0.06133352                0.20823095                0.00066119                0.02150452               -0.00234977
               4.00189094                0.01458553               80.17017666                0.55080612               -0.04171550               -0.06202842                0.21116530               -0.00010224                0.02324911               -0.00135680
               5.00140198                0.01839344               80.17041170                0.60159392               -0.05382974               -0.06293169                0.21358062                0.00050703                0.02160123               -0.00065184
               6.00081434                0.02242000               80.17063105                0.66698318               -0.06157697               -0.06374750                0.21538579                0.00104690                0.01865317               -0.00034932
               7.00017044                0.02650934               80.17083755                0.74985443               -0.06553242               -0.06445840                0.21670288                0.00135038                0.01645959               -0.00060799
               7.99950369                0.03058338               80.17104519                0.85446669               -0.06672175               -0.06511447                0.21781221                0.00130284                0.01641291               -0.00128353
               8.99883601                0.03462471               80.17127364                0.98718620               -0.06654670               -0.06579981                0.21894795                0.00086379                0.01442258               -0.00239830
               9.99817276                0.03865195               80.17144926                1.00000000               -0.06632482               -0.06673364                0.22107250                0.00025881                0.01198758                0.00996888
               0.00212694                1.00545887               80.16948151                0.54058755               -0.06682146               -0.03625544                0.20244150                0.01798365               -0.00101323                0.00418758
               1.00145872                1.00637623               80.16957783                0.01000000               -0.08652078               -0.08658146                0.20422626                0.05375580               -0.00227545               -0.00207318
               2.00039652                1.00806155               80.16966054                0.01000000               -0.10904516               -0.04187949                0.20612127                0.13334054               -0.00980484                0.02535669
               2.99927782                1.01062689               80.16971070                0.01000000               -0.10416086               -0.01497250                0.20799331                0.17851859               -0.01795693                0.07740920
               3.99831330                1.01396525               80.16972848                0.01188327               -0.08940009                0.00098810                0.20966870                0.14183960               -0.02305310                0.10299928
               4.99748982                1.01776412               80.16972567                0.02481456               -0.07732208               -0.03908668                0.21129824                0.03289369               -0.02493071                0.02545385
               5.99676686                1.02178252               80.16971732                0.10688220               -0.06937820               -0.06202701                0.21305336                0.00196767               -0.02430116               -0.01872769
               6.99610225                1.02586475               80.16971657                0.21438037               -0.06539137               -0.06363040                0.21509268                0.00430350               -0.02195818               -0.01457701
               7.99545903                1.02993224               80.16973733                0.35625151               -0.06459461               -0.06513271                0.21754164                0.00314684               -0.01875040               -0.01071257
               8.99481036                1.03396671               80.16978800                0.54660830               -0.06554661               -0.06599789                0.22036989                0.00127290               -0.01317080               -0.00459499
               9.99414810                1.03798462               80.16991974                0.83754804               -0.06622581               -0.06760581                0.22294979                0.00028436               -0.00958040                0.01692586
               0.00167231                2.00527495               80.16958832                0.49248321               -0.05936313               -0.01837638                0.20515444                0.00717936               -0.00255665                0.01454621
               1.00107868                2.00531294               80.16959902                0.01000000               -0.04170311               -0.10924860                0.20603688                0.13327770                0.02514238               -0.00946719
               2.00083825                2.00781777               80.17015393                0.01000001               -0.05878573               -0.05906625                0.20026167                0.35655378                0.06196275                0.06247522
               2.99990297                2.01094077               80.17107327                0.01000000               -0.16238802                0.00918494                0.19261581                0.46359153                0.03709586                0.16488659
               3.99759049                2.01460529               80.17136360                0.01000000               -0.28301949                0.08022510                0.19043205                0.49175352               -0.11378875                0.33407917
               4.99424258                2.01761171               80.16955989                0.01000001               -0.24187122                0.02283960                0.20868686                0.47535283               -0.18527917                0.42358253
               5.99275307                2.02117946               80.16843554                0.01078960               -0.10678902                0.05915237                0.21386417                0.48511840               -0.09932950                0.67355032
               6.99210680                2.02523673               80.16831649                0.01457611               -0.06441972               -0.09099927                0.21646102                0.45265754               -0.04680970                0.60932354
               7.99146467                2.02928073               80.16824171                0.01000000               -0.06488540               -0.20326560                0.21985902                0.40440179               -0.04018661                0.69192270
               8.99080909                2.03330475               80.16826003                0.06214357               -0.06610185               -0.01018888                0.22349737                0.32583545               -0.02381341                0.72269750
               9.99014263                2.03729984               80.16853255                0.56891435               -0.06664541               -0.39303146                0.22497845                0.40347716               -0.01242213                0.73157836
               0.00219456                3.00509134               80.16974695                0.51311989               -0.06130976               -0.02627719                0.20834824                0.00056799               -0.00231856                0.02150415
               1.00158146                3.00419125               80.16958747                0.01000000               -0.01473962               -0.10450649                0.20783583                0.17869357                0.07710588               -0.01758480
               2.00189976                3.00688022               80.17101101                0.01000000                0.00903354               -0.16302361                0.19255819                0.46468441                0.16414929                0.03815964
               3.00176213                3.01081058               80.17287500                0.01000000               -0.02111622               -0.01933186                0.18328756                0.66254429                0.23024631                0.23065208
               4.00147744                3.01556975               80.17587358                0.01241636               -0.06697109                0.01184635                0.17736248                0.67578207                0.18513814                0.37140783
               5.00042271                3.01822092               80.17691716                0.01000000               -0.13166148                0.07947734                0.18035618                0.82641023                0.26049997                0.77963617
               5.99884421                3.02296557               80.18134426                0.01864387               -0.16842870                0.03962943                0.22930089                0.76018273                0.13518396                0.87546649
               6.99705413                3.02404477               80.17967934                0.01000000               -0.16825804               -0.09188220                0.25709630                0.58389948               -0.02702866                1.02822797
               7.99547905                3.02586693               80.18100482                0.01000001               -0.18730846               -0.18406113               -0.03664373                0.87917895                0.01971109                1.29400925
               8.99330796                3.03376293               80.18134137                0.05593405               -0.06257869               -0.28203310                0.31044972                0.74401238               -0.01210204                1.75862380
               9.99422747                3.03012399               80.18132288                0.56264717                0.09195107               -0.59021915                0.32186809                0.21493500                0.00225527                1.71323188
               0.00348385                4.00474941               80.16992209                0.55077811               -0.06201772               -0.04135361                0.21134324               -0.00019768               -0.00130879                0.02313753
               1.00286367                4.00322281               80.16954383                0.01188557                0.00143809               -0.08980965                0.20947525                0.14204791                0.10300502               -0.02262271
               2.00351261                4.00455730               80.17124791                0.01000000                0.08003298               -0.28510157                0.19027330                0.49502033                0.33264177               -0.11198052
               3.00446433                4.01055413               80.17580243                0.01240956                0.00915961               -0.06411129                0.17746525                0.67975211                0.36999895                0.18520893
               4.00369580                4.01484222               80.17856278                0.01000000               -0.05446858               -0.04953672                0.16986334                0.65976451                0.43209342                0.43109515
               5.00337496                4.01920125               80.18466318                0.01890249               -0.07814658                0.00574572                0.18144347                0.59225767                0.30391064                0.48420571
               6.00213287                4.02197205               80.18445039                0.01000000               -0.12457638               -0.10846558                0.23281911                0.46990093                0.15717865                0.50880153
               7.00088343                4.02339908               80.18722193                0.01415836               -0.14013924               -0.04848685                0.28376587                0.52124460                0.52125445                1.03139260
               7.99933008                4.02559951               80.19408126                0.01580051                0.02744235               -0.11994803                0.44242524                0.65768381                0.77910665                1.07876710
               9.00143228                4.02766409               80.20097720                0.09906508                0.11945711               -0.44434283                0.16610696                0.51233128                0.33324866                1.22441531
              10.00171923                4.02549545               80.20110121                0.57946854                0.02869493               -0.25218315                0.17320414                0.22895873                0.01553316                1.18009809
               0.00524381                5.00426427               80.17009245                0.60157034               -0.06292792               -0.05346936                0.21381283                0.00040017               -0.00059429                0.02136224
               1.00461453                5.00239506               80.16947947                0.02481784               -0.03874809               -0.07771725                0.21106537                0.03215334                0.02581312               -0.02442692
               2.00446884                5.00117819               80.16939276                0.01000001                0.02288624               -0.24417815                0.20783868                0.48048315                0.42153474               -0.18288603
               3.00507225                5.00952836               80.17677612                0.01000000                0.07783828               -0.12705281                0.18037998                0.83846264                0.77576118                0.25875946
               4.00602561                5.01457901               80.18457101                0.01889446                0.00328906               -0.07421097                0.18136107                0.59645748                0.48331027                0.30222653
               5.00513803                5.01833583               80.18590717                0.01000000               -0.09906059               -0.09610240                0.23108034                0.42284793                0.31625767                0.31430373
               6.00404440                5.02079626               80.19016702                0.01474456               -0.06432335               -0.07833740                0.30732675                0.38868599                0.66979905                0.82157580
               7.00385157                5.02307503               80.19881295                0.01468047                0.01616615               -0.08828774                0.31607416                0.31900587                0.77581136                0.91066992
               8.00436772                5.02346797               80.20483143                0.08075401               -0.00964607               -0.14517907                0.20909133                0.31915080                0.28636999                0.56944268
               9.00365864                5.02487608               80.20420850                0.16860620               -0.06119003               -0.19827368                0.20733818                0.17355236               -0.02455759                0.22282092
              10.00314392                5.02508032               80.20398038                0.61415948               -0.05147242               -0.04739212                0.21354256                0.06648451                0.00151610                0.19635481
               0.00723027                6.00368002               80.17024655                0.66696877               -0.06374535               -0.06128444                0.21566344                0.00094730               -0.00028402                0.01829460
               1.00659281                6.00166846               80.16941008                0.10688064               -0.06206460               -0.06968488                0.21276622                0.00102294               -0.01796965               -0.02371864
               2.00598897                5.99967374               80.16821938                0.01079714                0.06199744               -0.10746083                0.21273877                0.49455014                0.66902908               -0.09723981
               3.00783276                6.00801308               80.18109978                0.01865366                0.04142525               -0.16515779                0.22897424                0.77371362                0.86874766                0.13370583
               4.00681748                6.01335800               80.18427589                0.01000000               -0.11090458               -0.12155559                0.23231593                0.47413666                0.50701491                0.15413529
               5.00561467                6.01727921               80.19006163                0.01474674               -0.08250451               -0.05881887                0.30720581                0.39167917                0.82146399                0.66389538
               6.00516739                6.02040530               80.19972017                0.01524528               -0.05114147               -0.04627082                0.31315288                0.23857885                0.77329270                0.76834597
               7.00459184                6.02163333               80.20503465                0.08164535               -0.06276676               -0.10661008                0.21560329                0.11038888                0.27541977                0.32717040
               8.00391205                6.02269593               80.20481818                0.16716706               -0.06504363               -0.07626698                0.21904065                0.03923757               -0.00292232                0.01834035
               9.00329097                6.02369861               80.20453551                0.28022676               -0.06358161               -0.09816415                0.22329008                0.03034410               -0.00229208                0.04037901
              10.00264042                6.02454761               80.20428097                0.67784992               -0.06505463               -0.06024810                0.22849111                0.01370936                0.00132772                0.04008688
               0.00928587                7.00303858               80.17038695                0.74983431               -0.06445997               -0.06535192                0.21703052                0.00126662               -0.00053168                0.01597736
               1.00864127                7.00100136               80.16934838                0.21445093               -0.06353195               -0.06556330                0.21474717                0.00382391               -0.01389104               -0.02134560
               2.00801523                6.99902898               80.16804286                0.01455361               -0.08895055               -0.06422725                0.21518992                0.46325101                0.60415328               -0.04520988
               3.00686226                7.00622520               80.17937178                0.01000000               -0.08865086               -0.16739537                0.25721781                0.60299862                1.01807547               -0.03132827
               4.00624221                7.01214790               80.18693331                0.01416699               -0.04689720               -0.13430213                0.28321741                0.53432693                1.02310477                0.51236226
               5.00592432                7.01715945               80.19853761                0.01468040               -0.08901818                0.02256484                0.31643015                0.32631084                0.90644204                0.76453854
               6.00446185                7.01987084               80.20486538                0.08163068               -0.10777999               -0.06094187                0.21655108                0.11249763                0.33063727                0.26818282
               7.00376872                7.02094283               80.20474631                0.16807479               -0.06873322               -0.06862918                0.22114684                0.01768737                0.00460761               -0.00128420
               8.00308719                7.02194263               80.20452841                0.28189249               -0.06774376               -0.07316680                0.22582059                0.01096180                0.00022373                0.00090869
               9.00241384                7.02291279               80.20429438                0.43630242               -0.06835356               -0.07537362                0.23069689                0.00496262                0.00040897                0.00508498
              10.00172011                7.02387536               80.20405173                0.76897312               -0.06937261               -0.06921265                0.23586065                0.00130390                0.00100764                0.00780112
               0.01133003                8.00237298               80.17052757                0.85444745               -0.06511371               -0.06667941                0.21819258                0.00124724               -0.00118456                0.01584298
               1.01067890                8.00035720               80.16930795                0.35628725               -0.06499384               -0.06461931                0.21713284                0.00296445               -0.01014492               -0.01815461
               2.01003016                7.99838919               80.16790996                0.01000000               -0.19525432               -0.06458684                0.21853007                0.41591320                0.68141724               -0.03879557
               3.00677381                8.00466517               80.18054078                0.01000001               -0.17301936               -0.18749825               -0.03214856                0.90597956                1.26921525                0.01379337
               4.00656977                8.01067196               80.19358361                0.01580649               -0.11779320                0.03197352                0.44190139                0.67850034                1.06609748                0.76523305
               5.00441795                8.01773050               80.20435019                0.08073775               -0.14679010               -0.00761819                0.21203900                0.32625383                0.56649713                0.27772016
               6.00363397                8.01918646               80.20450219                0.16714617               -0.07720704               -0.06559589                0.22095705                0.04044589                0.02260398               -0.00777800
               7.00287380                8.02026075               80.20437342                0.28184794               -0.07363206               -0.06795320                0.22676538                0.01119535                0.00464807               -0.00400903
               8.00216133                8.02123259               80.20416520                0.43743530               -0.07081589               -0.07074749                0.23159319                0.00318453                0.00038021               -0.00260526
               9.00145749                8.02219114               80.20393622                0.65687912               -0.07099812               -0.07211740                0.23640788                0.00076627                0.00004859               -0.00162808
              10.00074136                8.02316336               80.20370526                0.90011050               -0.07161237               -0.07222066                0.24156316               -0.00052793                0.00045098                0.00078598
               0.01334239                9.00170499               80.17068850                0.98719035               -0.06580372               -0.06663148                0.21941851                0.00084362               -0.00227340                0.01393023
               1.01268435                8.99970898               80.16929706                0.54670884               -0.06584338               -0.06546323                0.21992635                0.00124125               -0.00427336               -0.01272796
               2.01202552                8.99773724               80.16786716                0.06230476                0.00073663               -0.06572083                0.22207969                0.33627638                0.71406064               -0.02300937
               3.01269909                9.00247524               80.18086447                0.05613066               -0.26393167               -0.06838773                0.30945884                0.75829675                1.73203010               -0.00969789
               4.00674689                9.01278737               80.20027430                0.09914844               -0.43820986                0.11789372                0.17095202                0.52569843                1.20532257                0.32521063
               5.00393489                9.01700709               80.20362461                0.16861049               -0.20031818               -0.06282162                0.21113571                0.17797378                0.22225665               -0.02658676
               6.00274053                9.01855893               80.20409769                0.28012876               -0.09941962               -0.06444971                0.22605183                0.03132851                0.04121160               -0.00452578
               7.00194650                9.01958376               80.20400313                0.43615943               -0.07600225               -0.06889042                0.23252577                0.00514118                0.00588031               -0.00167663
               8.00122048                9.02052768               80.20379018                0.65670647               -0.07240484               -0.07125871                0.23732486                0.00080353               -0.00085476               -0.00159307
               9.00049840                9.02147044               80.20355409                0.98491235               -0.07276771               -0.07277078                0.24198864                0.00001903               -0.00093013               -0.00162161
               9.99976513                9.02243095               80.20333165                0.99778875               -0.07332728               -0.07415664                0.24710385               -0.00089624               -0.00012193               -0.00011767
               0.01533893               10.00104035               80.17079848                1.00000000               -0.06674613               -0.06646383                0.22159083                0.00041227                0.00970959                0.01162108
               1.01467147                9.99904793               80.16936473                0.83762183               -0.06747556               -0.06610456                0.22251996                0.00043309                0.01655593               -0.00928242
               2.01398942                9.99707477               80.16807092                0.56907289               -0.38909307               -0.06624651                0.22364898                0.40886428                0.72247212               -0.01207612
               3.00688961               10.00329742               80.18078329                0.56284481               -0.57187686                0.08221778                0.32119289                0.21680552                1.68803278                0.00307334
               4.00255189               10.01302983               80.20034280                0.57955977               -0.23418722                0.02424596                0.17875329                0.23933246                1.15860907                0.01505751
               5.00220587               10.01647407               80.20332291                0.61415159               -0.04340123               -0.05330186                0.21805391                0.07047976                0.19201582                0.00094057
               6.00168386               10.01789747               80.20374873                0.67778975               -0.05989956               -0.06614578                0.23200886                0.01477699                0.03721775                0.00047119
               7.00100788               10.01888294               80.20364830                0.76886823               -0.06965732               -0.07008266                0.23849084                0.00163546                0.00517100                0.00013263
               8.00029072               10.01980742               80.20343104                0.89994140               -0.07266398               -0.07202619                0.24333163               -0.00033703               -0.00172963               -0.00029336
               8.99955460               10.02073573               80.20318810                0.99777900               -0.07441418               -0.07347181                0.24801066               -0.00073976               -0.00190529               -0.00068711
               9.99880243               10.02168022               80.20296622                0.99470805               -0.07521650               -0.07507233                0.25312711               -0.00181963               -0.00112409                0.00001647
               0.00303053                0.00594690               81.17143718                0.79593067               -0.05318090               -0.05318323                0.19992985                0.00272738                0.00035166                0.00034249
               1.00249872                0.00699342               81.17156753                0.54077226               -0.03332917               -0.06746016                0.20196746                0.02041561                0.00470858               -0.00103891
               2.00236395                0.00867894               81.17176549                0.49303021               -0.01423733               -0.05887956                0.20484825                0.00815906                0.01605707               -0.00275888
               3.00221398                0.01144479               81.17202019                0.51377491               -0.02429354               -0.06104209                0.20826687                0.00112391                0.02319693               -0.00239140
               4.00187808                0.01502828               81.17228931                0.55147039               -0.04169858               -0.06183605                0.21140895                0.00039535                0.02417249               -0.00121903
               5.00138000                0.01908567               81.17254852                0.60224460               -0.05517359               -0.06284412                0.21381022                0.00109327                0.02133760               -0.00039507
               6.00077461                0.02334363               81.17278502                0.66729773               -0.06337661               -0.06372783                0.21540003                0.00167074                0.01719769               -0.00001953
               7.00011247                0.02763442               81.17300317                0.74964966               -0.06708370               -0.06447873                0.21636643                0.00193409                0.01412756               -0.00022672
               7.99943293                0.03188228               81.17321999                0.85351337               -0.06757247               -0.06515661                0.21702942                0.00175345                0.01366648               -0.00084807
               8.99876102                0.03608246               81.17345781                0.98537451               -0.06663413               -0.06588263                0.21770691                0.00108273                0.01219654               -0.00184315
               9.99810025                0.04026971               81.17365464                0.99999327               -0.06607735               -0.06690080                0.21980915               -0.00022843                0.01043862                0.00916478
               0.00201130                1.00541507               81.17150353                0.54081871               -0.06744348               -0.03331745                0.20196989                0.02038263               -0.00106717                0.00474315
               1.00133686                1.00631881               81.17161820                0.01049619               -0.08957217               -0.08962379                0.20384370                0.06092625               -0.00233638               -0.00222799
               2.00021985                1.00809015               81.17172063                0.01000000               -0.11431564               -0.04718032                0.20590460                0.14205350               -0.01031015                0.02448853
               2.99905055                1.01083437               81.17179055                0.01000000               -0.10791300               -0.02376166                0.20801866                0.18648754               -0.01885182                0.06954518
               3.99806159                1.01440992               81.17182648                0.01225436               -0.09086438               -0.00989215                0.21000957                0.14456556               -0.02403458                0.09419276
               4.99723326                1.01845723               81.17184118                0.02513739               -0.07723258               -0.04183514                0.21191125                0.03761821               -0.02565838                0.02584419
               5.99651694                1.02270636               81.17185157                0.10670962               -0.06853847               -0.06138942                0.21392575                0.00698938               -0.02451246               -0.01642690
               6.99586249                1.02698963               81.17187256                0.21345459               -0.06452486               -0.06380237                0.21626475                0.00742350               -0.02151821               -0.01237112
               7.99522644                1.03123071               81.17191943                0.35431313               -0.06421767               -0.06566827                0.21906136                0.00462328               -0.01770625               -0.00869593
               8.99457814                1.03542364               81.17200038                0.54376842               -0.06578601               -0.06663330                0.22233120                0.00167599               -0.01207582               -0.00302748
               9.99391072                1.03960070               81.17215899                0.83595300               -0.06674143               -0.06844182                0.22513755               -0.00014467               -0.00877105                0.01613996
               0.00163070                2.00528056               81.17163836                0.49306057               -0.05885282               -0.01412416                0.20489391                0.00812972               -0.00274207                0.01615819
               1.00104217                2.00520094               81.17165815                0.01000000               -0.04706195               -0.11449435                0.20582290                0.14204100                0.02438932               -0.01010292
               2.00068946                2.00773534               81.17220986                0.01000001               -0.07091089               -0.07105746                0.20306020                0.37052601                0.04906184                0.04932588
               2.99962396                2.01096956               81.17299355                0.01000000               -0.17714664               -0.00835279                0.19645062                0.47969234                0.02056976                0.14510625
               3.99714653                2.01483044               81.17326774                0.01000000               -0.28940123                0.05648186                0.19382658                0.51994519               -0.11490702                0.30827412
               4.99383593                2.01824897               81.17165683                0.01000001               -0.23822687               -0.00907362                0.21068255                0.51008390               -0.17615959                0.40075267
               5.99238199                2.02211584               81.17058975                0.01074975               -0.10496736                0.04731147                0.21741276                0.51696861               -0.09438405                0.67610861
               6.99173658                2.02635837               81.17049963                0.01440348               -0.06453017               -0.11444018                0.22067460                0.48579063               -0.04274000                0.63558043
               7.99109139                2.03056891               81.17046288                0.01000000               -0.06560131               -0.14315512                0.22498861                0.39070101               -0.03566088                0.55326257
               8.99042456                2.03474980               81.17052102                0.06544359               -0.06740774               -0.01985027                0.22942065                0.33739076               -0.02082148                0.76398649
               9.98974323                2.03890087               81.17080644                0.57224549               -0.06813235               -0.43260036                0.23044812                0.43076027               -0.01113545                0.77443167
               0.00233312                3.00513259               81.17183029                0.51379897               -0.06102214               -0.02404142                0.20835451                0.00104488               -0.00235923                0.02326433
               1.00172290                3.00402893               81.17166597                0.01000000               -0.02356836               -0.10822323                0.20790146                0.18675202                0.06945208               -0.01857963
               2.00186175                3.00666900               81.17293187                0.01000000               -0.00868028               -0.17744542                0.19631768                0.48071185                0.14474205                0.02118219
               3.00154929                3.01066731               81.17469650                0.01000000               -0.03403342               -0.03209620                0.18671500                0.68062280                0.20705776                0.20724701
               4.00118109                3.01553955               81.17758038                0.01256735               -0.06998833               -0.01440246                0.17689807                0.68953697                0.14617499                0.32629176
               5.00014953                3.01827576               81.17858856                0.01000000               -0.12170880                0.05517815                0.17458286                0.87825989                0.25180511                0.70676484
               5.99874691                3.02365258               81.18348032                0.01886754               -0.15121472                0.02088861                0.18814803                0.82154820                0.16222124                0.86966430
               6.99712523                3.02470083               81.18233598                0.01000000               -0.20489378               -0.11402434                0.23486741                0.70648661               -0.15118467                1.06123739
               7.99464903                3.02836761               81.18042493                0.01000001               -0.20656186               -0.22504622                0.07329515                1.01924200                0.05657555                1.59213040
               8.99299400                3.03502663               81.18443075                0.06160901               -0.02126254               -0.31138748                0.30669558                0.66786743                0.17157337                1.71854292
               9.99422378                3.03094869               81.18451122                0.56757072                0.12297871               -0.64665614                0.31417179                0.19085329                0.00343525                1.68228689
               0.00385892                4.00479973               81.17203618                0.55151438               -0.06181181               -0.04137798                0.21151570                0.00030696               -0.00117681                0.02413739
               1.00324081                4.00303648               81.17164003                0.01221085               -0.00968055               -0.09121929                0.20983267                0.14506424                0.09413608               -0.02370317
               2.00366531                4.00418643               81.17314592                0.01000000                0.05625242               -0.29110774                0.19354088                0.52322283                0.30727009               -0.11347647
               3.00436585                4.01032763               81.17751215                0.01256895               -0.01682430               -0.06723119                0.17698907                0.69295963                0.32575489                0.14582488
               4.00332883                4.01454239               81.18011349                0.01000000               -0.05388776               -0.04890747                0.16578383                0.69718504                0.38388880                0.38214727
               5.00328810                4.01935253               81.18607619                0.01920754               -0.04704700                0.01737834                0.10104369                0.65957947                0.25534614                0.40304953
               6.00238789                4.02253362               81.18665709                0.01000000               -0.10684048               -0.11770056                0.18331226                0.50115012                0.13307174                0.54377817
               7.00115129                4.02407788               81.19000792                0.01480355               -0.06187322               -0.07088843                0.30142048                0.52343984                0.60284559                1.06252538
               8.00115042                4.02606799               81.19919597                0.01694488                0.00247684               -0.22961376                0.42262526                0.71423528                0.69564521                1.34925267
               9.00120083                4.02852205               81.20255792                0.10207328                0.02828795               -0.48569886                0.14779272                0.53546959                0.14643104                1.17929425
              10.00171618                4.02596775               81.20276861                0.58156119                0.05153553               -0.27573992                0.15960036                0.20147758                0.01442227                1.12747712
               0.00586577                5.00430503               81.17223129                0.60221209               -0.06282802               -0.05485610                0.21397065                0.00100567               -0.00034580                0.02117490
               1.00523749                5.00220454               81.17159291                0.02510880               -0.04153560               -0.07756945                0.21170892                0.03719225                0.02604621               -0.02525604
               2.00503505                5.00084684               81.17148048                0.01000001               -0.00924782               -0.24052919                0.21031611                0.51521452                0.39926874               -0.17430033
               3.00505253                5.00932269               81.17844889                0.01000000                0.05324186               -0.11720244                0.17463551                0.88892330                0.70384361                0.24932069
               4.00609989                5.01456141               81.18598336                0.01920413                0.01486789               -0.04324003                0.10116344                0.66327609                0.40267165                0.25279574
               5.00534989                5.01862332               81.18814089                0.01000000               -0.10276652               -0.09976649                0.18166066                0.47415595                0.28654614                0.28421438
               6.00404456                5.02129857               81.19342007                0.01558718               -0.06451142               -0.09549998                0.37675617                0.37864510                0.65300373                0.81756514
               7.00405966                5.02328306               81.20194913                0.01585976                0.02225070               -0.10857426                0.30256143                0.30458337                0.67580791                0.88386257
               8.00448957                5.02377534               81.20687771                0.08238396               -0.01280137               -0.15331058                0.20064950                0.24910607                0.22200188                0.41710096
               9.00380363                5.02531265               81.20624108                0.17113212               -0.05638186               -0.22449226                0.19866868                0.19835716               -0.02996704                0.25192120
              10.00336194                5.02543389               81.20608455                0.61562437               -0.04416941               -0.05413951                0.20688999                0.07048532                0.00246553                0.22206917
               0.00808002                6.00370261               81.17240289                0.66730630               -0.06371768               -0.06312045                0.21560643                0.00158794                0.00003462                0.01692271
               1.00744284                6.00148509               81.17154165                0.10672128               -0.06142801               -0.06880148                0.21368054                0.00617857               -0.01574719               -0.02404093
               2.00685145                5.99937584               81.17036448                0.01072377                0.04934598               -0.10576001                0.21651156                0.52608209                0.67206285               -0.09261743
               3.00842976                6.00798358               81.18323257                0.01888496                0.02211306               -0.14821684                0.18799856                0.83426675                0.86400657                0.16000985
               4.00729372                6.01367759               81.18647690                0.01000000               -0.11978536               -0.10376858                0.18278851                0.50523956                0.54308302                0.12955798
               5.00603405                6.01735720               81.19331180                0.01559034               -0.09963304               -0.05896977                0.37603368                0.38154637                0.81792500                0.64785402
               6.00530106                6.02062362               81.20290226                0.01656678               -0.06339279               -0.05857077                0.29861783                0.25702674                0.69667223                0.69155377
               7.00476619                6.02190640               81.20715700                0.08348514               -0.05990545               -0.10269861                0.20852009                0.11370867                0.21753452                0.27249724
               8.00410295                6.02300178               81.20697952                0.16945126               -0.06283910               -0.07638358                0.21297602                0.04622820               -0.00532291                0.02147383
               9.00350941                6.02403220               81.20674479                0.28282531               -0.06097669               -0.10397422                0.21837776                0.03548445               -0.00319467                0.04740296
              10.00288341                6.02488496               81.20654923                0.67920076               -0.06260003               -0.06112627                0.22510158                0.01455081                0.00152729                0.04621626
               0.01033256                7.00304262               81.17255549                0.74964154               -0.06447440               -0.06692782                0.21662046                0.00186526               -0.00016481                0.01374899
               1.00968782                7.00082851               81.17150123                0.21347032               -0.06371826               -0.06467452                0.21597237                0.00700664               -0.01184698               -0.02101300
               2.00905820                6.99873164               81.17021378                0.01438448               -0.11258483               -0.06436607                0.21962971                0.49564458                0.63138454               -0.04147974
               3.00743612                7.00635835               81.18203272                0.01000000               -0.11135655               -0.20674125                0.23539096                0.71950237                1.05251560               -0.15287692
               4.00683107                7.01248603               81.18971190                0.01481927               -0.07006700               -0.05653857                0.30041525                0.53412591                1.05485909                0.59379076
               5.00603478                7.01744393               81.20167526                0.01584459               -0.10975841                0.02798099                0.30288446                0.31080059                0.88128321                0.66592735
               6.00463590                7.02012716               81.20699811                0.08347099               -0.10395553               -0.05821052                0.20952354                0.11537897                0.27666864                0.21052757
               7.00395567                7.02122908               81.20693002                0.17051285               -0.06737830               -0.06725532                0.21535863                0.02083540                0.00354134               -0.00212288
               8.00328833                7.02224766               81.20676405                0.28470941               -0.06627651               -0.07283654                0.22117823                0.01292139               -0.00055541                0.00106428
               9.00263014                7.02323317               81.20658502                0.43904252               -0.06704435               -0.07588700                0.22733340                0.00580747                0.00013560                0.00564192
              10.00194744                7.02421137               81.20640060                0.77023155               -0.06826962               -0.06920209                0.23389599                0.00119889                0.00105134                0.00834123
               0.01254554                8.00236405               81.17270591                0.85347489               -0.06515894               -0.06753802                0.21734981                0.00170727               -0.00076740                0.01320780
               1.01189395                8.00019160               81.17148641                0.35435775               -0.06555168               -0.06424433                0.21873010                0.00447255               -0.00823750               -0.01722010
               2.01123451                7.99808852               81.17011846                0.01000000               -0.14142677               -0.06534117                0.22382236                0.39903130                0.54731662               -0.03448964
               3.00906541                8.00384876               81.18003434                0.01000001               -0.21719225               -0.20692626                0.07786061                1.04375172                1.57101796                0.05142138
               4.00689066                8.01254681               81.19870463                0.01694044               -0.22282377                0.00583009                0.42345943                0.73542115                1.33393324                0.68317356
               5.00460894                8.01791682               81.20642538                0.08235346               -0.15335913               -0.01137057                0.20355926                0.25575839                0.41559972                0.21447619
               6.00382348                8.01945941               81.20668266                0.16942333               -0.07732708               -0.06338203                0.21488766                0.04745256                0.02559005               -0.01004254
               7.00306240                8.02056129               81.20661871                0.28468009               -0.07330947               -0.06647687                0.22211675                0.01316561                0.00466781               -0.00464554
               8.00235729                8.02154505               81.20646448                0.44031213               -0.07002687               -0.06995378                0.22811745                0.00375879               -0.00018709               -0.00305592
               9.00166186                8.02251446               81.20628958                0.65867379               -0.07031457               -0.07176782                0.23417362                0.00090262               -0.00025874               -0.00219850
              10.00095100                8.02350092               81.20611657                0.90053879               -0.07108627               -0.07212844                0.24068942               -0.00071174                0.00038523                0.00021086
               0.01471161                9.00169186               81.17287688                0.98539309               -0.06588177               -0.06670236                0.21808512                0.00106553               -0.00174259                0.01179750
               1.01405280                8.99954362               81.17150534                0.54378982               -0.06649770               -0.06571695                0.22195615                0.00166573               -0.00276526               -0.01171782
               2.01338166                8.99742482               81.17011502                0.06558636               -0.00999660               -0.06709113                0.22824272                0.34692017                0.75606036               -0.02017057
               3.01385286                9.00221983               81.18394769                0.06179025               -0.29551155               -0.02432021                0.30634133                0.68636289                1.69558952                0.16954156
               4.00747143                9.01260264               81.20190441                0.10213286               -0.48077539                0.02637574                0.15282152                0.54895925                1.16312957                0.14029101
               5.00423736                9.01721652               81.20569452                0.17111172               -0.22654753               -0.05801902                0.20242296                0.20276440                0.25112031               -0.03190311
               6.00294048                9.01885952               81.20633448                0.28273641               -0.10520065               -0.06183807                0.22110698                0.03648102                0.04814396               -0.00534992
               7.00213334                9.01989955               81.20631205                0.43890511               -0.07650716               -0.06757387                0.22913707                0.00599512                0.00638843               -0.00189091
               8.00141033                9.02084859               81.20615268                0.65850789               -0.07205089               -0.07056995                0.23507544                0.00094279               -0.00146253               -0.00184295
               9.00069233                9.02179781               81.20596890                0.98310411               -0.07250147               -0.07250453                0.24093392                0.00002693               -0.00134056               -0.00200255
               9.99996031                9.02276880               81.20580388                0.99625893               -0.07320200               -0.07429285                0.24738848               -0.00109909               -0.00027859               -0.00053102
               0.01686332               10.00103000               81.17300839                0.99999916               -0.06690148               -0.06618585                0.22020819               -0.00010388                0.00895679                0.01014422
               1.01619430                9.99887726               81.17159989                0.83595860               -0.06833071               -0.06663681                0.22476044               -0.00001422                0.01584383               -0.00853130
               2.01549671                9.99674670               81.17033256                0.57238270               -0.42897250               -0.06781195                0.22936661                0.43575948                0.76627645               -0.01086595
               3.00761486               10.00336236               81.18396817                0.56775082               -0.63117743                0.11425273                0.31412573                0.19258055                1.66126802                0.00407018
               4.00287316               10.01307433               81.20206600                0.58164358               -0.26037552                0.04716932                0.16520846                0.20987703                1.10935868                0.01403474
               5.00240734               10.01675644               81.20547128                0.61562642               -0.05015453               -0.04600765                0.21132761                0.07441468                0.21758264                0.00189611
               6.00187007               10.01822265               81.20605194                0.67911992               -0.06070583               -0.06368715                0.22855479                0.01562751                0.04334938                0.00070112
               7.00119323               10.01920981               81.20602329                0.77011169               -0.06960946               -0.06897342                0.23647273                0.00153858                0.00576302                0.00020400
               8.00047788               10.02013365               81.20585989                0.90039130               -0.07255200               -0.07149401                0.24241903               -0.00051780               -0.00222642               -0.00033280
               8.99974219               10.02106437               81.20566934                0.99625415               -0.07454157               -0.07334415                0.24827716               -0.00094326               -0.00225669               -0.00081938
               9.99898705               10.02201506               81.20550488                0.99428948               -0.07551423               -0.07537402                0.25472852               -0.00225740               -0.00127579               -0.00017507
               0.00289367                0.00587421               82.17343360                0.79588270               -0.05215715               -0.05216549                0.19933789                0.00308420                0.00040904                0.00043601
               1.00237210                0.00692246               82.17358484                0.54106688               -0.03015432               -0.06814160                0.20146335                0.02306441                0.00531800               -0.00113693
               2.00229059                0.00868991               82.17381294                0.49365907               -0.00978449               -0.05829544                0.20461626                0.00919699                0.01779655               -0.00296016
               3.00217641                0.01165166               82.17410319                0.51455016               -0.02222693               -0.06072276                0.20839156                0.00169629                0.02500270               -0.00239292
               4.00184605                0.01548680               82.17440484                0.55237226               -0.04216963               -0.06161369                0.21172854                0.00102134                0.02493675               -0.00102085
               5.00133302                0.01980022               82.17468791                0.60294955               -0.05711982               -0.06275153                0.21410512                0.00183947                0.02054756               -0.00005743
               6.00070365                0.02428651               82.17493905                0.66766357               -0.06574955               -0.06372537                0.21542938                0.00244832                0.01491460                0.00040555
               7.00001803                0.02876601               82.17516487                0.74933230               -0.06906384               -0.06451461                0.21592651                0.00265099                0.01074222                0.00026909
               7.99932237                0.03316753               82.17538578                0.85223400               -0.06863724               -0.06521042                0.21600709                0.00230573                0.00973418               -0.00026179
               8.99864528                0.03750271               82.17562778                0.98299529               -0.06672499               -0.06597550                0.21607755                0.00135062                0.00898699               -0.00107026
               9.99798788                0.04182654               82.17584544                0.99876826               -0.06574083               -0.06709239                0.21811231               -0.00085737                0.00815823                0.00791711
               0.00187626                1.00535255               82.17352091                0.54102318               -0.06813649               -0.03014270                0.20148591                0.02305980               -0.00113012                0.00540116
               1.00119489                1.00624105               82.17365471                0.01052490               -0.09291499               -0.09296813                0.20342785                0.06886349               -0.00234718               -0.00231108
               2.00001796                1.00810696               82.17377863                0.01000001               -0.11999830               -0.05484323                0.20567059                0.14984453               -0.01069703                0.02119893
               2.99879493                1.01104443               82.17387108                0.01000000               -0.11179887               -0.03573548                0.20814448                0.19218864               -0.01951528                0.06611369
               3.99778198                1.01487067               82.17392867                0.01262393               -0.09216841               -0.02349642                0.21049278                0.14556451               -0.02471354                0.08859321
               4.99695156                1.01917270               82.17396390                0.02554181               -0.07683725               -0.04604144                0.21275721                0.04214746               -0.02603218                0.02671621
               5.99624524                1.02364926               82.17399584                0.10661728               -0.06737662               -0.06068122                0.21511374                0.01335494               -0.02428336               -0.01304057
               6.99560403                1.02812087               82.17404186                0.21249713               -0.06340751               -0.06405480                0.21780060                0.01135050               -0.02052971               -0.00921893
               7.99497709                1.03251543               82.17411856                0.35230435               -0.06373720               -0.06635232                0.22099782                0.00648829               -0.01599845               -0.00581731
               8.99432928                1.03684295               82.17423462                0.54083154               -0.06608121               -0.06742933                0.22478860                0.00220059               -0.01037925               -0.00081730
               9.99365546                1.04115562               82.17442249                0.83427303               -0.06738214               -0.06951503                0.22784637               -0.00067167               -0.00750000                0.01481263
               0.00157788                2.00527135               82.17368620                0.49368411               -0.05829113               -0.00968734                0.20467849                0.00916222               -0.00294099                0.01795800
               1.00099497                2.00506310               82.17371548                0.01000001               -0.05468925               -0.12016296                0.20563891                0.14978592                0.02118767               -0.01057950
               2.00048409                2.00759305               82.17421514                0.01000001               -0.08692470               -0.08695778                0.20761776                0.38099825                0.04375497                0.04382395
               2.99925647                2.01093695               82.17500228                0.01000000               -0.19275138               -0.03037571                0.20658116                0.49418376                0.01448507                0.13363985
               3.99662907                2.01501688               82.17524013                0.01000000               -0.29295483                0.01895851                0.20192139                0.53346712               -0.11475844                0.29612513
               4.99339738                2.01887939               82.17377354                0.01000001               -0.23032408               -0.06179278                0.21509788                0.53316636               -0.16876146                0.38516775
               5.99202258                2.02307289               82.17278380                0.01071178               -0.10092547                0.03211308                0.22210132                0.53507511               -0.08684303                0.65182830
               6.99137887                2.02748492               82.17272998                0.01432046               -0.06462634               -0.11798250                0.22613760                0.51246992               -0.03653397                0.62871701
               7.99073006                2.03184049               82.17274149                0.01000000               -0.06648824               -0.17694936                0.23149680                0.41039538               -0.02887988                0.54251773
               8.99004910                2.03615412               82.17284844                0.07016976               -0.06904785               -0.03730287                0.23699113                0.34598070               -0.01638336                0.79850277
               9.98934910                2.04043624               82.17314151                0.57682364               -0.07000019               -0.46740338                0.23742170                0.45220100               -0.00917646                0.80695269
               0.00247601                3.00515881               82.17391404                0.51454205               -0.06070881               -0.02200951                0.20845685                0.00163515               -0.00236215                0.02511671
               1.00186892                3.00383779               82.17374550                0.01000000               -0.03559658               -0.11206457                0.20805919                0.19253364                0.06599450               -0.01933208
               2.00176408                3.00636780               82.17493736                0.01000000               -0.03070731               -0.19269393                0.20606398                0.49504581                0.13371415                0.01448600
               3.00125477                3.01043692               82.17660930                0.01000000               -0.06275962               -0.06093533                0.19700234                0.68187120                0.19207343                0.19152027
               4.00050888                3.01524984               82.17941154                0.01279258               -0.08479493               -0.04673443                0.18747201                0.68402002                0.13266531                0.31730080
               4.99955888                3.01793685               82.18040881                0.01000000               -0.10838370               -0.05847398                0.20160039                0.87912932                0.22581098                0.64369166
               5.99834121                3.02429152               82.18510722                0.01922834               -0.12365240               -0.00825178                0.10841575                0.83321796                0.10073852                0.75084075
               6.99708583                3.02576122               82.18437669                0.01000000               -0.19127084               -0.12242396                0.13845181                0.68537554               -0.23997923                1.08042299
               7.99451579                3.02897644               82.18247072                0.01000000               -0.22163435               -0.28543556                0.24072842                1.01493042                0.10550692                1.57578659
               8.99265314                3.03609689               82.18747528                0.06890592               -0.01902806               -0.33572416                0.29874503                0.67851370                0.21909153                1.65906700
               9.99413523                3.03180755               82.18760632                0.57387846                0.14820920               -0.69822894                0.30417958                0.18292603               -0.00242581                1.64423632
               0.00425262                4.00483116               82.17415241                0.55234587               -0.06159709               -0.04188762                0.21180679                0.00094652               -0.00097801                0.02495344
               1.00363665                4.00282181               82.17374048                0.01258581               -0.02333672               -0.09247377                0.21036056                0.14626731                0.08875393               -0.02446793
               2.00378588                4.00373917               82.17511873                0.01000000                0.01876077               -0.29470838                0.20164388                0.53652961                0.29567992               -0.11384930
               3.00401186                4.00971824               82.17934222                0.01279753               -0.04881729               -0.08212807                0.18721447                0.68672418                0.31690098                0.13176583
               4.00280954                4.01408219               82.18187846                0.01000000               -0.10367899               -0.09891608                0.19381160                0.59349128                0.32835397                0.32615107
               5.00193828                4.01770991               82.18668405                0.01000001               -0.09734817               -0.05761686                0.07705538                0.63495149                0.19511564                0.39615532
               6.00086257                4.02290785               82.18811664                0.01000000               -0.07684121               -0.16945655                0.14191333                0.61407747                0.14625004                0.67406244
               7.00040146                4.02503644               82.19325034                0.01570836               -0.00847908               -0.10790056                0.36814845                0.50240905                0.64241017                1.03279797
               8.00069299                4.02613177               82.20253377                0.01845164                0.01934042               -0.24749989                0.29793822                0.72016052                0.49325067                1.33076360
               9.00078827                4.02943964               82.20393306                0.10607228                0.04466551               -0.51846287                0.12837335                0.57696084                0.03761207                1.13246785
              10.00158630                4.02647166               82.20429322                0.58434290                0.07980363               -0.30332372                0.14437903                0.17175621                0.01522438                1.07911775
               0.00651365                5.00432105               82.17437186                0.60291208               -0.06273834               -0.05684460                0.21422150                0.00176702               -0.00000957                0.02046733
               1.00588626                5.00198831               82.17371365                0.02556874               -0.04577047               -0.07712410                0.21259513                0.04161090                0.02725966               -0.02570555
               2.00559824                5.00047363               82.17359908                0.01000001               -0.06200122               -0.23255419                0.21466490                0.53797369                0.38407885               -0.16764472
               3.00464624                5.00879435               82.18026883                0.01000000               -0.06055969               -0.10443973                0.20147177                0.88932447                0.64144857                0.22294987
               4.00438704                5.01327152               82.18659428                0.01000001               -0.06069989               -0.09307851                0.07747274                0.63902638                0.39698385                0.19012628
               5.00343224                5.01678451               82.18954038                0.01000000               -0.05454061               -0.05039977                0.24723517                0.56202008                0.52323690                0.52020444
               6.00329623                5.02090239               82.19770214                0.01671318                0.02389223               -0.11247555                0.49273873                0.56058801                0.80816559                0.93069729
               7.00391008                5.02360321               82.20486418                0.01740405                0.06097884               -0.14670261                0.26441528                0.37939376                0.57083280                0.80311751
               8.00451581                5.02402644               82.20884442                0.08447651               -0.00288087               -0.14463556                0.19211897                0.28246231                0.16211190                0.34877600
               9.00385247                5.02572764               82.20818188                0.17447056               -0.05047547               -0.25684518                0.18914442                0.22918633               -0.03768451                0.28940574
              10.00350630                5.02574108               82.20811818                0.61755895               -0.03461697               -0.06578905                0.19960903                0.07513271                0.00333659                0.25305803
               0.00895344                6.00369427               82.17455868                0.66767273               -0.06371535               -0.06552566                0.21557968                0.00237877                0.00045327                0.01471913
               1.00831628                6.00127933               82.17368369                0.10663137               -0.06070619               -0.06759823                0.21491238                0.01267970               -0.01250688               -0.02390165
               2.00773931                5.99908808               82.17254961                0.01070820                0.03420919               -0.10141150                0.22127937                0.54316568                0.64830763               -0.08572749
               3.00900047                6.00762945               82.18485976                0.01923279               -0.00697022               -0.12142292                0.10853575                0.84503716                0.74704024                0.09748965
               4.00759991                6.01222062               82.18793166                0.01000000               -0.17263291               -0.07377626                0.14154122                0.61911377                0.67422693                0.14214356
               5.00554781                6.01670191               82.19758231                0.01670644               -0.11721365                0.02899568                0.49186686                0.56346292                0.93082861                0.80370067
               6.00525564                6.02065834               82.20569253                0.01828510               -0.03412661               -0.03006964                0.24997998                0.34223543                0.59283661                0.58704903
               7.00486528                6.02210239               82.20920505                0.08583297               -0.05189139               -0.10822751                0.20113178                0.13721192                0.17463413                0.22506871
               8.00421781                6.02323906               82.20907770                0.17229761               -0.06039604               -0.07737467                0.20653211                0.05528057               -0.00839803                0.02514022
               9.00365736                6.02430273               82.20890306                0.28605926               -0.05778694               -0.11234013                0.21319263                0.04221786               -0.00440113                0.05645260
              10.00306207                6.02515588               82.20878300                0.68084838               -0.05952868               -0.06331150                0.22166885                0.01549979                0.00179504                0.05382672
               0.01139111                7.00301054               82.17471936                0.74932573               -0.06450642               -0.06892582                0.21611269                0.00259364                0.00032363                0.01045194
               1.01074604                7.00063635               82.17366783                0.21251600               -0.06398391               -0.06353243                0.21755293                0.01100906               -0.00876027               -0.02011842
               2.01011143                6.99844540               82.17243545                0.01432400               -0.11657979               -0.06449620                0.22529852                0.52093963                0.62544612               -0.03550341
               3.00841445                7.00636590               82.18407960                0.01000000               -0.12072893               -0.19254121                0.13882088                0.69790575                1.07266757               -0.24191972
               4.00769685                7.01179599               82.19294161                0.01570644               -0.10753370               -0.00388492                0.36671229                0.51280060                1.02643427                0.63472806
               5.00626377                7.01736442               82.20459530                0.01740171               -0.14781926                0.06494296                0.26519041                0.38545512                0.80242477                0.56228873
               6.00474047                7.02030100               82.20905586                0.08580551               -0.10950871               -0.05045525                0.20216555                0.13855144                0.22972811                0.16789098
               7.00407360                7.02143866               82.20905348                0.17357158               -0.06596966               -0.06582896                0.20913250                0.02490100                0.00236164               -0.00309746
               8.00342107                7.02247895               82.20895197                0.28814407               -0.06467978               -0.07281123                0.21621943                0.01555400               -0.00159046                0.00124529
               9.00278000                7.02348083               82.20884105                0.44230592               -0.06555417               -0.07697178                0.22379916                0.00693804               -0.00026312                0.00628744
              10.00210999                7.02447485               82.20872965                0.77172821               -0.06700150               -0.06957963                0.23194935                0.00105263                0.00108339                0.00882417
               0.01375369                8.00231575               82.17487457                0.85221279               -0.06520913               -0.06860348                0.21625533                0.00226756               -0.00020006                0.00937639
               1.01310160                8.00000868               82.17368255                0.35230821               -0.06625677               -0.06376057                0.22072482                0.00636333               -0.00546365               -0.01559767
               2.01242856                7.99779816               82.17238640                0.01000000               -0.17468035               -0.06628377                0.23057152                0.41814464                0.53818747               -0.02794643
               3.00960800                8.00377862               82.18209800                0.01000000               -0.27855817               -0.22168293                0.24179786                1.03758954                1.56166284                0.10173072
               4.00685740                8.01214292               82.20205280                0.01845238               -0.24280445                0.02179154                0.29955607                0.73939777                1.31860487                0.48394406
               5.00475191                8.01800077               82.20842137                0.08445439               -0.14524813               -0.00206475                0.19499968                0.28848833                0.34851507                0.15557987
               6.00395243                8.01964924               82.20879994                0.17227073               -0.07832816               -0.06091753                0.20840198                0.05652203                0.02904238               -0.01293472
               7.00318534                8.02078581               82.20881576                0.28810890               -0.07328601               -0.06486439                0.21712833                0.01580341                0.00468471               -0.00552340
               8.00248671                8.02178284               82.20872754                0.44363228               -0.06925620               -0.06917706                0.22438564                0.00453963               -0.00095920               -0.00371617
               9.00180022                8.02276330               82.20861969                0.66064630               -0.06958103               -0.07150964                0.23179134                0.00109176               -0.00067119               -0.00300141
              10.00109509                8.02376429               82.20851905                0.90095890               -0.07051278               -0.07214131                0.23982950               -0.00092064                0.00028576               -0.00063810
               0.01605061                9.00163847               82.17505020                0.98301559               -0.06597045               -0.06677669                0.21637294                0.00133473               -0.00098441                0.00866526
               1.01539091                8.99936114               82.17373618                0.54091274               -0.06731161               -0.06602393                0.22447417                0.00219165               -0.00058609               -0.01008923
               2.01470438                8.99711973               82.17243202                0.07030686               -0.02847129               -0.06878911                0.23601877                0.35446093                0.79136117               -0.01581660
               3.01482148                9.00193224               82.18699130                0.06906388               -0.32208607               -0.02203804                0.29900104                0.69428136                1.63968770                0.21581991
               4.00826266                9.01223182               82.20333073                0.10613959               -0.51471286                0.04222171                0.13348812                0.58847248                1.11883494                0.03331855
               5.00452722                9.01732313               82.20767307                0.17446034               -0.25883921               -0.05211510                0.19286728                0.23352469                0.28823358               -0.03950183
               6.00308587                9.01908265               82.20851983                0.28596798               -0.11355792               -0.05863327                0.21587017                0.04323215                0.05704048               -0.00648652
               7.00225606                9.02014137               82.20858587                0.44219786               -0.07757482               -0.06606378                0.22554306                0.00713061                0.00697496               -0.00220523
               8.00153438                9.02109541               82.20849169                0.66049560               -0.07178385               -0.06982451                0.23266233                0.00113490               -0.00230363               -0.00219101
               9.00082039                9.02205064               82.20837277                0.98079766               -0.07223947               -0.07224161                0.23981188                0.00004343               -0.00187901               -0.00250991
              10.00008959                9.02303202               82.20827942                0.99438220               -0.07308007               -0.07447774                0.24776108               -0.00132454               -0.00047998               -0.00108917
               0.01833506               10.00098022               82.17520264                0.99874793               -0.06708769               -0.06582493                0.21842152               -0.00075759                0.00776835                0.00791588
               1.01766418                9.99868820               82.17385994                0.83430223               -0.06941896               -0.06729363                0.22752407               -0.00056497                0.01461704               -0.00731151
               2.01694668                9.99642238               82.17265825                0.57695081               -0.46413246               -0.06973504                0.23651910                0.45671285                0.79984521               -0.00893386
               3.00838153               10.00333786               82.18706580                0.57404206               -0.68553608                0.14056247                0.30477460                0.18425363                1.62704335               -0.00185675
               4.00323595               10.01298735               82.20364697                0.58440302               -0.29049764                0.07555310                0.14994826                0.17836016                1.06399314                0.01494588
               5.00257158               10.01695847               82.20754947                0.61754620               -0.06185596               -0.03646571                0.20397237                0.07889623                0.24832691                0.00281035
               6.00199884               10.01847657               82.20831982                0.68078650               -0.06281922               -0.06060750                0.22503604                0.01659926                0.05089367                0.00100295
               7.00131519               10.01946453               82.20837775                0.77162870               -0.06993482               -0.06768370                0.23442913                0.00140168                0.00629995                0.00027486
               8.00060014               10.02038635               82.20827942                0.90082189               -0.07253587               -0.07090599                0.24149525               -0.00072712               -0.00299154               -0.00040025
               8.99986447               10.02131846               82.20815364                0.99437686               -0.07471511               -0.07321758                0.24862272               -0.00117192               -0.00274742               -0.00099452
               9.99910584               10.02227474               82.20806079                0.99373644               -0.07586382               -0.07572857                0.25656308               -0.00274781               -0.00147284               -0.00041633
               0.00273623                0.00578101               83.17542393                0.79572297               -0.05104879               -0.05105102                0.19871236                0.00348067                0.00047750                0.00055358
               1.00222574                0.00683095               83.17559680                0.54116333               -0.02673510               -0.06889907                0.20093523                0.02601233                0.00604376               -0.00121289
               2.00220152                0.00868835               83.17585782                0.49436757               -0.00518045               -0.05764233                0.20441474                0.01031258                0.01984541               -0.00315107
               3.00212213                0.01186117               83.17618802                0.51546343               -0.02047125               -0.06036088                0.20861405                0.00239992                0.02696313               -0.00234696
               4.00179210                0.01596020               83.17652388                0.55339617               -0.04326901               -0.06137062                0.21217563                0.00180919                0.02547235               -0.00073824
               5.00125675                0.02053255               83.17683063                0.60387639               -0.05980838               -0.06266254                0.21450465                0.00276801                0.01913645                0.00038304
               6.00059593                0.02523816               83.17709361                0.66818157               -0.06880796               -0.06373696                0.21547040                0.00340119                0.01160536                0.00094182
               6.99988059                0.02988582               83.17732170                0.74893819               -0.07156118               -0.06456726                0.21536541                0.00352455                0.00603426                0.00090343
               7.99916471                0.03441148               83.17754013                0.85053706               -0.06997454               -0.06528216                0.21472147                0.00297918                0.00432537                0.00049957
               8.99848110                0.03884738               83.17777937                0.97991362               -0.06683032               -0.06607535                0.21399215                0.00167508                0.00454386               -0.00002242
               9.99782810                0.04327394               83.17801689                0.99717236               -0.06529977               -0.06730668                0.21589088               -0.00165652                0.00495361                0.00612944
               0.00172109                1.00527050               83.17553325                0.54125797               -0.06889052               -0.02672126                0.20094318                0.02600058               -0.00120970                0.00618657
               1.00103219                1.00614195               83.17568675                0.01056705               -0.09657773               -0.09661962                0.20295939                0.07763407               -0.00230927               -0.00229446
               1.99978954                1.00811193               83.17583404                0.01050711               -0.12609921               -0.06176325                0.20544174                0.15959193               -0.01088730                0.02514280
               2.99851020                1.01125756               83.17595344                0.01000000               -0.11575185               -0.04785188                0.20835572                0.20005512               -0.01984202                0.06835677
               3.99747450                1.01534649               83.17603634                0.01306601               -0.09323778               -0.03450667                0.21115677                0.14681813               -0.02497806                0.08738110
               4.99664545                1.01990592               83.17609633                0.02616953               -0.07605982               -0.05125704                0.21388106                0.04572902               -0.02589189                0.03030565
               5.99595331                1.02460079               83.17615385                0.10665762               -0.06581355               -0.05985655                0.21665702                0.02134965               -0.02348103               -0.00819601
               6.99532918                1.02924015               83.17622857                0.21160202               -0.06197939               -0.06439695                0.21975767                0.01627460               -0.01887827               -0.00481364
               7.99471372                1.03375866               83.17633939                0.35023744               -0.06312798               -0.06721878                0.22343885                0.00885504               -0.01347582               -0.00186983
               8.99406662                1.03818663               83.17649616                0.53792101               -0.06643699               -0.06840952                0.22783179                0.00289909               -0.00793359                0.00226987
               9.99338498                1.04260088               83.17671592                0.83264944               -0.06816398               -0.07089215                0.23115593               -0.00130243               -0.00564503                0.01289165
               0.00151332                2.00524658               83.17573193                0.49439470               -0.05763339               -0.00508918                0.20444478                0.01029032               -0.00314371                0.02002860
               1.00093699                2.00489855               83.17577093                0.01051144               -0.06177805               -0.12623385                0.20541066                0.15968939                0.02517441               -0.01082661
               2.00027776                2.00745309               83.17636221                0.01000001               -0.10241602               -0.10284015                0.21655769                0.39441374                0.04887706                0.04616970
               2.99888867                2.01090413               83.17712517                0.01000000               -0.20988295               -0.05498875                0.21612889                0.51116794                0.00983949                0.13268048
               3.99608010                2.01527007               83.17730617                0.01000000               -0.29858172               -0.00496278                0.21516248                0.55818268               -0.11129907                0.29448193
               4.99291703                2.01950740               83.17595879                0.01000001               -0.21957020               -0.08334213                0.22262649                0.55477931               -0.15705107                0.39485817
               5.99168870                2.02404103               83.17503178                0.01074612               -0.09344068               -0.06321169                0.22823293                0.49654873               -0.07783892                0.57171158
               6.99104822                2.02859788               83.17502238                0.01436601               -0.06466851               -0.17256145                0.23307421                0.43295190               -0.02775777                0.55328346
               7.99039533                2.03306710               83.17509282                0.01000000               -0.06756779               -0.18337969                0.23969723                0.39140897               -0.01929188                0.56365057
               8.98969686                2.03747919               83.17526085                0.07692780               -0.07108813               -0.05316371                0.24660649                0.34813065               -0.01004359                0.82161300
               9.98897356                2.04185610               83.17555487                0.58310787               -0.07232989               -0.49595801                0.24625649                0.46410127               -0.00633721                0.82699962
               0.00262296                3.00516871               83.17599943                0.51549028               -0.06034865               -0.02028025                0.20865245                0.00235100               -0.00232563                0.02710420
               1.00201947                3.00361728               83.17582716                0.01000000               -0.04753593               -0.11597911                0.20828950                0.19994957                0.06797885               -0.01973479
               2.00167224                3.00605513               83.17705315                0.01000000               -0.05514433               -0.21026812                0.21321767                0.51199634                0.13154953                0.01109364
               3.00091658                3.01015778               83.17863655                0.01000000               -0.08186783               -0.08003550                0.21882117                0.71237949                0.18672220                0.18571399
               4.00003488                3.01524724               83.18132982                0.01312133               -0.09732560               -0.06936986                0.18494509                0.72776315                0.14117331                0.32384225
               4.99897007                3.01823908               83.18262056                0.01000000               -0.16205389               -0.06816689                0.21581000                0.80622604                0.13319084                0.63181210
               5.99679380                3.02333656               83.18564863                0.01000001               -0.20039633               -0.03105436                0.06022868                0.73038716               -0.03474474                0.73898762
               6.99496214                3.02578892               83.18510502                0.01000000               -0.15666090               -0.21757621                0.08091503                0.76443264               -0.24118596                1.30241195
               7.99366059                3.03009106               83.18523950                0.01000000               -0.13609549               -0.33787667                0.28170853                1.06359166                0.15311096                1.57870641
               8.99224023                3.03712336               83.19040565                0.07845728                0.01263038               -0.35071936                0.28715708                0.65437040                0.22346980                1.59301680
               9.99391319                3.03268172               83.19059481                0.58207057                0.16729582               -0.74089324                0.29222883                0.17217542               -0.01164902                1.59467658
               0.00466321                4.00484098               83.17627232                0.55335096               -0.06136455               -0.04303038                0.21224346                0.00175168               -0.00070492                0.02554268
               1.00404956                4.00257897               83.17584724                0.01307011               -0.03430144               -0.09350279                0.21107400                0.14713705                0.08737716               -0.02479154
               2.00397718                4.00324773               83.17717880                0.01000000               -0.00527106               -0.29960281                0.21443023                0.56068285                0.29427388               -0.10989708
               3.00394414                4.00930342               83.18125644                0.01311971               -0.07115556               -0.09468181                0.18468717                0.73023306                0.32414132                0.14001975
               4.00255407                4.01388267               83.18398972                0.01000000               -0.14959549               -0.14682542                0.21663911                0.67868915                0.28694858                0.28483423
               5.00095223                4.01814407               83.18761730                0.01000001               -0.19037358               -0.00549597                0.15379937                0.76369829                0.21352012                0.55247965
               5.99874660                4.02341994               83.18949536                0.01000000               -0.06849328               -0.04999648                0.29376090                0.70962839                0.45289348                0.88956248
               6.99958237                4.02424636               83.19737089                0.01697255                0.07930619               -0.11991112                0.48242186                0.61307601                0.80091606                1.20374403
               8.00033272                4.02630957               83.20515474                0.02046834                0.03056253               -0.29420701                0.23351382                0.84859869                0.37220654                1.27033812
               9.00019362                4.03046481               83.20512539                0.11149442                0.04838164               -0.54962957                0.11285870                0.61323016               -0.04310905                1.08935733
              10.00130035                4.02703823               83.20565619                0.58809712                0.11067365               -0.33382250                0.12966493                0.13948595                0.01570184                1.03637413
               0.00718200                5.00430810               83.17651572                0.60389566               -0.06265386               -0.05957434                0.21458879                0.00270389                0.00042044                0.01910466
               1.00655546                5.00174722               83.17584481                0.02618495               -0.05102771               -0.07630491                0.21375967                0.04535873                0.03049885               -0.02564428
               2.00616145                5.00006307               83.17577377                0.01000001               -0.08345812               -0.22114043                0.22185561                0.55906445                0.39388831               -0.15591469
               3.00488630                5.00826415               83.18247833                0.01000000               -0.06967145               -0.15904064                0.21568910                0.81460137                0.63085961                0.12998282
               4.00476802                5.01231073               83.18753282                0.01000001               -0.00897680               -0.18547746                0.15413254                0.76833225                0.55412705                0.20868114
               5.00470676                5.01812916               83.19308559                0.01000000                0.00580316                0.01161139                0.35187031                0.79817099                0.81440682                0.81057358
               6.00488408                5.02233663               83.20327485                0.01827564               -0.01863619               -0.12045304                0.32538141                0.60249909                0.70610509                0.91487547
               7.00433404                5.02339070               83.20723744                0.01945430               -0.02349850               -0.10139479                0.22957248                0.35808170                0.35867683                0.72178035
               8.00441411                5.02420692               83.21072009                0.08720989               -0.02789333               -0.14562721                0.18303702                0.33221621                0.12125970                0.31305392
               9.00377617                5.02613077               83.21002397                0.17895790               -0.04290271               -0.29813626                0.17950845                0.26604052               -0.04751221                0.33466894
              10.00355606                5.02600527               83.21007673                0.62016034               -0.02201171               -0.08441048                0.19237948                0.08040388                0.00443240                0.29117780
               0.00983905                6.00364949               83.17671449                0.66815099               -0.06372796               -0.06861660                0.21557565                0.00334320                0.00098289                0.01146388
               1.00920177                6.00105287               83.17583990                0.10662480               -0.05987542               -0.06599680                0.21649853                0.02082418               -0.00780217               -0.02318725
               2.00864154                5.99882492               83.17479007                0.01076187               -0.06066321               -0.09391466                0.22772058                0.50318168                0.56867617               -0.07676014
               3.00798851                6.00612261               83.18540329                0.01000001               -0.02929204               -0.19912144                0.06094748                0.74226097                0.73385091               -0.03936879
               4.00805570                6.01017312               83.18930773                0.01000000               -0.05493776               -0.06256355                0.29429487                0.71648617                0.88711297                0.44644348
               5.00688975                6.01837629               83.20314914                0.01827197               -0.12603315               -0.01392600                0.32551934                0.60500178                0.91531054                0.70096210
               6.00553504                6.02101088               83.20790186                0.02056462               -0.10080230               -0.09795338                0.24188648                0.18651826                0.39092593                0.38541056
               7.00487371                6.02221846               83.21117963                0.08878762               -0.06490318               -0.09171333                0.19417587                0.10794446                0.15507685                0.19970558
               8.00423698                6.02339703               83.21111016                0.17586591               -0.05788113               -0.07920991                0.19997808                0.06692330               -0.01254675                0.02974619
               9.00371609                6.02450208               83.21100864                0.29012284               -0.05387729               -0.12442371                0.20801020                0.05120143               -0.00604095                0.06793711
              10.00315943                6.02535003               83.21098261                0.68296106               -0.05566541               -0.06767308                0.21848577                0.01658731                0.00212618                0.06330667
               0.01244210                7.00293577               83.17687775                0.74896211               -0.06455797               -0.07143755                0.21549564                0.00347712                0.00094887                0.00581935
               1.01179652                7.00042729               83.17585228                0.21157287               -0.06433760               -0.06207928                0.21955543                0.01600344               -0.00446843               -0.01854455
               2.01115535                6.99818478               83.17471975                0.01436815               -0.17066020               -0.06459423                0.23244880                0.43978480                0.55055847               -0.02688131
               3.00838331                7.00428172               83.18480914                0.01000000               -0.21556464               -0.15754636                0.08130398                0.77592266                1.29441630               -0.24373542
               4.00684405                7.01105946               83.19704615                0.01696430               -0.12071386                0.08317299                0.48161770                0.62262993                1.19895403                0.79475532
               5.00596904                7.01785064               83.20697907                0.01943720               -0.10358874               -0.02128239                0.23041034                0.36302193                0.72330977                0.35118104
               6.00477228                7.02037756               83.21104142                0.08878590               -0.09311250               -0.06370710                0.19516497                0.10903443                0.20452200                0.14863195
               7.00410679                7.02155643               83.21111267                0.17731894               -0.06516608               -0.06500135                0.20271328                0.02999732                0.00056429               -0.00458784
               8.00346896                7.02262272               83.21108844                0.29227191               -0.06297926               -0.07330096                0.21108132                0.01915285               -0.00296091                0.00136839
               9.00284720                7.02364229               83.21106101                0.44623291               -0.06385209               -0.07896841                0.22021519                0.00849617               -0.00077428                0.00697555
              10.00219191                7.02465180               83.21103959                0.77354227               -0.06552870               -0.07058197                0.23015042                0.00087935                0.00112289                0.00915903
               0.01492557                8.00222074               83.17703102                0.85054890               -0.06527307               -0.06993424                0.21488790                0.00294770                0.00055167                0.00405004
               1.01427284                7.99981129               83.17590091                0.35025878               -0.06713803               -0.06314157                0.22320055                0.00875160               -0.00156496               -0.01315147
               2.01358281                7.99753303               83.17472989                0.01000000               -0.18202794               -0.06740688                0.23897102                0.39794086                0.56007707               -0.01852185
               3.01063228                8.00297168               83.18487030                0.01000000               -0.33217127               -0.13566501                0.28235384                1.08340706                1.56579962                0.14879001
               4.00693938                8.01183658               83.20469575                0.02046736               -0.29000944                0.03076851                0.23596166                0.86506334                1.25996111                0.36571119
               5.00483209                8.01795065               83.21032537                0.08717961               -0.14647228               -0.02761267                0.18585720                0.33720271                0.31339295                0.11543390
               6.00400994                8.01973674               83.21085070                0.17581208               -0.08017994               -0.05838257                0.20181584                0.06819996                0.03343976               -0.01694026
               7.00322849                8.02091843               83.21096128                0.29222234               -0.07378821               -0.06314905                0.21198689                0.01942286                0.00464354               -0.00672279
               8.00253417                8.02193101               83.21095219                0.44751588               -0.06857811               -0.06849177                0.22048663                0.00563420               -0.00199122               -0.00461634
               9.00185693                8.02292271               83.21092541                0.66281696               -0.06880902               -0.07143144                0.22931987                0.00135981               -0.00123327               -0.00413866
              10.00115799                8.02393839               83.21091316                0.90142319               -0.06989369               -0.07232626                0.23903710               -0.00115768                0.00013440               -0.00191002
               0.01731995                9.00153709               83.17720434                0.97989346               -0.06606978               -0.06686545                0.21421468                0.00166330                0.00004440                0.00428804
               1.01665926                8.99916445               83.17599482                0.53793382               -0.06830919               -0.06638820                0.22757304                0.00288752                0.00244981               -0.00771025
               2.01595377                8.99683664               83.17483539                0.07704559               -0.04556751               -0.07087401                0.24581257                0.35544486                0.81545156               -0.00962515
               3.01574791                9.00156842               83.18992771                0.07859521               -0.33937088                0.01022635                0.28811792                0.66864569                1.57685894                0.22013997
               4.00916635                9.01167483               83.20457418                0.11156073               -0.54674877                0.04520898                0.11781974                0.62299708                1.07788106               -0.04615183
               5.00481293                9.01729838               83.20955186                0.17895168               -0.29989320               -0.04453934                0.18312335                0.27020119                0.33302860               -0.04918548
               6.00316849                9.01920991               83.21065189                0.29006388               -0.12559757               -0.05470125                0.21059518                0.05223903                0.06835788               -0.00801153
               7.00230098                9.02029345               83.21082291                0.44610150               -0.07955634               -0.06434430                0.22190222                0.00870561                0.00758658               -0.00263899
               8.00157736                9.02125289               83.21080593                0.66267446               -0.07169803               -0.06904140                0.23015896                0.00140978               -0.00347581               -0.00268481
               9.00086702                9.02221366               83.21076514                0.97789352               -0.07199730               -0.07199870                0.23863142                0.00006680               -0.00260946               -0.00320995
              10.00013742                9.02320528               83.21075911                0.99208824               -0.07296026               -0.07471961                0.24820709               -0.00157283               -0.00075254               -0.00187087
               0.01970410               10.00088343               83.17737682                0.99716270               -0.06730643               -0.06536587                0.21613738               -0.00157584                0.00601182                0.00476262
               1.01903104                9.99848352               83.17615038                0.83265891               -0.07081799               -0.06809315                0.23089979               -0.00121575                0.01272931               -0.00550501
               2.01828774                9.99611555               83.17506294                0.58324528               -0.49320176               -0.07210875                0.24551378                0.46803134                0.82111263               -0.00617204
               3.00916700               10.00317621               83.19006366                0.58222747               -0.73091918                0.16077883                0.29347529                0.17317009                1.58096506               -0.01102924
               4.00366936               10.01274076               83.20506497                0.58817241               -0.32329842                0.10659305                0.13495054                0.14448323                1.02381667                0.01551155
               5.00270103               10.01705986               83.20955072                0.62017234               -0.08048524               -0.02385249                0.19655161                0.08390814                0.28618807                0.00394531
               6.00205965               10.01864272               83.21055267                0.68291298               -0.06707043               -0.05671941                0.22169997                0.01770094                0.06031281                0.00139217
               7.00135962               10.01963155               83.21071187                0.77343670               -0.07087490               -0.06619003                0.23251925                0.00123771                0.00667350                0.00034681
               8.00064216               10.02055018               83.21068979                0.90126584               -0.07268745               -0.07027109                0.24062854               -0.00096112               -0.00415829               -0.00052446
               8.99990588               10.02148274               83.21064179                0.99209551               -0.07494260               -0.07309230                0.24903548               -0.00142346               -0.00344797               -0.00123991
               9.99914330               10.02244399               83.21063614                0.99301812               -0.07625729               -0.07612851                0.25858998               -0.00328582               -0.00174055               -0.00073341
               0.00255749                0.00566665               84.17740784                0.79546648               -0.04983970               -0.04983614                0.19803398                0.00392103                0.00059945                0.00067384
               1.00205909                0.00671830               84.17760354                0.54128821               -0.02306069               -0.06972728                0.20035284                0.02927160                0.00697115               -0.00130816
               2.00209628                0.00867444               84.17790124                0.49516172               -0.00047414               -0.05690245                0.20424363                0.01150285                0.02224710               -0.00335676
               3.00204961                0.01207387               84.17827548                0.51654981               -0.01916951               -0.05994521                0.20896160                0.00325192                0.02910166               -0.00223921
               4.00171289                0.01644712               84.17864835                0.55464062               -0.04517965               -0.06111256                0.21282660                0.00279521                0.02573495               -0.00035581
               5.00114602                0.02127647               84.17897800                0.60501919               -0.06340992               -0.06258183                0.21506836                0.00390728                0.01688896                0.00094256
               6.00044469                0.02618488               84.17924846                0.66876248               -0.07269115               -0.06377060                0.21555529                0.00456124                0.00699622                0.00161310
               6.99969219                0.03097033               84.17947218                0.74846040               -0.07467370               -0.06464196                0.21467747                0.00457891               -0.00027833                0.00169618
               7.99895121                0.03557900               84.17968020                0.84836589               -0.07163963               -0.06536598                0.21311831                0.00379449               -0.00289051                0.00146661
               8.99825940                0.04006868               84.17990763                0.97582980               -0.06696565               -0.06618093                0.21138607                0.00207093               -0.00143821                0.00136968
               9.99761190                0.04455107               84.18016326                0.99503961               -0.06475010               -0.06755958                0.21308483               -0.00264777                0.00057482                0.00367940
               0.00154505                1.00516829               84.17753977                0.54131762               -0.06971384               -0.02304553                0.20033972                0.02924889               -0.00127012                0.00711764
               1.00084792                1.00602103               84.17771389                0.01103303               -0.10057658               -0.10060685                0.20241615                0.08731015               -0.00215440               -0.00219165
               1.99953352                1.00810542               84.17788747                0.01118103               -0.13260627               -0.06885569                0.20518609                0.17322539               -0.01081963                0.03108200
               2.99819579                1.01147442               84.17803819                0.01000000               -0.11969932               -0.05832068                0.20863328                0.20951361               -0.01973628                0.07441121
               3.99713954                1.01583600               84.17815181                0.01366054               -0.09397879               -0.04170466                0.21203609                0.15164105               -0.02467147                0.09432424
               4.99631621                1.02065066               84.17824152                0.02707991               -0.07480817               -0.05120782                0.21532986                0.05479524               -0.02512240                0.03706609
               5.99564337                1.02554717               84.17832898                0.10686906               -0.06376471               -0.05862709                0.21861775                0.03153900               -0.02197347               -0.00149318
               6.99504092                1.03032391               84.17843702                0.21080179               -0.06016925               -0.06480933                0.22220003                0.02243270               -0.01639209                0.00108459
               7.99443999                1.03492535               84.17858733                0.34821051               -0.06234197               -0.06828072                0.22643350                0.01187473               -0.00995123                0.00342776
               8.99379408                1.03940687               84.17879126                0.53507921               -0.06684778               -0.06958932                0.23154683                0.00384510               -0.00458295                0.00655215
               9.99310303                1.04387547               84.17904561                0.83110220               -0.06910489               -0.07268605                0.23516809               -0.00201897               -0.00308449                0.01033148
               0.00143700                2.00520574               84.17777509                0.49520118               -0.05688256               -0.00038954                0.20423016                0.01149140               -0.00334171                0.02247194
               1.00086817                2.00470616               84.17782369                0.01118503               -0.06647995               -0.13271210                0.20513998                0.17092228                0.03116691               -0.01081065
               2.00010740                2.00729733               84.17854629                0.01000001               -0.11794337               -0.11661676                0.21358143                0.41267225                0.04694636                0.06608858
               2.99850930                2.01090745               84.17932486                0.01000000               -0.22689648               -0.07272470                0.22639623                0.54162296                0.01389233                0.15135043
               3.99556947                2.01561303               84.17954338                0.01000000               -0.29892768               -0.03964330                0.22537352                0.57768314               -0.10670444                0.29892001
               4.99253075                2.02025232               84.17822607                0.01000001               -0.20836276               -0.08680411                0.22764715                0.54934873               -0.14363680                0.40145673
               5.99140221                2.02501233               84.17734846                0.01097188               -0.08840377               -0.04697383                0.23613175                0.44701590               -0.06717513                0.49544729
               6.99076267                2.02967414               84.17739146                0.01465257               -0.06482289               -0.04314840                0.24171318                0.34156892               -0.01585085                0.48218777
               7.99010575                2.03421339               84.17753543                0.01000000               -0.06882483               -0.22183492                0.24982706                0.34200698               -0.00605940                0.58429536
               8.98938618                2.03867689               84.17778057                0.08651146               -0.07357220               -0.06570897                0.25872327                0.34285488               -0.00125649                0.83181777
               9.98863431                2.04309735               84.17806664                0.59173746               -0.07518673               -0.51378523                0.25737868                0.46309030               -0.00236493                0.83154002
               0.00277404                3.00516050               84.17808709                0.51656120               -0.05992644               -0.01900065                0.20896928                0.00321237               -0.00221856                0.02929014
               1.00217478                3.00336679               84.17791129                0.01000000               -0.05941813               -0.11989192                0.20857830                0.21110564                0.07154286               -0.01965444
               2.00158568                3.00577308               84.17920171                0.01000000               -0.07311138               -0.22383621                0.22278726                0.54039459                0.15414886                0.02214645
               3.00071255                3.01001992               84.18098573                0.01000000               -0.11186709               -0.11152974                0.24199453                0.72222565                0.18700964                0.18364128
               3.99934834                3.01504313               84.18311044                0.01000001               -0.14043318               -0.10185758                0.20553821                0.77564172                0.13717504                0.35053078
               4.99790388                3.01891457               84.18472501                0.01000000               -0.20932358               -0.09789228                0.23003459                0.88684314                0.06112562                0.69008202
               5.99516186                3.02460769               84.18631179                0.01000001               -0.26163206               -0.09697263                0.15221796                0.96555040               -0.04486831                0.92073351
               6.99267124                3.02946094               84.18599499                0.01000000               -0.14422406               -0.13476236                0.18655622                0.79393370               -0.03535459                1.47287356
               7.99227738                3.03048865               84.18810489                0.01059263               -0.04520102               -0.40777248                0.33262104                0.94543081                0.29095920                1.60262906
               8.99176722                3.03809269               84.19321842                0.09105767                0.06232700               -0.35342161                0.27715506                0.65747891                0.21941480                1.51393802
               9.99352392                3.03359977               84.19345089                0.59285013                0.17567001               -0.76900591                0.27942733                0.16092957               -0.02307235                1.53525687
               0.00508867                4.00482573               84.17839728                0.55462218               -0.06109718               -0.04497634                0.21285758                0.00275089               -0.00032716                0.02583914
               1.00447770                4.00230833               84.17796196                0.01363489               -0.04132601               -0.09420116                0.21196714                0.15291415                0.09398250               -0.02454289
               2.00426215                4.00282060               84.17940733                0.01000000               -0.03969673               -0.30145035                0.22596096                0.58126724                0.29886555               -0.10288651
               3.00368377                4.00867686               84.18303596                0.01000001               -0.10372519               -0.13863765                0.20596097                0.77735575                0.35246997                0.13651352
               4.00218765                4.01357588               84.18621124                0.01000000               -0.14903586               -0.14579993                0.26947146                0.75657968                0.34982844                0.34752174
               5.00070305                4.01829447               84.18976004                0.01000000               -0.10103997               -0.07252148                0.28616820                0.77857312                0.39465417                0.66142943
               6.00016685                4.02307288               84.19399186                0.01000000                0.00286727               -0.19071516                0.41895041                0.83945248                0.67001171                0.91999683
               7.00076040                4.02697890               84.20289878                0.01870042                0.01078885               -0.26154353                0.32097935                0.69760971                0.60583871                1.24151917
               8.00038263                4.02605794               84.20720404                0.02326744               -0.06678799               -0.30782727                0.18527895                0.82533224                0.08620092                1.28371422
               8.99942464                4.03160846               84.20619023                0.11892288                0.02280568               -0.57774611                0.10521586                0.67188259               -0.09981563                1.04698229
              10.00083874                4.02771723               84.20688651                0.59327961                0.14141054               -0.36807785                0.12021627                0.10915250                0.01393396                1.00135498
               0.00786387                5.00426097               84.17866364                0.60501633               -0.06256824               -0.06321050                0.21510827                0.00385849                0.00097253                0.01689573
               1.00723818                5.00148276               84.17798884                0.02708797               -0.05106891               -0.07501076                0.21522977                0.05450308                0.03715447               -0.02493498
               2.00684249                4.99974408               84.17803619                0.01000001               -0.08668976               -0.21068502                0.22744936                0.55258523                0.40077548               -0.14237807
               3.00550439                5.00724717               84.18458261                0.01000000               -0.09900860               -0.20827984                0.23015177                0.89295571                0.68961932                0.05850373
               4.00486232                5.01212713               84.18967693                0.01000000               -0.07630230               -0.09698631                0.28649368                0.78128210                0.66264748                0.39209804
               5.00397834                5.01746414               84.19657779                0.01000000               -0.07979138               -0.07333965                0.38375405                0.66115465                0.71598479                0.71171861
               6.00326649                5.02079339               84.20420977                0.01000001               -0.01699819               -0.12364505                0.11687081                0.58213690                0.57171415                0.80922092
               7.00363838                5.02423007               84.20945562                0.02218754                0.04439898               -0.23788155                0.25880998                0.37684167                0.37295008                0.53610502
               8.00415447                5.02433210               84.21250516                0.09080420               -0.00463959               -0.12961506                0.17548559                0.30314669                0.08116452                0.30187109
               9.00354559                5.02653776               84.21177205                0.18516467               -0.03325194               -0.34920095                0.17112742                0.30727790               -0.05921998                0.38547453
              10.00348943                5.02623821               84.21196577                0.62385318               -0.00561577               -0.11290347                0.18645108                0.08593987                0.00564403                0.33597374
               0.01072227                6.00356152               84.17887019                0.66877131               -0.06376042               -0.07252905                0.21561532                0.00451626                0.00164631                0.00690661
               1.01008466                6.00080811               84.17801366                0.10691497               -0.05864069               -0.06391549                0.21848919                0.03109363               -0.00105878               -0.02174160
               2.00954945                5.99860690               84.17710402                0.01097603               -0.04624191               -0.08880603                0.23558374                0.45132064                0.49330492               -0.06618806
               3.00915982                6.00451126               84.18607871                0.01000001               -0.09765682               -0.26114952                0.15353779                0.97506176                0.91598882               -0.04827737
               4.00759632                6.01163615               84.19381756                0.01000000               -0.19499694                0.00879701                0.41995109                0.84800488                0.91756153                0.66296202
               5.00525989                6.01682768               84.20409269                0.01000001               -0.12763284               -0.01261661                0.11833880                0.58600928                0.81187903                0.56316105
               6.00504366                6.02059998               84.21053026                0.02355147               -0.02506833               -0.02342976                0.29160507                0.34122032                0.43582336                0.43028414
               7.00475852                6.02222127               84.21308857                0.09262665               -0.04528949               -0.13324091                0.18749520                0.16325726                0.10987476                0.17711482
               8.00413787                6.02346564               84.21307726                0.18035189               -0.05472167               -0.08339085                0.19374049                0.08311101               -0.01833784                0.03528398
               9.00366409                6.02462444               84.21306327                0.29533311               -0.04906113               -0.14170965                0.20325482                0.06306523               -0.00822799                0.08193792
              10.00315665                6.02545916               84.21315272                0.68570119               -0.05074380               -0.07553657                0.21602582                0.01776505                0.00258736                0.07473380
               0.01346101                7.00281039               84.17902927                0.74843187               -0.06463384               -0.07456771                0.21476305                0.00454051                0.00173487               -0.00044098
               1.01281467                7.00020445               84.17805894                0.21081807               -0.06476311               -0.06025005                0.22204255                0.02221681                0.00143605               -0.01613516
               2.01216575                6.99796796               84.17708443                0.01464701               -0.04191484               -0.06474128                0.24120280                0.34654905                0.48016226               -0.01527669
               3.01197638                7.00202418               84.18570568                0.01000000               -0.13298757               -0.14377082                0.18720626                0.80667091                1.46493495               -0.03706716
               4.00950600                7.01230307               84.20257397                0.01871122               -0.26208383                0.01464810                0.32193636                0.70964299                1.23611629                0.59795811
               5.00673470                7.01721181               84.20920351                0.02216836               -0.24043446                0.04544909                0.25974262                0.38133260                0.53851850                0.36559769
               6.00469731                7.02032480               84.21295915                0.09262720               -0.13484166               -0.04500096                0.18838330                0.16475512                0.18225952                0.10377381
               7.00403787                7.02156525               84.21310775                0.18199395               -0.06418954               -0.06400768                0.19645971                0.03788470               -0.00217099               -0.00706542
               8.00341352                7.02266428               84.21317360                0.29726827               -0.06122467               -0.07463085                0.20609806                0.02416017               -0.00485205                0.00130793
               9.00281337                7.02370357               84.21324535                0.45093168               -0.06191147               -0.08240224                0.21683384                0.01068468               -0.00150909                0.00757264
              10.00217529                7.02472748               84.21333266                0.77574095               -0.06380848               -0.07262929                0.22874735                0.00067223                0.00114318                0.00910871
               0.01602496                8.00207017               84.17917232                0.84840449               -0.06535204               -0.07159791                0.21322074                0.00376997                0.00151138               -0.00309549
               1.01537144                7.99960311               84.17814656                0.34820456               -0.06821241               -0.06234954                0.22623250                0.01180428                0.00367668               -0.00968780
               2.01466071                7.99731208               84.17716582                0.01000000               -0.22066564               -0.06868915                0.24924789                0.34737550                0.58164661               -0.00551512
               3.01095812                8.00163585               84.18774507                0.01061069               -0.40295832               -0.04412532                0.33364876                0.96302690                1.59316359                0.28791038
               4.00660154                8.01192911               84.20677203                0.02328161               -0.30466547               -0.06817518                0.18770453                0.83954744                1.27512391                0.08072924
               5.00486481                8.01773666               84.21213852                0.09077627               -0.13081117               -0.00488725                0.17825003                0.30731165                0.30249754                0.07629249
               6.00398532                8.01969996               84.21283626                0.18030829               -0.08440454               -0.05521723                0.19553738                0.08445637                0.03872950               -0.02247881
               7.00317672                8.02094111               84.21305550                0.29724366               -0.07512814               -0.06136294                0.20695897                0.02444743                0.00436560               -0.00841223
               8.00248276                8.02197302               84.21313728                0.45199004               -0.06810696               -0.06800867                0.21659091                0.00721970               -0.00346517               -0.00592859
               9.00181458                8.02297639               84.21320609                0.66517330               -0.06802395               -0.07167559                0.22686041                0.00176011               -0.00201071               -0.00578470
              10.00112228                8.02400657               84.21329979                0.90185879               -0.06923073               -0.07279254                0.23838777               -0.00141627               -0.00008841               -0.00382795
               0.01847052                9.00137844               84.17933449                0.97587000               -0.06616773               -0.06698266                0.21153085                0.00206357                0.00142411               -0.00162436
               1.01780884                8.99895746               84.17828764                0.53509955               -0.06950004               -0.06680553                0.23132978                0.00384707                0.00670098               -0.00439255
               2.01708052                8.99659417               84.17734827                0.08660228               -0.05944839               -0.07341169                0.25811970                0.34895709                0.82684182               -0.00091320
               3.01661988                9.00114167               84.19275366                0.09118716               -0.34421955                0.06047664                0.27858499                0.66930388                1.50086306                0.21612244
               4.01019613                9.01093957               84.20568712                0.11898033               -0.57548968                0.01934446                0.10979162                0.67980397                1.03731058               -0.10198502
               5.00511008                9.01711407               84.21133554                0.18516007               -0.35070736               -0.03485042                0.17460446                0.31118525                0.38342699               -0.06074037
               6.00318198                9.01922045               84.21273173                0.29528837               -0.14281648               -0.04985519                0.20570695                0.06412760                0.08217937               -0.01012427
               7.00225375                9.02033800               84.21302392                0.45080189               -0.08296763               -0.06237868                0.21844829                0.01092347                0.00811079               -0.00329061
               8.00152263                9.02130411               84.21309487                0.66501560               -0.07193650               -0.06824451                0.22767223                0.00181805               -0.00517418               -0.00338472
               9.00081502                9.02227006               84.21314540                0.97422038               -0.07180147               -0.07180176                0.23740736                0.00010515               -0.00362565               -0.00419013
              10.00008660                9.02327163               84.21324356                0.98938217               -0.07284226               -0.07502859                0.24870035               -0.00184042               -0.00112651               -0.00299137
               0.02090817               10.00073051               84.17952539                0.99507239               -0.06755330               -0.06479230                0.21325461               -0.00258613                0.00359132                0.00043595
               1.02023264                9.99826700               84.17847793                0.83112900               -0.07262664               -0.06904637                0.23496087               -0.00195373                0.01021784               -0.00296675
               2.01945564                9.99584384               84.17756853                0.59184865               -0.51169186               -0.07503277                0.25682447                0.46643105                0.82701317               -0.00222960
               3.00999880               10.00284538               84.19293531                0.59298913               -0.76152074                0.17037074                0.28101692                0.16150069                1.52476804               -0.02241867
               4.00422523               10.01231600               84.20634598                0.59334946               -0.35955829                0.13764339                0.12495807                0.11262335                0.99105327                0.01384158
               5.00280764               10.01703965               84.21148050                0.62384130               -0.10906425               -0.00744140                0.19038032                0.08909826                0.33085171                0.00521246
               6.00204394               10.01870286               84.21275382                0.68564201               -0.07480525               -0.05175925                0.21902387                0.01889022                0.07169568                0.00188467
               7.00131153               10.01969354               84.21302814                0.77564866               -0.07284442               -0.06444567                0.23098968                0.00104166                0.00669773                0.00040194
               8.00058705               10.02060813               84.21309199                0.90174604               -0.07311813               -0.06959787                0.23990866               -0.00121678               -0.00596942               -0.00071342
               8.99984917               10.02154036               84.21313435                0.98937563               -0.07523606               -0.07297021                0.24949341               -0.00169185               -0.00447937               -0.00158436
               9.99908233               10.02250600               84.21323259                0.99995665               -0.07668384               -0.07656266                0.26074066               -0.00386249               -0.00211521               -0.00116684
               0.00235681                0.00553063               85.17938461                0.79508597               -0.04850447               -0.04850307                0.19727299                0.00440828                0.00075584                0.00084504
               1.00187177                0.00658408               85.17960386                0.54128591               -0.01911398               -0.07061085                0.19965983                0.03286916                0.00813521               -0.00138365
               2.00197453                0.00864875               85.17994269                0.49609115                0.00426373               -0.05602368                0.20407046                0.01277470                0.02518088               -0.00356479
               3.00195704                0.01229095               85.18036725                0.51787554               -0.01851308               -0.05945507                0.20948088                0.00428110                0.03151814               -0.00205177
               4.00160427                0.01694618               85.18078041                0.55616653               -0.04813087               -0.06082236                0.21373452                0.00401808                0.02563790                0.00015067
               5.00099443                0.02202436               85.18113199                0.60648523               -0.06812991               -0.06251921                0.21586799                0.00530010                0.01360105                0.00163833
               6.00024167                0.02710938               85.18140472                0.66958605               -0.07755755               -0.06384497                0.21574267                0.00595188                0.00076359                0.00242880
               6.99944328                0.03199008               85.18161525                0.74787056               -0.07851094               -0.06475151                0.21387523                0.00582913               -0.00859915                0.00266149
               7.99867146                0.03662655               85.18180250                0.84561409               -0.07369962               -0.06545637                0.21115819                0.00477200               -0.01231592                0.00266649
               8.99796928                0.04110752               85.18200709                0.97048583               -0.06715598               -0.06627913                0.20820377                0.00255366               -0.00928869                0.00319310
               9.99732834                0.04558282               85.18227858                1.00000000               -0.06409472               -0.06787046                0.20965449               -0.00384527               -0.00524596                0.00042948
               0.00134744                1.00504560               85.17954004                0.54132093               -0.07060427               -0.01909658                0.19965268                0.03286127               -0.00134352                0.00829753
               1.00064140                1.00587798               85.17973508                0.01069396               -0.10492979               -0.10495715                0.20174464                0.09801350               -0.00188770               -0.00193709
               1.99924885                1.00808851               85.17993776                0.01196690               -0.13951302               -0.05940688                0.20483489                0.17797047               -0.01041964                0.03243508
               2.99785114                1.01169640               85.18012611                0.01027618               -0.12355504               -0.06536733                0.20896101                0.22309116               -0.01905163                0.08689225
               3.99677775                1.01633796               85.18027706                0.01442895               -0.09426562               -0.03281742                0.21311574                0.15716487               -0.02364438                0.10246444
               4.99596583                1.02139917               85.18040293                0.02828042               -0.07297050               -0.04856606                0.21713879                0.06888812               -0.02352259                0.04360207
               5.99531834                1.02647093               85.18052620                0.10761091               -0.06114237               -0.05711067                0.22105710                0.04407591               -0.01959348                0.00768371
               6.99474298                1.03134256               85.18067257                0.21032720               -0.05789411               -0.06532071                0.22518028                0.03010056               -0.01295695                0.00887695
               7.99416045                1.03597199               85.18086806                0.34620530               -0.06131486               -0.06955498                0.23001317                0.01578682               -0.00525089                0.01036104
               8.99351668                1.04044473               85.18112709                0.53246491               -0.06729382               -0.07095668                0.23598725                0.00516837               -0.00012738                0.01252208
               9.99281458                1.04490412               85.18141928                0.82971559               -0.07021049               -0.07506026                0.23995646               -0.00277152                0.00035684                0.00720698
               0.00134929                2.00514870               85.17981653                0.49611671               -0.05601633                0.00433650                0.20405899                0.01276100               -0.00355371                0.02542134
               1.00078913                2.00448494               85.17987373                0.01000001               -0.08168850               -0.13960306                0.20480864                0.20031071                0.03253826               -0.01044425
               1.99971552                2.00746061               85.18063384                0.01000001               -0.13098503               -0.12257503                0.21512357                0.44652985                0.06481074                0.08721892
               2.99816942                2.01098360               85.18165309                0.01000000               -0.23353603               -0.07884464                0.22987304                0.58630621                0.03746574                0.18791998
               3.99504480                2.01628983               85.18181364                0.01024503               -0.29651044               -0.03739823                0.22672951                0.61653924               -0.06274487                0.30405666
               4.99223922                2.02105304               85.18051173                0.01000001               -0.19324976               -0.04462120                0.23351800                0.53513701               -0.12741154                0.42091278
               5.99117980                2.02596716               85.17975441                0.01139670               -0.08474939               -0.06815493                0.24543196                0.44693707               -0.05060759                0.50191375
               6.99054423                2.03068366               85.17985664                0.01535094               -0.06473882               -0.08017452                0.25191749                0.34936280               -0.00053112                0.50395657
               7.98988503                2.03523545               85.18008936                0.01000000               -0.07018548               -0.17484769                0.26211597                0.35503037                0.01171578                0.64455984
               8.98914052                2.03968838               85.18043531                0.10001591               -0.07654520               -0.07261346                0.27390978                0.33060077                0.01082735                0.82944014
               9.98835412                2.04408162               85.18070244                0.60354539               -0.07863961               -0.51685679                0.27131158                0.44793442                0.00312573                0.81899527
               0.00293018                3.00513233               85.18017882                0.51783469               -0.05944788               -0.01837439                0.20949086                0.00425844               -0.00202871                0.03173004
               1.00233570                3.00308591               85.17999872                0.01025013               -0.06246995               -0.12371887                0.20893643                0.23173575                0.08301696               -0.01900277
               2.00168078                3.00563701               85.18150890                0.01000000               -0.07938273               -0.25525466                0.24682629                0.60992858                0.20016400                0.04751168
               3.00074805                3.01011951               85.18347644                0.01000000               -0.13208440               -0.12734019                0.25520554                0.79865927                0.20737528                0.20122959
               3.99903909                3.01558999               85.18544059                0.01000001               -0.18784060               -0.10116059                0.25411584                0.90844994                0.17025640                0.43237458
               4.99699123                3.02050675               85.18722126                0.01000000               -0.22063172               -0.07665818                0.26583671                0.91716614                0.11994510                0.74334276
               5.99462646                3.02510783               85.18869299                0.01000000               -0.22646421               -0.10226300                0.24559275                0.85303059                0.05436338                0.97377255
               6.99246195                3.02973907               85.18883614                0.01146737               -0.11850593               -0.25337773                0.36345110                0.76549656                0.14633013                1.30230034
               7.99225634                3.03247503               85.19189192                0.01510359               -0.05897093               -0.38259292                0.32756717                0.90668240                0.32818067                1.52363981
               8.99128253                3.03899246               85.19594875                0.10781682                0.03652302               -0.34187789                0.27102858                0.57331317                0.16785668                1.42361690
               9.99298680                3.03456698               85.19618336                0.60710142                0.17042687               -0.77655819                0.26825050                0.14906978               -0.03412095                1.46422647
               0.00552729                4.00478121               85.18052947                0.55615138               -0.06081318               -0.04796133                0.21375472                0.00397826                0.00017944                0.02577470
               1.00491916                4.00201056               85.18008658                0.01442167               -0.03233962               -0.09445454                0.21307817                0.15823022                0.10320555               -0.02354794
               2.00488050                4.00235552               85.18169802                0.01024101               -0.03647626               -0.30590950                0.22719330                0.61643190                0.30390261               -0.05818293
               3.00418963                4.00843680               85.18537566                0.01000001               -0.10269703               -0.18640163                0.25533926                0.91004990                0.43364792                0.17007436
               4.00282656                4.01426662               85.18937915                0.01000000               -0.15624659               -0.15218074                0.32346192                0.90348883                0.44582065                0.44393836
               5.00106470                4.01951988               85.19334067                0.01000000               -0.19092324               -0.12379357                0.34525692                0.85788353                0.44883309                0.75722801
               5.99900809                4.02392190               85.19787436                0.01052748               -0.12888720               -0.15625914                0.42045042                0.74551485                0.48357061                0.91936537
               6.99848696                4.02561611               85.20379048                0.01000000               -0.01214018               -0.29080323                0.07599850                0.73486952                0.42824159                1.24748820
               7.99876529                4.02758359               85.20886032                0.02713686                0.00139379               -0.40519531                0.18687873                0.93496786                0.06636528                1.18811401
               8.99851483                4.03285083               85.20722971                0.12926130                0.07105903               -0.60126179                0.11059868                0.64077426               -0.13393314                0.99869188
              10.00018647                4.02855045               85.20806051                0.60052243                0.16716364               -0.40542232                0.12037929                0.08469675                0.00899112                0.97148700
               0.00855104                5.00417310               85.18081788                0.60650099               -0.06250439               -0.06796129                0.21587443                0.00525930                0.00166739                0.01363611
               1.00792600                5.00119682               85.18014941                0.02830551               -0.04839296               -0.07313095                0.21706033                0.06866667                0.04382636               -0.02338393
               2.00758318                4.99951882               85.18032276                0.01000001               -0.04440260               -0.19513028                0.23328996                0.53783775                0.42052236               -0.12762415
               3.00703795                5.00639147               85.18708136                0.01000000               -0.07786954               -0.22014048                0.26624655                0.92163333                0.74284742                0.11792089
               4.00602579                5.01254638               85.19326269                0.01000000               -0.12721627               -0.18656481                0.34571412                0.86028955                0.75833303                0.44584185
               5.00449362                5.01803088               85.20076067                0.01175278               -0.12926320               -0.12530418                0.44039451                0.73931016                0.67679296                0.67314847
               6.00344053                5.02198265               85.20561227                0.01000000               -0.04979833               -0.15273621                0.20627261                0.60698342                0.61536716                0.87683258
               7.00349765                5.02392301               85.21241364                0.02582187                0.01402256               -0.17537374                0.28422191                0.42128620                0.42859070                0.51328995
               8.00372098                5.02437113               85.21422980                0.09561031               -0.01832489               -0.20746651                0.17070633                0.40872258               -0.00157303                0.30750166
               9.00313116                5.02696722               85.21344652                0.19390398               -0.02197486               -0.40916475                0.16587509                0.35243219               -0.07300000                0.43641334
              10.00328148                5.02645854               85.21380575                0.62904545                0.01503260               -0.15363187                0.18345696                0.09142166                0.00656444                0.38430934
               0.01158504                6.00342199               85.18102679                0.66962786               -0.06382644               -0.07741412                0.21574679                0.00591708                0.00245560                0.00071485
               1.01094677                6.00054794               85.18020969                0.10754397               -0.05712177               -0.06125692                0.22093828                0.04375056                0.00783675               -0.01941283
               2.01044260                5.99845291               85.17950174                0.01139917               -0.06760128               -0.08506933                0.24514814                0.45073546                0.50070459               -0.05001488
               3.00959475                6.00403399               85.18847404                0.01000000               -0.10248273               -0.22587338                0.24655410                0.86184690                0.97177264                0.05264050
               4.00839295                6.01053532               85.19770675                0.01053821               -0.15900563               -0.12411127                0.42107908                0.75112827                0.91999437                0.47707242
               5.00641463                6.01701380               85.20551591                0.01000000               -0.15686578               -0.04570533                0.20788219                0.60962289                0.88099917                0.60583437
               6.00525563                6.02086718               85.21373396                0.02756651               -0.09452161               -0.09178058                0.26743019                0.30837681                0.46083708                0.45539890
               7.00452420                6.02210863               85.21492954                0.09758708               -0.06800528               -0.12374053                0.18088333                0.14591752                0.03044060                0.11352017
               8.00389552                6.02343426               85.21498497                0.18606356               -0.05240673               -0.08911297                0.18852942                0.10361152               -0.02568807                0.04061177
               9.00347607                6.02466753               85.21507373                0.30211174               -0.04316257               -0.16581496                0.19954398                0.07851796               -0.01115015                0.09794769
              10.00303227                6.02547782               85.21530313                0.68929815               -0.04437932               -0.08858155                0.21493141                0.01896290                0.00312853                0.08761020
               0.01441747                7.00262482               85.18117301                0.74785783               -0.06473852               -0.07841883                0.21391200                0.00580065                0.00269160               -0.00871381
               1.01377008                6.99997169               85.18029314                0.21030305               -0.06528102               -0.05795607                0.22505164                0.02993571                0.00910112               -0.01275292
               2.01311184                6.99781744               85.17954381                0.01535178               -0.07888027               -0.06470110                0.25156088                0.35384747                0.50252831                0.00013361
               3.01219247                7.00187401               85.18855326                0.01147792               -0.25216464               -0.11760386                0.36371222                0.77706577                1.29610433                0.14562357
               4.00806855                7.01006415               85.20348488                0.01000000               -0.29191272               -0.00986562                0.07960518                0.74491178                1.24184327                0.41764028
               5.00635422                7.01711677               85.21217392                0.02582885               -0.17776627                0.01653346                0.28584125                0.42430294                0.51504701                0.42081352
               6.00451323                7.02014704               85.21480909                0.09756978               -0.12526490               -0.06762954                0.18181595                0.14716704                0.11861757                0.02469928
               7.00384892                7.02144820               85.21504186                0.18787224               -0.06394581               -0.06373046                0.19097184                0.04662093               -0.00581160               -0.01040684
               8.00323431                7.02258887               85.21521040                0.30334290               -0.05954810               -0.07715490                0.20167539                0.03107401               -0.00747767                0.00082967
               9.00265796                7.02365092               85.21539768                0.45659614               -0.05970701               -0.08802793                0.21401756                0.01380855               -0.00258107                0.00783557
              10.00204017                7.02468690               85.21561453                0.77844855               -0.06177902               -0.07634453                0.22810947                0.00042536                0.00113294                0.00826231
               0.01700732                8.00185361               85.18129544                0.84561772               -0.06544508               -0.07366439                0.21122211                0.00475465                0.00270424               -0.01247969
               1.01635287                7.99938882               85.18042556                0.34620178               -0.06950468               -0.06132262                0.22986470                0.01573511                0.01056979               -0.00505057
               2.01561723                7.99715889               85.17971485                0.01000000               -0.17317619               -0.07008823                0.26169415                0.36029206                0.64280198                0.01220038
               3.01288935                8.00168191               85.19154327                0.01513206               -0.37844045               -0.05866886                0.32797699                0.92064771                1.51520442                0.32539168
               4.00804842                8.01033801               85.20844984                0.02715301               -0.40357695               -0.00014879                0.18912803                0.94623395                1.18064766                0.06121483
               5.00481781                8.01734447               85.21389037                0.09560051               -0.20904368               -0.01875881                0.17334472                0.41296111                0.30847531               -0.00570522
               6.00386755                8.01951459               85.21476145                0.18601909               -0.09015099               -0.05285845                0.19022269                0.10500155                0.04373532               -0.02956551
               7.00301479                8.02083402               85.21510046                0.30329629               -0.07766335               -0.05966000                0.20249122                0.03138537                0.00365668               -0.01082032
               8.00231428                8.02189116               85.21528401                0.45714139               -0.06802943               -0.06791946                0.21300861                0.00955161               -0.00555931               -0.00786345
               9.00165420                8.02290697               85.21546262                0.66768626               -0.06727313               -0.07246641                0.22459384                0.00238083               -0.00311763               -0.00820890
              10.00096882                8.02395093               85.21568092                0.90230323               -0.06853839               -0.07371239                0.23800982               -0.00168482               -0.00042737               -0.00676923
               0.01944213                9.00115153               85.18143495                0.97048599               -0.06626307               -0.06716296                0.20828938                0.00254615                0.00324038               -0.00943727
               1.01877950                8.99874523               85.18062142                0.53248085               -0.07087672               -0.06726045                0.23581295                0.00517624                0.01265507                0.00001900
               2.01802460                8.99641567               85.17999779                0.10009593               -0.06765941               -0.07642258                0.27344967                0.33543980                0.82564078                0.01108680
               3.01742631                9.00070063               85.19549941                0.10792850               -0.33469578                0.03413053                0.27253453                0.58205320                1.41343606                0.16469406
               4.01133068                9.01006118               85.20677001                0.12931240               -0.59947237                0.06809320                0.11461512                0.64688898                0.99066834               -0.13511822
               5.00543686                9.01674159               85.21304395                0.19391215               -0.41034904               -0.02351368                0.16913785                0.35605565                0.43403863               -0.07435283
               6.00312370                9.01908987               85.21476603                0.30203951               -0.16684041               -0.04391800                0.20186040                0.07958920                0.09798758               -0.01294796
               7.00210006                9.02025500               85.21519187                0.45647969               -0.08856528               -0.06014395                0.21553553                0.01406148                0.00830271               -0.00424789
               8.00135239                9.02123048               85.21535937                0.66757922               -0.07271200               -0.06747511                0.22535290                0.00244356               -0.00764667               -0.00439607
               9.00064582                9.02220159               85.21551328                0.96959034               -0.07169126               -0.07169129                0.23615613                0.00018379               -0.00507595               -0.00559098
               9.99991857                9.02321266               85.21573311                1.00000000               -0.07272471               -0.07541614                0.24919046               -0.00210785               -0.00165925               -0.00462984
               0.02187085               10.00051035               85.18164191                1.00000000               -0.06785887               -0.06411836                0.20975486               -0.00380194                0.00036491               -0.00535315
               1.02119226                9.99804361               85.18084959                0.82977783               -0.07501096               -0.07016185                0.23978375               -0.00271965                0.00713002                0.00044978
               2.02037063                9.99563044               85.18019943                0.60362052               -0.51536749               -0.07852312                0.27088009                0.45064864                0.81572727                0.00322442
               3.01088491               10.00236452               85.19568400                0.60721597               -0.77126959                0.16638944                0.26975223                0.14933136                1.45670823               -0.03356237
               4.00494523               10.01169987               85.20756413                0.60057681               -0.39873387                0.16386993                0.12434127                0.08693885                0.96335027                0.00899413
               5.00291023               10.01687419               85.21335833                0.62904526               -0.14996539                0.01325977                0.18702366                0.09415440                0.37925099                0.00620768
               6.00194593               10.01863623               85.21493314                0.68926340               -0.08774119               -0.04536367                0.21771583                0.02007048                0.08455617                0.00246822
               7.00115541               10.01963114               85.21533167                0.77836455               -0.07646880               -0.06238511                0.23018493                0.00080671                0.00595338                0.00044585
               8.00041655               10.02054166               85.21548797                0.90221592               -0.07398552               -0.06888159                0.23941504               -0.00148411               -0.00878182               -0.00100078
               8.99967570               10.02147315               85.21563166                1.00000000               -0.07560091               -0.07284471                0.24993093               -0.00196488               -0.00602714               -0.00207526
               9.99890453               10.02244260               85.21585095                0.99837820               -0.07711630               -0.07700541                0.26288055               -0.00445794               -0.00265843               -0.00177024
               0.00213412                0.00537270               86.18135330                0.79444122               -0.04703992               -0.04703722                0.19642775                0.00494846                0.00098210                0.00107119
               1.00166372                0.00642819               86.18159674                0.54113890               -0.01488097               -0.07157771                0.19886032                0.03688698                0.00965995               -0.00145627
               2.00183650                0.00861300               86.18198264                0.49713045                0.00892645               -0.05500324                0.20395344                0.01410555                0.02885050               -0.00378135
               3.00184225                0.01251511               86.18246509                0.51946815               -0.01878003               -0.05886958                0.21024542                0.00551282                0.03433032               -0.00174487
               4.00146090                0.01745684               86.18292304                0.55817428               -0.05242582               -0.06047844                0.21496871                0.00550621                0.02512226                0.00082666
               5.00079373                0.02276738               86.18329536                0.60849463               -0.07420967               -0.06244147                0.21693261                0.00697071                0.00898038                0.00250734
               5.99997671                0.02799048               86.18356331                0.67075974               -0.08356507               -0.06393344                0.21603615                0.00759130               -0.00751210                0.00340092
               6.99912243                0.03290891               86.18374969                0.74720765               -0.08318258               -0.06488542                0.21295985                0.00728531               -0.01937303                0.00378849
               7.99831306                0.03750121               86.18390337                0.84206498               -0.07624465               -0.06555038                0.20885019                0.00592039               -0.02440645                0.00411087
               8.99759754                0.04189253               86.18407170                0.96349108               -0.06745351               -0.06634435                0.20444020                0.00312957               -0.01938012                0.00554571
               9.99696399                0.04627826               86.18435635                1.00000000               -0.06335541               -0.06825083                0.20558753               -0.00524630               -0.01280866               -0.00375970
               0.00112811                1.00490233               86.18153282                0.54115012               -0.07156741               -0.01486516                0.19885561                0.03687863               -0.00140889                0.00981905
               1.00041244                1.00571241               86.18174879                0.01078150               -0.10970094               -0.10972797                0.20091439                0.10992731               -0.00144300               -0.00150578
               1.99893410                1.00806297               86.18198417                0.01000000               -0.14684905               -0.05712147                0.20439274                0.20008760               -0.00961046                0.04050587
               2.99747546                1.01192642               86.18221741                0.01116950               -0.12721320               -0.05997944                0.20934541                0.25128264               -0.01764572                0.09653000
               3.99638983                1.01685206               86.18241412                0.01000000               -0.09394193               -0.04631020                0.21439979                0.21057886               -0.02169137                0.10983652
               4.99559662                1.02214296               86.18258429                0.03010249               -0.07039882               -0.04575661                0.21928459                0.08735527               -0.02091071                0.05374829
               5.99498186                1.02735115               86.18275012                0.10874510               -0.05783486               -0.05533305                0.22395233                0.05927647               -0.01619470                0.01931554
               6.99443992                1.03226005               86.18294062                0.21017600               -0.05507023               -0.06595987                0.22869418                0.03946153               -0.00844983                0.01855919
               7.99388045                1.03684570               86.18318760                0.34452070               -0.05998070               -0.07102393                0.23417191                0.02086879                0.00076742                0.01932530
               8.99324031                1.04122908               86.18351100                0.53020269               -0.06773315               -0.07242442                0.24111884                0.00710736                0.00558672                0.02095423
               9.99252579                1.04559575               86.18384474                0.82860639               -0.07145219               -0.07825417                0.24547384               -0.00340412                0.00484100                0.00380353
               0.00125152                2.00507540               86.18185627                0.49714997               -0.05498955                0.00899191                0.20393670                0.01410020               -0.00377036                0.02911035
               1.00070163                2.00423363               86.18191986                0.01000001               -0.08136359               -0.14692660                0.20437537                0.22438845                0.04062170               -0.00964140
               1.99962425                2.00747057               86.18284876                0.01034787               -0.13114047               -0.12019170                0.23543653                0.51295201                0.11442468                0.10310334
               2.99807882                2.01131552               86.18392232                0.01000000               -0.20841575               -0.08022370                0.22566073                0.62564846                0.07654750                0.22067912
               3.99545593                2.01653064               86.18407797                0.01085056               -0.30185340               -0.03634715                0.26421869                0.65777672                0.00557128                0.31654970
               4.99204175                2.02185224               86.18289643                0.01000001               -0.22053942               -0.05952346                0.25099701                0.59034732               -0.10648915                0.45481601
               5.99104515                2.02688382               86.18225710                0.01219838               -0.08123202               -0.06939773                0.25677896                0.46949283               -0.03129580                0.51227672
               6.99041711                2.03158971               86.18242981                0.01663260               -0.06418717               -0.03434696                0.26376660                0.35779511                0.01911958                0.59934513
               7.98976140                2.03608073               86.18277775                0.01352404               -0.07137343               -0.23276109                0.27637947                0.33511329                0.03547931                0.64601216
               8.98898964                2.04044404               86.18325877                0.11891716               -0.07994200               -0.07292257                0.29265289                0.31125271                0.02719581                0.81520651
               9.98816256                2.04471318               86.18349288                0.61952321               -0.08270766               -0.50347627                0.28865781                0.41923880                0.01055493                0.78838786
               0.00309365                3.00508216               86.18227691                0.51949395               -0.05886157               -0.01866194                0.21024207                0.00549735               -0.00172937                0.03457090
               1.00250503                3.00277388               86.18209002                0.01117200               -0.04912031               -0.12734734                0.20932981                0.26243017                0.11067139               -0.01761126
               2.00211124                3.00565914               86.18413824                0.01000000               -0.07883345               -0.23137450                0.23420608                0.64874682                0.21684621                0.06894740
               3.00092836                3.01032194               86.18608984                0.01032072               -0.15512978               -0.14210503                0.27078832                0.85313789                0.21743932                0.23051704
               3.99900865                3.01612511               86.18819276                0.01000001               -0.19389906               -0.09490469                0.25964071                0.91568375                0.19858039                0.47454786
               4.99705038                3.02095249               86.19004175                0.01000000               -0.21872000               -0.09763155                0.29700173                0.94904156                0.16845441                0.74659592
               5.99463425                3.02596319               86.19122365                0.01000000               -0.23257322               -0.11714540                0.28533069                0.94819614                0.18131550                1.09297239
               6.99239892                3.03157311               86.19326401                0.01458144               -0.14529288               -0.16192729                0.43684637                0.70747275                0.22856927                1.12799399
               7.99172839                3.03219048               86.19465624                0.01000000               -0.07830011               -0.42991981                0.33065129                0.83534114                0.32716907                1.28351046
               8.99083292                3.03977063               86.19863899                0.13004992                0.03219470               -0.31797578                0.26885787                0.59459417                0.16965725                1.32196853
               9.99237228                3.03552623               86.19881590                0.62581511                0.15393669               -0.75943016                0.25957452                0.13527902               -0.04146755                1.37889584
               0.00597804                4.00470216               86.18267237                0.55814242               -0.06047775               -0.05228976                0.21497660                0.00547852                0.00084608                0.02525425
               1.00537326                4.00168668               86.18222353                0.01000000               -0.04634565               -0.09409511                0.21438674                0.21228626                0.11004630               -0.02163485
               2.00505112                4.00284308               86.18395120                0.01084899               -0.03488315               -0.31356308                0.26533465                0.64982391                0.31747667               -0.00743352
               3.00467560                4.00847342               86.18814274                0.01000001               -0.09560313               -0.19073683                0.26034560                0.91412529                0.47404555                0.19694980
               4.00313906                4.01463254               86.19268048                0.01005164               -0.17455481               -0.17043709                0.34265807                0.93836028                0.46327404                0.46280223
               5.00118450                4.01989961               86.19666518                0.01000000               -0.18753064               -0.11003143                0.35767169                0.90113062                0.52281419                0.80923358
               5.99938845                4.02454091               86.20240087                0.01329465               -0.14226126               -0.17463759                0.39129865                0.88690865                0.44530842                0.86728670
               6.99833927                4.02835116               86.20441875                0.01000000               -0.05588696               -0.41081498                0.17720663                0.70675774                0.46452546                1.20762658
               7.99827071                4.02748233               86.21094162                0.03252632               -0.03967480               -0.39164996                0.20989789                0.85475471                0.15802879                1.04399600
               8.99754578                4.03408452               86.20840221                0.14356270                0.05431209               -0.61743144                0.13131062                0.68594826               -0.17783069                0.93667831
               9.99935695                4.02952457               86.20929410                0.61057277                0.18111720               -0.44222229                0.13288581                0.07050383                0.00010748                0.93983558
               0.00923417                5.00403637               86.18298113                0.60846876               -0.06243324               -0.07407325                0.21692689                0.00693883                0.00253188                0.00901863
               1.00860983                5.00089198               86.18233005                0.03010507               -0.04565924               -0.07052793                0.21924053                0.08723481                0.05375886               -0.02082598
               2.00832098                4.99938787               86.18270199                0.01000001               -0.05942121               -0.22287607                0.25085107                0.59316465                0.45470504               -0.10619433
               3.00742141                5.00650721               86.18990755                0.01000000               -0.09856586               -0.21906252                0.29748071                0.95215854                0.74634765                0.16576794
               4.00634966                5.01271637               86.19659121                0.01000000               -0.11283919               -0.18385651                0.35803820                0.90299639                0.80969922                0.51979934
               5.00516462                5.01875186               86.20538568                0.01485721               -0.12143971               -0.11842474                0.36781567                0.77111122                0.61105610                0.60837394
               6.00392087                5.02247044               86.20833522                0.01000001               -0.07859856               -0.20148874                0.28440953                0.50316401                0.53135857                0.70873223
               7.00359265                5.02335681               86.21514006                0.03076365               -0.04153719               -0.32438602                0.23888962                0.38320467                0.35264954                0.56532953
               8.00309013                5.02435748               86.21591928                0.10212568               -0.05415065               -0.20925279                0.16793648                0.46371958               -0.07731588                0.29013162
               9.00250964                5.02742200               86.21508955                0.20625765               -0.00939355               -0.47261477                0.16597213                0.39507215               -0.08701731                0.47738982
              10.00290225                5.02668178               86.21563491                0.63655486                0.03926139               -0.20609974                0.18504128                0.09615202                0.00647001                0.42974364
               0.01240559                6.00322069               86.18318513                0.67075526               -0.06391439               -0.08344473                0.21601470                0.00756440                0.00343001               -0.00752972
               1.01176645                6.00027613               86.18243243                0.10878311               -0.05532033               -0.05792271                0.22386466                0.05904659                0.01968945               -0.01605317
               2.01129919                5.99838556               86.18200698                0.01221217               -0.06880915               -0.08151756                0.25660129                0.47256285                0.51143051               -0.03063898
               3.01039027                6.00409217               86.19100979                0.01000000               -0.11724283               -0.23198935                0.28561019                0.95529178                1.09053341                0.17899988
               4.00895433                6.01095541               86.20223914                0.01331192               -0.17688070               -0.14017928                0.39197072                0.89057404                0.86710678                0.44055513
               5.00685265                6.01753112               86.20825034                0.01000001               -0.20537768               -0.07491194                0.28526670                0.50512651                0.71143643                0.52424285
               6.00484678                6.02051114               86.21587886                0.03296511               -0.13681636               -0.13395730                0.20474342                0.23065872                0.37976775                0.37495702
               7.00411633                6.02186344               86.21670624                0.10402458               -0.06834328               -0.10853083                0.17653260                0.13569014               -0.00191955                0.05797772
               8.00347991                6.02329728               86.21684785                0.19336665               -0.04967016               -0.09878237                0.18527714                0.12934002               -0.03428528                0.04492348
               9.00312292                6.02463223               86.21705415                0.31100075               -0.03597401               -0.19753017                0.19771940                0.09766396               -0.01505571                0.11430790
              10.00276043                6.02540258               86.21745135                0.69412355               -0.03624914               -0.10834229                0.21598442                0.02013488                0.00358642                0.10051595
               0.01527459                7.00236748               86.18330751                0.74720564               -0.06486909               -0.08310332                0.21295668                0.00726531                0.00381754               -0.01944076
               1.01462590                6.99973352               86.18255997                0.21021145               -0.06591988               -0.05511563                0.22859232                0.03935100                0.01883555               -0.00827375
               2.01395619                6.99775752               86.18211565                0.01662333               -0.03342522               -0.06417285                0.26351312                0.36168702                0.59803873                0.01939675
               3.01395739                7.00186742               86.19297993                0.01458514               -0.16169948               -0.14473231                0.43687886                0.71461062                1.12490169                0.22793936
               4.01072220                7.00991279               86.20416607                0.01000000               -0.41229813               -0.05435674                0.18082826                0.71496349                1.20393545                0.45489788
               5.00571143                7.01725363               86.21492033                0.03075984               -0.32602406               -0.03892943                0.24079576                0.38742846                0.56550940                0.34504700
               6.00420172                7.01979130               86.21659547                0.10401922               -0.10955557               -0.06797140                0.17742985                0.13678667                0.06254693               -0.00721837
               7.00352032                7.02118620               86.21692719                0.19520773               -0.06467878               -0.06443736                0.18733084                0.06007549               -0.01029671               -0.01448268
               8.00290814                7.02238184               86.21720711                0.31073634               -0.05813498               -0.08152486                0.19855862                0.04073496               -0.01128797               -0.00051597
               9.00235762                7.02347140               86.21752571                0.46350219               -0.05719485               -0.09678060                0.21224424                0.01827508               -0.00419542                0.00730293
              10.00176425                7.02451494               86.21789485                0.78181858               -0.05933724               -0.08249842                0.22864369                0.00018878                0.00103797                0.00589472
               0.01781880                8.00155863               86.18339677                0.84207463               -0.06553785               -0.07621292                0.20887413                0.00590919                0.00414089               -0.02452043
               1.01716342                7.99917381               86.18274385                0.34449979               -0.07098845               -0.05998595                0.23406180                0.02083471                0.01949986                0.00093361
               2.01639903                7.99710210               86.18239971                0.01353593               -0.23181036               -0.07130992                0.27610366                0.33914350                0.64434253                0.03577669
               3.01252722                8.00119753               86.19430461                0.01000000               -0.42658186               -0.07862981                0.33079038                0.84625803                1.27634304                0.32483623
               4.00786740                8.00986828               86.21055459                0.03250488               -0.39022515               -0.03949335                0.21241662                0.86488814                1.03826869                0.15229662
               5.00472271                8.01675253               86.21560541                0.10209285               -0.21087285               -0.05472865                0.17047112                0.46834207                0.29130663               -0.08116014
               6.00364994                8.01915171               86.21664072                0.19332550               -0.09977083               -0.05007487                0.18687061                0.13071296                0.04772455               -0.03789200
               7.00272730                8.02057470               86.21710532                0.31071270               -0.08202643               -0.05821833                0.19932846                0.04106060                0.00205773               -0.01437059
               8.00200941                8.02166678               86.21739745                0.46309210               -0.06859856               -0.06848014                0.21018152                0.01310309               -0.00865883               -0.01076753
               9.00135533                8.02269661               86.21769796                0.67034762               -0.06661383               -0.07410999                0.22274549                0.00339900               -0.00475224               -0.01181436
              10.00067713                8.02375261               86.21805999                0.90274080               -0.06781919               -0.07529694                0.23803026               -0.00192455               -0.00094666               -0.01129593
               0.02016240                9.00084322               86.18350028                0.96352718               -0.06632845               -0.06745437                0.20448238                0.00312403                0.00558381               -0.01949127
               1.01949911                8.99853381               86.18300390                0.53022360               -0.07235259               -0.06770818                0.24098695                0.00712028                0.02105780                0.00570381
               2.01871534                8.99633132               86.18281726                0.11899190               -0.06913672               -0.07985270                0.29231670                0.31488821                0.81242814                0.02739807
               3.01811638                9.00029482               86.19820435                0.13015812               -0.31251923                0.03037140                0.27021322                0.60163251                1.31434419                0.16749126
               4.01246496                9.00912292               86.20797943                0.14358161               -0.61607699                0.05196850                0.13466992                0.69073683                0.93024130               -0.17831187
               5.00579484                9.01615905               86.21471830                0.20626768               -0.47355745               -0.01087412                0.16893324                0.39839044                0.47491705               -0.08819737
               6.00299381                9.01878980               86.21676894                0.31095765               -0.19841887               -0.03668599                0.19985849                0.09872844                0.11415904               -0.01670590
               7.00182646                9.02002183               86.21733463                0.46341862               -0.09727624               -0.05759121                0.21363217                0.01854574                0.00767166               -0.00574721
               8.00104829                9.02101223               86.21760193                0.67024725               -0.07433464               -0.06679241                0.22343255                0.00346904               -0.01131649               -0.00593666
               9.00033977                9.02198920               86.21786852                0.96367467               -0.07172624               -0.07172563                0.23490094                0.00035407               -0.00716509               -0.00763989
               9.99961376                9.02300900               86.21822737                0.99896730               -0.07260061               -0.07588467                0.24957716               -0.00234786               -0.00242161               -0.00706558
               0.02250010               10.00020954               86.18372049                1.00000000               -0.06823834               -0.06336786                0.20563690               -0.00521803               -0.00380823               -0.01288849
               1.02181772                9.99781965               86.18327361                0.82861917               -0.07821630               -0.07141564                0.24533619               -0.00336344                0.00374046                0.00491418
               2.02093578                9.99550505               86.18298613                0.61959059               -0.50247254               -0.08262743                0.28833016                0.42130876                0.78612179                0.01063122
               3.01176827               10.00180496               86.19833035                0.62589604               -0.75589377                0.15101316                0.26075550                0.13531930                1.37382507               -0.04102807
               4.00581790               10.01090765               86.20883281                0.61063334               -0.43723140                0.17847290                0.13597356                0.07179898                0.93380753                0.00013736
               5.00302364               10.01653505               86.21522097                0.63657128               -0.20280873                0.03759949                0.18811748                0.09839766                0.42510326                0.00619011
               6.00176173               10.01841799               86.21710814                0.69408571               -0.10739330               -0.03718075                0.21847694                0.02118305                0.09753432                0.00300587
               7.00087578               10.01942287               86.21763184                0.78173419               -0.08251531               -0.05989590                0.23049512                0.00057871                0.00367827                0.00040665
               8.00011142               10.02033093               86.21788029                0.90265188               -0.07550667               -0.06813009                0.23928450               -0.00172484               -0.01317234               -0.00147830
               8.99936564               10.02126210               86.21813297                0.99897860               -0.07604211               -0.07270972                0.25024974               -0.00221315               -0.00834515               -0.00280312
               9.99859058               10.02223492               86.21849020                0.99652603               -0.07750627               -0.07740792                0.26477582               -0.00503648               -0.00344959               -0.00263819
               0.00188958                0.00519302               87.18331317                0.79362924               -0.04539542               -0.04540023                0.19541863                0.00556118                0.00128566                0.00137317
               1.00143563                0.00625087               87.18358106                0.54087315               -0.01031946               -0.07261304                0.19787214                0.04141031                0.01167983               -0.00153074
               2.00168319                0.00857008               87.18402176                0.49841769                0.01338119               -0.05375660                0.20385425                0.01550954                0.03354536               -0.00401509
               3.00170325                0.01275142               87.18457216                0.52139378               -0.02033706               -0.05816415                0.21131735                0.00702594                0.03766788               -0.00127911
               4.00127645                0.01798056               87.18507979                0.56065531               -0.05847408               -0.06007953                0.21662095                0.00732026                0.02405207                0.00173356
               5.00053377                0.02349665               87.18547065                0.61108178               -0.08196722               -0.06235785                0.21834487                0.00894527                0.00273044                0.00360339
               5.99963711                0.02880377               87.18572544                0.67248072               -0.09090063               -0.06403206                0.21648476                0.00946732               -0.01824359                0.00456046
               6.99871576                0.03368398               87.18587444                0.74650069               -0.08878963               -0.06503550                0.21196999                0.00890190               -0.03306933                0.00507051
               7.99786131                0.03814031               87.18597950                0.83766335               -0.07935267               -0.06561967                0.20623118                0.00720403               -0.03959859                0.00575862
               8.99712870                0.04233983               87.18609589                0.95443046               -0.06792206               -0.06630892                0.20016473                0.00378404               -0.03205199                0.00849618
               9.99650287                0.04653084               87.18639034                0.99507336               -0.06258308               -0.06871825                0.20098317               -0.00679429               -0.02240097               -0.00893988
               0.00088734                1.00473901               87.18351715                0.54080643               -0.07261424               -0.01030964                0.19788661                0.04142838               -0.00147879                0.01183317
               1.00016120                1.00552474               87.18375336                0.01088922               -0.11496635               -0.11499948                0.19985841                0.12334717               -0.00076455               -0.00083623
               1.99858801                1.00803251               87.18402562                0.01000000               -0.15464632               -0.06007371                0.20381727                0.24817015               -0.00829000                0.06301813
               2.99706827                1.01216978               87.18431302                0.01000001               -0.13054872               -0.06133271                0.20983744                0.30575837               -0.01537455                0.10513306
               3.99597704                1.01737976               87.18456506                0.01000000               -0.09283283               -0.05691859                0.21598318                0.28044770               -0.01866337                0.15456157
               4.99521161                1.02287307               87.18478862                0.03267864               -0.06694621               -0.04023688                0.22184970                0.10901127               -0.01709501                0.07495078
               5.99463811                1.02816345               87.18500525                0.11085800               -0.05375533               -0.05322997                0.22732160                0.07719774               -0.01161025                0.03471100
               6.99413651                1.03303362               87.18524646                0.21074883               -0.05163443               -0.06684014                0.23270101                0.05054352               -0.00281349                0.03060304
               7.99360543                1.03748411               87.18555150                0.34319510               -0.05826157               -0.07266269                0.23877255                0.02737326                0.00811971                0.03039738
               8.99297128                1.04167674               87.18594947                0.52852028               -0.06807525               -0.07376551                0.24668209                0.01000772                0.01258278                0.03290101
               9.99224392                1.04584366               87.18632876                0.82780256               -0.07273560               -0.08263153                0.25145338               -0.00360168                0.01044703                0.00096095
               0.00114670                2.00498682               87.18389526                0.49836135               -0.05376298                0.01343179                0.20388592                0.01550692               -0.00399752                0.03378744
               1.00060907                2.00395088               87.18396124                0.01000000               -0.05725709               -0.15473569                0.20384542                0.24541908                0.06314007               -0.00833021
               2.00000156                2.00736861               87.18534257                0.01090841               -0.10689499               -0.10594946                0.23319377                0.55018806                0.12797232                0.10799394
               2.99847117                2.01152476               87.18616631                0.01000001               -0.19097226               -0.08301763                0.23112515                0.67238114                0.11416438                0.23026870
               3.99618211                2.01684219               87.18709802                0.01172288               -0.32704321               -0.04506631                0.29246485                0.71244488               -0.00473871                0.34314869
               4.99193030                2.02269191               87.18553167                0.01000001               -0.25808024               -0.06015746                0.26954693                0.65074047               -0.11455371                0.49593247
               5.99102051                2.02773917               87.18488999                0.01364786               -0.07621687               -0.06699718                0.27041156                0.50238272               -0.01615459                0.55045192
               6.99040597                2.03234717               87.18513198                0.01000001               -0.06274255               -0.13618050                0.27730496                0.42060595                0.04211190                0.68234380
               7.98976566                2.03668705               87.18561695                0.01000000               -0.07183291               -0.37513683                0.29200461                0.41683335                0.06603349                0.69293660
               8.98896931                2.04086452               87.18628837                0.14505056               -0.08343243               -0.06941768                0.31505992                0.28679464                0.04930941                0.78982435
               9.98809701                2.04487821               87.18647560                0.64080586               -0.08723018               -0.47499927                0.30994497                0.37935424                0.02066103                0.73903580
               0.00326937                3.00500765               87.18438366                0.52142836               -0.05815703               -0.02023722                0.21130081                0.00699743               -0.00126289                0.03790840
               1.00268780                3.00243002               87.18418532                0.01000001               -0.06257380               -0.13065197                0.20982925                0.30690315                0.10982599               -0.01534600
               2.00201789                3.00591352               87.18619302                0.01000001               -0.08227412               -0.18627524                0.21778893                0.66943283                0.22013499                0.10428173
               3.00104231                3.01050942               87.18889221                0.01139602               -0.14795500               -0.14833375                0.26845308                0.85175023                0.21950802                0.22556859
               3.99905879                3.01647844               87.19063340                0.01000001               -0.18564383               -0.08589870                0.24250780                0.92739935                0.20713069                0.46596161
               4.99732944                3.02166992               87.19316129                0.01162346               -0.20141433               -0.11656447                0.30361518                1.01076830                0.19434221                0.77695004
               5.99503050                3.02682351               87.19439960                0.01127677               -0.18643454               -0.17915541                0.35155076                0.88901374                0.27234570                1.11613631
               6.99360075                3.03031001               87.19757307                0.01910410               -0.08028799               -0.22272918                0.37552938                0.59943071                0.32974038                0.87610553
               7.99342474                3.02998137               87.19850494                0.01304215               -0.15423669               -0.47432935                0.38642559                0.90775658                0.24524571                1.26307802
               8.99051601                3.04028839               87.20132590                0.15926124               -0.08105576               -0.28653431                0.26852572                0.69993624                0.12236020                1.20624215
               9.99180363                3.03634367               87.20137485                0.64983383                0.12876163               -0.71750281                0.25418270                0.12091948               -0.04298663                1.27617511
               0.00644190                4.00458208               87.18482900                0.56072065               -0.06006408               -0.05834647                0.21656790                0.00729952                0.00174797                0.02420078
               1.00584126                4.00133784               87.18437431                0.01000000               -0.05655410               -0.09293105                0.21593977                0.28267692                0.15645363               -0.01860844
               2.00531081                4.00364310               87.18700471                0.01170228               -0.04499970               -0.32871850                0.29322324                0.71510720                0.34488648               -0.01121896
               3.00494126                4.00855809               87.19058258                0.01000001               -0.08706059               -0.18348161                0.24225093                0.92572366                0.46349040                0.20484916
               4.00356960                4.01512421               87.19623231                0.01235907               -0.15703316               -0.15473659                0.33274082                0.97426921                0.48909098                0.48919451
               5.00180060                4.02036062               87.20049410                0.01221903               -0.17044572               -0.15283609                0.38393622                0.83365750                0.47810035                0.74090341
               6.00016069                4.02415606               87.20570034                0.01729696               -0.12819418               -0.20721066                0.25679412                0.84073915                0.35884900                0.77405288
               6.99923672                4.02789259               87.20733461                0.01200145               -0.11091399               -0.36839508                0.28223287                0.62051195                0.34885330                0.79395601
               7.99794241                4.02720047               87.21305828                0.04011794               -0.13154904               -0.28569241                0.21992503                0.80208397                0.09212711                0.89489216
               8.99660573                4.03513384               87.20985592                0.16299552                0.02312104               -0.62126562                0.16320114                0.72434278               -0.20559542                0.85347987
               9.99840483                4.03052816               87.21071823                0.62427657                0.17990950               -0.47237560                0.15671394                0.06525808               -0.01068708                0.89691072
               0.00990383                5.00384072               87.18515642                0.61103199               -0.06235231               -0.08185368                0.21831817                0.00892522                0.00361905                0.00277532
               1.00928031                5.00057140               87.18453422                0.03268240               -0.04020243               -0.06704399                0.22182386                0.10879436                0.07510702               -0.01704010
               2.00909979                4.99933915               87.18533978                0.01000001               -0.06023178               -0.26083127                0.26970476                0.65257127                0.49611366               -0.11624960
               3.00807568                5.00683979               87.19303098                0.01161020               -0.11790718               -0.20082401                0.30400895                1.01382720                0.77697429                0.19177211
               4.00674164                5.01338370               87.20042345                0.01221875               -0.15524708               -0.16763232                0.38414737                0.83491674                0.74129258                0.47559312
               5.00497073                5.01861320               87.20811699                0.01932304               -0.12141633               -0.11983103                0.22091865                0.72493152                0.47431068                0.47222442
               6.00431332                5.02267929               87.21130046                0.01554033               -0.10020756               -0.20249985                0.22922124                0.42816550                0.33954821                0.46891233
               7.00296658                5.02294211               87.21719143                0.03745505               -0.10440696               -0.32057633                0.19986792                0.29341700                0.21884248                0.51231071
               8.00222518                5.02426753               87.21758853                0.11094457               -0.06457015               -0.20777800                0.16687450                0.49202350               -0.11982596                0.27024376
               9.00167518                5.02786308               87.21676596                0.22357293                0.00474882               -0.53081524                0.17276727                0.42971773               -0.09718634                0.49590965
              10.00232015                5.02689616               87.21750658                0.64724816                0.06449730               -0.26499775                0.19177768                0.09854692                0.00426380                0.46247876
               0.01315903                6.00294500               87.18534709                0.67241136               -0.06403260               -0.09081756                0.21648006                0.00944884                0.00458112               -0.01824772
               1.01251871                5.99999696               87.18468698                0.11083933               -0.05325907               -0.05383095                0.22730074                0.07699076                0.03482530               -0.01151117
               2.01209385                5.99842648               87.18463377                0.01363856               -0.06727259               -0.07632549                0.27015406                0.50487625                0.54970328               -0.01584095
               3.01117326                6.00454161               87.19418625                0.01126761               -0.17996604               -0.18509108                0.35193587                0.89547499                1.11466558                0.27077850
               4.00849453                6.01177157               87.20554616                0.01730786               -0.20848087               -0.12685230                0.25767619                0.84438020                0.77409696                0.35505923
               5.00700364                6.01796400               87.21122125                0.01556417               -0.20497232               -0.09752792                0.22950667                0.42993878                0.47033885                0.33491202
               6.00439509                6.02010607               87.21782883                0.04015471               -0.17434074               -0.17192402                0.19745864                0.14805308                0.29065995                0.28663553
               7.00351682                6.02148106               87.21846019                0.11244138               -0.07665872               -0.10913256                0.17690505                0.15018059               -0.02757320                0.03383964
               8.00286191                6.02304491               87.21869051                0.20278596               -0.04726850               -0.11192897                0.18516443                0.16106620               -0.04466724                0.04803388
               9.00257145                6.02451753               87.21902812                0.32286120               -0.02761556               -0.23549576                0.19860126                0.11972125               -0.01998802                0.12748746
              10.00230960                6.02522820               87.21962282                0.70063648               -0.02618540               -0.13500020                0.21954592                0.02119152                0.00354189                0.11063150
               0.01598890                7.00202437               87.18543214                0.74652635               -0.06502458               -0.08872855                0.21194920                0.00888794                0.00509517               -0.03310814
               1.01533865                6.99949478               87.18486498                0.21078561               -0.06681192               -0.05166989                0.23263621                0.05047476                0.03076064               -0.00266866
               2.01465266                6.99781264               87.18481407                0.01000001               -0.13492851               -0.06268312                0.27700726                0.42463266                0.68121469                0.04252130
               3.01264008                7.00313797               87.19729084                0.01913303               -0.22229040               -0.07936941                0.37577939                0.60610419                0.87344949                0.32916116
               4.01020685                7.01084666               87.20710144                0.01201762               -0.37025389               -0.11004884                0.28304555                0.62715669                0.79180348                0.34326214
               5.00523501                7.01666264               87.21698984                0.03744207               -0.32247712               -0.10203498                0.20146917                0.29741658                0.51273907                0.21219075
               6.00375731                7.01924081               87.21835768                0.11242700               -0.11018261               -0.07613915                0.17773294                0.15119299                0.03786940               -0.03234790
               7.00303135                7.02075946               87.21878848                0.20452886               -0.06736401               -0.06709460                0.18693411                0.07852589               -0.01672463               -0.02050365
               8.00241003                7.02202895               87.21918157                0.31983399               -0.05725217               -0.08819574                0.19770499                0.05401257               -0.01693239               -0.00344776
               9.00188631                7.02315316               87.21964257                0.47196906               -0.05436930               -0.10948319                0.21204351                0.02461861               -0.00675263                0.00508060
              10.00132265                7.02419616               87.22018741                0.78602525               -0.05636654               -0.09178570                0.23065113                0.00011128                0.00069531                0.00083599
               0.01839596                8.00117043               87.18547292                0.83766018               -0.06560345               -0.07931912                0.20621591                0.00719565                0.00578586               -0.03968226
               1.01773993                7.99896356               87.18510679                0.34323258               -0.07263202               -0.05826134                0.23868476                0.02736989                0.03056522                0.00825139
               2.01694332                7.99717281               87.18523692                0.01000000               -0.37393002               -0.07177168                0.29179031                0.42053555                0.69170159                0.06632649
               3.01026133                8.00295422               87.19815908                0.01306448               -0.47151622               -0.15566277                0.38628663                0.91543604                1.25740763                0.24448804
               4.00751300                8.00957059               87.21269817                0.04011635               -0.28517559               -0.13149700                0.22247733                0.80918905                0.89008731                0.08783817
               5.00455781                8.01592330               87.21729979                0.11091771               -0.20954359               -0.06502769                0.16927804                0.49616907                0.27129783               -0.12326933
               6.00332212                8.01858328               87.21849886                0.20274709               -0.11293026               -0.04762442                0.18664697                0.16245549                0.05043207               -0.04793159
               7.00229921                8.02013917               87.21908703                0.31982282               -0.08868331               -0.05729611                0.19838844                0.05434260               -0.00116370               -0.01972826
               8.00154846                8.02128099               87.21948764                0.46996117               -0.07012970               -0.07000242                0.20873041                0.01854158               -0.01333870               -0.01523883
               9.00089662                8.02232787               87.21991753                0.67308874               -0.06613118               -0.07696867                0.22160239                0.00511274               -0.00722233               -0.01716952
              10.00022583                8.02339249               87.22044152                0.90307642               -0.06707805               -0.07775106                0.23853548               -0.00204818               -0.00176475               -0.01817910
               0.02054656                9.00043799               87.18552460                0.95444997               -0.06628841               -0.06791353                0.20016357                0.00378131                0.00852630               -0.03213919
               1.01988367                8.99832956               87.18544116                0.52851299               -0.07369207               -0.06805348                0.24657954                0.01003621                0.03298728                0.01266908
               2.01907272                8.99637721               87.18584412                0.14514701               -0.06663217               -0.08337419                0.31482571                0.28940752                0.78785777                0.04943168
               3.01855103                9.00002471               87.20090368                0.15935908               -0.28255802               -0.08311363                0.26965738                0.70464557                1.20055676                0.12075341
               4.01342156                9.00821672               87.20946341                0.16300516               -0.62026687                0.02126346                0.16587643                0.72775716                0.84833093               -0.20565636
               5.00614569                9.01536208               87.21642261                0.22355663               -0.53155030                0.00346725                0.17533767                0.43253800                0.49351827               -0.09823496
               6.00279055                9.01828833               87.21876320                0.32282085               -0.23625966               -0.02826676                0.20050587                0.12075381                0.12718535               -0.02149409
               7.00142050                9.01961354               87.21946452                0.47189066               -0.10991912               -0.05471563                0.21327285                0.02490887                0.00536199               -0.00816943
               8.00059217                9.02062890               87.21982803                0.67302214               -0.07717133               -0.06628152                0.22221271                0.00518814               -0.01672446               -0.00829431
               8.99987707                9.02161379               87.22021130                0.95599219               -0.07198606               -0.07198401                0.23367750                0.00072565               -0.01019986               -0.01062597
               9.99915245                9.02264114               87.22072466                0.99367616               -0.07246266               -0.07641524                0.24969991               -0.00250246               -0.00353955               -0.01066924
               0.02268844                9.99981216               87.18575465                0.99505227               -0.06870191               -0.06258231                0.20098378               -0.00677837               -0.00898080               -0.02246192
               1.02200143                9.99760249               87.18575632                0.82781785               -0.08260648               -0.07270652                0.25134350               -0.00356646                0.00090300                0.01049966
               2.02103631                9.99550533               87.18596603                0.64087187               -0.47433475               -0.08718819                0.30972778                0.38083261                0.73747409                0.02070162
               3.01251473               10.00129195               87.20089911                0.64992917               -0.71527731                0.12672328                0.25509107                0.12089648                1.27274386               -0.04265507
               4.00673077               10.00999586               87.21028360                0.62431310               -0.46888819                0.17791396                0.15897890                0.06595620                0.89266151               -0.01065430
               5.00313697               10.01599264               87.21712068                0.64727293               -0.26225099                0.06305596                0.19427043                0.10023198                0.45852443                0.00405427
               6.00148575               10.01801795               87.21930268                0.70061449               -0.13400761               -0.02703767                0.22166029                0.02213067                0.10785095                0.00303231
               7.00045681               10.01904486               87.21994157                0.78595578               -0.09168900               -0.05686776                0.23224705                0.00050213               -0.00122092                0.00011995
               7.99965197               10.01995536               87.22027366                0.90297577               -0.07789621               -0.06735366                0.23963111               -0.00185341               -0.01987729               -0.00224661
               8.99889889               10.02088819               87.22063665                0.99366359               -0.07654392               -0.07256013                0.25029862               -0.00237728               -0.01182302               -0.00387905
               9.99812109               10.02186418               87.22114647                1.00000000               -0.07777999               -0.07769553                0.26607585               -0.00553622               -0.00463488               -0.00390181
               0.00162405                0.00499219               88.18526168                0.79242053               -0.04353164               -0.04352974                0.19412501                0.00628559                0.00169939                0.00180453
               1.00118873                0.00605298               88.18555418                0.54019492               -0.00538655               -0.07374609                0.19663909                0.04663526                0.01436230               -0.00156791
               2.00151631                0.00852498               88.18605973                0.49987934                0.01744260               -0.05224634                0.20382778                0.01697464                0.03959546               -0.00421230
               3.00153758                0.01300781               88.18669144                0.52386539               -0.02364295               -0.05728831                0.21266134                0.00889438                0.04173383               -0.00057801
               4.00104345                0.01852097               88.18725546                0.56394820               -0.06674453               -0.05959146                0.21862619                0.00953531                0.02237057                0.00293247
               5.00020269                0.02420350               88.18766226                0.61459511               -0.09177082               -0.06225467                0.22006412                0.01123890               -0.00543248                0.00497614
               5.99920804                0.02952208               88.18789301                0.67488075               -0.09978516               -0.06412588                0.21709503                0.01151672               -0.03181518                0.00593440
               6.99820699                0.03426629               88.18798909                0.74593621               -0.09542006               -0.06517090                0.21095371                0.01055731               -0.05008421                0.00647538
               7.99729964                0.03847239               88.18802799                0.83215392               -0.08306611               -0.06561804                0.20340607                0.00846967               -0.05821448                0.00751264
               8.99654566                0.04235529               88.18807500                0.94275873               -0.06862802               -0.06606689                0.19560558                0.00441532               -0.04741952                0.01201926
               9.99592708                0.04622261               88.18837601                0.99915201               -0.06185878               -0.06929077                0.19609690               -0.00836059               -0.03405009               -0.01493372
               0.00062612                1.00455690               88.18549055                0.54024442               -0.07374325               -0.00537758                0.19664318                0.04664078               -0.00153777                0.01454584
               0.99988869                1.00531551               88.18574595                0.01102632               -0.12087384               -0.12089525                0.19853621                0.13870079                0.00023301                0.00019329
               1.99820864                1.00800252               88.18606051                0.01000000               -0.16300784               -0.05309668                0.20321052                0.27908634               -0.00627404                0.07002552
               2.99662853                1.01243493               88.18641416                0.01000000               -0.13338388               -0.08330508                0.21055681                0.34958086               -0.01197335                0.12078563
               3.99554096                1.01792506               88.18673379                0.01113522               -0.09070005               -0.05978535                0.21801885                0.30491838               -0.01430882                0.18924156
               4.99481453                1.02358095               88.18702129                0.03638558               -0.06245765               -0.04026395                0.22499488                0.13558825               -0.01194882                0.10047142
               5.99429181                1.02888082               88.18729655                0.11420230               -0.04885616               -0.05117850                0.23125936                0.09736681               -0.00583112                0.05413360
               6.99383741                1.03361458               88.18759464                0.21248773               -0.04759891               -0.06781573                0.23713422                0.06303965                0.00382978                0.04515929
               7.99333983                1.03781621               88.18796305                0.34262758               -0.05613509               -0.07431846                0.24355139                0.03530417                0.01649468                0.04356733
               8.99271470                1.04169462               88.18844464                0.52753281               -0.06818426               -0.07456013                0.25206911                0.01425060                0.02055006                0.04968533
               9.99197615                1.04552971               88.18887381                0.82727712               -0.07385554               -0.08874048                0.25724427               -0.00277921                0.01704956                0.00042515
               0.00103962                2.00488464               88.18593399                0.49987085               -0.05225028                0.01748513                0.20384683                0.01699018               -0.00421333                0.03982140
               1.00051712                2.00363507               88.18599677                0.01000000               -0.05304986               -0.16308152                0.20323797                0.27909566                0.07012052               -0.00630792
               1.99997863                2.00746305               88.18751264                0.01164731               -0.09552307               -0.09599467                0.20872724                0.56525280                0.11614586                0.11939704
               2.99860666                2.01134171               88.18854482                0.01086049               -0.19914136               -0.10089407                0.24635009                0.70559148                0.12065153                0.22880768
               3.99599580                2.01732527               88.18992727                0.01300783               -0.33239805               -0.08075051                0.26056639                0.76988608               -0.04670494                0.32774520
               4.99195870                2.02339822               88.18828737                0.01000000               -0.24370253               -0.10259451                0.28743044                0.67648671               -0.11018866                0.52837522
               5.99112175                2.02849851               88.18766533                0.01604771               -0.07131532               -0.07026206                0.28706004                0.54446629                0.00137274                0.61705983
               6.99053239                2.03290998               88.18797591                0.01000000               -0.05980345               -0.33609969                0.29242012                0.47692461                0.06725419                0.70259937
               7.98992568                2.03698602               88.18861784                0.01601544               -0.07076084               -0.39027453                0.30786961                0.37473737                0.10313506                0.73160753
               8.98911717                2.04086409               88.18955997                0.18051515               -0.08621775               -0.06833488                0.33994679                0.25786506                0.07786923                0.75250636
               9.98820132                2.04444781               88.18969177                0.66820167               -0.09158508               -0.43613036                0.33516668                0.33029740                0.03395279                0.67196108
               0.00346506                3.00490660               88.18650292                0.52390225               -0.05728733               -0.02356160                0.21263934                0.00886561               -0.00057400                0.04189570
               1.00289219                3.00205388               88.18628661                0.01000000               -0.08290036               -0.13347262                0.21056100                0.34927620                0.12158650               -0.01198070
               2.00180706                3.00608263               88.18849402                0.01086328               -0.10070244               -0.19955549                0.24222516                0.70625655                0.23060351                0.12045607
               3.00087814                3.01041705               88.19145890                0.01299207               -0.14624407               -0.14550372                0.23131699                0.81692842                0.18112360                0.18230543
               3.99888218                3.01631005               88.19304292                0.01000000               -0.18535591               -0.13494424                0.25388340                0.90627864                0.18250568                0.41204764
               4.99717102                3.02152906               88.19611405                0.01494844               -0.16063961               -0.18181191                0.30815687                1.02426555                0.21144105                0.72018197
               5.99566938                3.02747558               88.19825466                0.01591827               -0.11413187               -0.26886932                0.32374411                0.69833445                0.21261567                0.78998970
               6.99488839                3.02689259               88.20077460                0.01000000               -0.13944584               -0.41490268                0.37560941                0.49805748                0.22366888                1.04489975
               7.99288047                3.03001071               88.20238475                0.01000000               -0.22390856               -0.53447154                0.50708147                1.05508027                0.12915562                1.47281992
               8.99041022                3.04032793               88.20400951                0.19655042               -0.07329015               -0.25750140                0.26704147                0.67265637                0.07711990                1.07422271
               9.99141466                3.03680710               88.20389956                0.67942808                0.10044482               -0.65583730                0.25368044                0.10878066               -0.03746574                1.15322532
               0.00692236                4.00441341               88.18700373                0.56394591               -0.05957477               -0.06664054                0.21855017                0.00951522                0.00294520                0.02250009
               1.00632662                4.00096562               88.18654232                0.01116624               -0.05908854               -0.09076856                0.21797688                0.30474755                0.19023281               -0.01427421
               2.00574059                4.00347194               88.18981566                0.01302672               -0.08044054               -0.33243983                0.25898816                0.77027286                0.32761976               -0.04897529
               3.00471780                4.00843164               88.19298776                0.01000000               -0.13656183               -0.18390350                0.25342775                0.90767615                0.41157093                0.18124811
               4.00300936                4.01462638               88.19933530                0.01580253               -0.17196612               -0.16978326                0.29282203                0.92688367                0.45704604                0.45696317
               5.00127848                4.01976198               88.20434390                0.01685897               -0.16422212               -0.20299304                0.29861003                0.75487740                0.29415691                0.51920650
               5.99972491                4.02312112               88.20753675                0.01000000               -0.16600402               -0.38776912                0.19450609                0.54089733                0.15294712                0.55686056
               6.99795840                4.02461192               88.21006341                0.01888955               -0.10664838               -0.22075680                0.26182115                0.49842525                0.23373051                0.80909291
               7.99759195                4.02629659               88.21534012                0.05094288               -0.10922427               -0.29402959                0.20239248                0.96703734               -0.00130945                0.83023017
               8.99577392                4.03571406               88.21166623                0.18838346               -0.00866792               -0.60799676                0.19706208                0.76360649               -0.22211543                0.74808419
               9.99741859                4.03133106               88.21242838                0.64205899                0.16446710               -0.48901656                0.18642658                0.06628169               -0.02024551                0.83467395
               0.01055095                5.00357379               88.18734749                0.61464768               -0.06223402               -0.09166961                0.21999389                0.01122615                0.00499192               -0.00534356
               1.00992861                5.00023851               88.18676653                0.03639669               -0.04022281               -0.06252400                0.22495288                0.13548527                0.10066409               -0.01186691
               2.00974650                4.99943383               88.18809608                0.01000000               -0.10256940               -0.24387422                0.28745018                0.67769295                0.52886947               -0.11084693
               3.00787722                5.00673898               88.19598772                0.01495243               -0.18284965               -0.15918775                0.30813769                1.02669653                0.71988537                0.20960239
               4.00608950                5.01291438               88.20427416                0.01685303               -0.20516943               -0.16238861                0.29878152                0.75610683                0.51964333                0.29258785
               5.00377383                5.01746920               88.20980405                0.01000000               -0.22260555               -0.22027374                0.20924139                0.47520443                0.28473368                0.28257899
               6.00163739                5.01972019               88.21291965                0.01000000               -0.10462048               -0.19672479                0.26066442                0.43521849                0.32101492                0.48267058
               7.00168143                5.02247745               88.21913742                0.04651160               -0.02591589               -0.18343682                0.19966717                0.45773558                0.20259632                0.44420966
               8.00111907                5.02413012               88.21925677                0.12300174               -0.05167770               -0.18158349                0.16963353                0.50586142               -0.15022448                0.24523367
               9.00064787                5.02816799               88.21854489                0.24683013                0.01936135               -0.57043466                0.18529235                0.44567938               -0.09946771                0.48188880
              10.00150630                5.02702677               88.21947047                0.66177636                0.08584297               -0.31983409                0.20225133                0.09704262               -0.00088892                0.47237612
               0.01381744                6.00258002               88.18751473                0.67485824               -0.06411567               -0.09971529                0.21705706                0.01150493                0.00594881               -0.03180234
               1.01317628                5.99971514               88.18697844                0.11420748               -0.05117244               -0.04890874                0.23124063                0.09725041                0.05429092               -0.00574953
               2.01279399                5.99859446               88.18741006                0.01603637               -0.07025484               -0.07145169                0.28701588                0.54704376                0.61668699                0.00154100
               3.01177118                6.00524788               88.19804850                0.01591313               -0.26963592               -0.11305841                0.32426742                0.70229694                0.78975583                0.21145591
               4.00740127                6.01137861               88.20739266                0.01000000               -0.38972100               -0.16441823                0.19506918                0.54391964                0.55756150                0.14924868
               5.00397676                6.01535651               88.21284047                0.01000000               -0.19901164               -0.10251540                0.26142410                0.43720738                0.48426366                0.31679065
               6.00342103                6.01918662               88.21982804                0.04985065               -0.06367888               -0.06229418                0.20238759                0.35548746                0.27891979                0.27532585
               7.00270318                6.02094319               88.22024434                0.12346644               -0.07012000               -0.11640819                0.18362524                0.20794005               -0.05597100                0.01417201
               8.00201864                6.02266492               88.22055114                0.21502958               -0.04561630               -0.13071857                0.18949170                0.19792576               -0.05686693                0.04994445
               9.00179086                6.02430537               88.22102617                0.33850661               -0.01883762               -0.27421928                0.20265785                0.14191610               -0.02584895                0.13222079
              10.00164188                6.02493438               88.22184227                0.70932384               -0.01489754               -0.16569099                0.22505287                0.02200959                0.00208868                0.11403231
               0.01651081                7.00157948               88.18754650                0.74592140               -0.06516274               -0.09537484                0.21091777                0.01055251                0.00649204               -0.05012232
               1.01585918                6.99926034               88.18721269                0.21246685               -0.06780909               -0.04762375                0.23710101                0.06298819                0.04523677                0.00391970
               2.01515463                6.99800480               88.18765579                0.01000000               -0.33600864               -0.05979377                0.29232529                0.48021314                0.70168036                0.06747781
               3.00913901                7.00447781               88.20049551                0.01000000               -0.41476791               -0.13867166                0.37607148                0.50320772                1.04227404                0.22110198
               4.00685927                7.00962602               88.20982698                0.01890212               -0.22145198               -0.10577667                0.26208765                0.50341220                0.80731416                0.22918070
               5.00470997                7.01541889               88.21894972                0.04649958               -0.18494023               -0.02510711                0.20112851                0.46097554                0.44528005                0.19736858
               6.00316046                7.01847431               88.22015013                0.12344759               -0.11740175               -0.06995288                0.18443184                0.20903520                0.01776651               -0.06017117
               7.00236193                7.02014929               88.22066587                0.21636692               -0.07225290               -0.07195456                0.19144410                0.10267506               -0.02612149               -0.02941628
               8.00171541                7.02151575               88.22116121                0.33111173               -0.05726013               -0.09746817                0.20017500                0.07139088               -0.02519031               -0.00911345
               9.00121673                7.02268360               88.22176658                0.48236586               -0.05134663               -0.12604392                0.21382868                0.03316686               -0.01074814               -0.00020379
              10.00068847                7.02371295               88.22250787                0.79120836               -0.05282576               -0.10412979                0.23401874                0.00053287               -0.00024184               -0.00824641
               0.01866677                8.00067252               88.18752108                0.83214883               -0.06560443               -0.08303886                0.20336845                0.00846412                0.00753238               -0.05827442
               1.01801073                7.99876266               88.18751755                0.34267179               -0.07429974               -0.05613378                0.24349342                0.03531076                0.04367453                0.01660183
               2.01718078                7.99739858               88.18823551                0.01601176               -0.38983073               -0.07069762                0.30769988                0.37835705                0.73002615                0.10340201
               3.01021411                8.00247445               88.20203035                0.01000000               -0.53261751               -0.22539748                0.50749671                1.06168574                1.46892526                0.12739073
               4.00652843                8.00926308               88.21500414                0.05091396               -0.29330655               -0.11008255                0.20477029                0.97166450                0.82732338               -0.00404741
               5.00434798                8.01485437               88.21899097                0.12299857               -0.18285402               -0.05227133                0.17175250                0.50899670                0.24606828               -0.15299656
               6.00287135                8.01778757               88.22037365                0.21500098               -0.13163693               -0.04591060                0.19081234                0.19924395                0.05189699               -0.05976332
               7.00171524                8.01950409               88.22107309                0.33107522               -0.09796058               -0.05726925                0.20079677                0.07174620               -0.00714752               -0.02766656
               8.00091214                8.02071555               88.22157206                0.47799769               -0.07291231               -0.07277100                0.20938992                0.02660002               -0.02039819               -0.02208074
               9.00025700                8.02178449               88.22213001                0.67581432               -0.06591421               -0.08130256                0.22144467                0.00793198               -0.01098961               -0.02498422
               9.99959385                8.02285178               88.22283070                0.90319313               -0.06631463               -0.08111413                0.23946948               -0.00188109               -0.00308993               -0.02826721
               0.02049981                8.99991870               88.18750355                0.94278464               -0.06604692               -0.06861563                0.19557544                0.00441471                0.01204404               -0.04748281
               1.01983934                8.99813766               88.18793549                0.52753785               -0.07449119               -0.06816677                0.25199570                0.01429039                0.04974285                0.02062358
               2.01900998                8.99659084               88.18911378                0.18055542               -0.06655548               -0.08616597                0.33978090                0.25969437                0.75115247                0.07799118
               3.01850823                8.99996986               88.20359749                0.19661619               -0.25486707               -0.07567310                0.26800622                0.67624965                1.07021620                0.07673153
               4.01391264                9.00742437               88.21129696                0.18838133               -0.60714069               -0.01044483                0.19903609                0.76623732                0.74412708               -0.22192560
               5.00636541                9.01437347               88.21822505                0.24681000               -0.57085127                0.01828188                0.18737951                0.44793980                0.47974809               -0.10037973
               6.00249562                9.01755610               88.22077906                0.33845836               -0.27482712               -0.01939488                0.20429625                0.14284730                0.13183794               -0.02718975
               7.00086887                9.01900390               88.22160008                0.48227682               -0.12643023               -0.05164625                0.21491074                0.03346865               -0.00000744               -0.01200559
               7.99996701                9.02006033               88.22204618                0.67572367               -0.08148650               -0.06604072                0.22198643                0.00801533               -0.02459647               -0.01194690
               8.99923914                9.02105755               88.22254207                0.94588689               -0.07253719               -0.07253359                0.23250079                0.00148551               -0.01454729               -0.01493108
               9.99851627                9.02209067               88.22322137                1.00000000               -0.07228739               -0.07692631                0.24929802               -0.00246841               -0.00516744               -0.01587529
               0.02231715                9.99930021               88.18774016                0.99913749               -0.06927537               -0.06184966                0.19606397               -0.00835362               -0.01496202               -0.03409964
               1.02162440                9.99739933               88.18830048                0.82728195               -0.08873416               -0.07383350                0.25716433               -0.00274140                0.00038079                0.01708838
               2.02054247                9.99567526               88.18918068                0.66825083               -0.43594072               -0.09155828                0.33503547                0.33133140                0.67095184                0.03399935
               3.01290558               10.00096099               88.20343218                0.67946774               -0.65464506                0.09911261                0.25442856                0.10868140                1.15102369               -0.03712525
               4.00744957               10.00905418               88.21201239                0.64207191               -0.48652666                0.16298116                0.18797332                0.06664334                0.83182544               -0.02022102
               5.00317505               10.01522000               88.21910638                0.66178135               -0.31758533                0.08465357                0.20410418                0.09823794                0.46929102               -0.00104418
               6.00109786               10.01739967               88.22154134                0.70929728               -0.16473328               -0.01564296                0.22676654                0.02278260                0.11161417                0.00166159
               6.99988038               10.01847117               88.22227678                0.79114628               -0.10395343               -0.05327332                0.23536325                0.00090470               -0.01009462               -0.00074506
               7.99901879               10.01939474               88.22267292                0.90307060               -0.08120054               -0.06655932                0.24041045               -0.00168959               -0.02977013               -0.00351947
               8.99825637               10.02033382               88.22313894                1.00000000               -0.07702668               -0.07237356                0.24982229               -0.00235099               -0.01688160               -0.00546945
               9.99747826               10.02131326               88.22381171                0.99839991               -0.07781154               -0.07774107                0.26625751               -0.00585724               -0.00636968               -0.00573062
               0.00133855                0.00477135               89.18719567                0.79075212               -0.04137345               -0.04137316                0.19239002                0.00718543                0.00230748                0.00239008
               1.00092482                0.00583597               89.18751385                0.53925772               -0.00003546               -0.07499529                0.19505970                0.05275434                0.01796068               -0.00156714
               2.00133784                0.00848427               89.18809831                0.50159906                0.02086874               -0.05041531                0.20383547                0.01857053                0.04721534               -0.00436259
               3.00134219                0.01329442               89.18882539                0.52689889               -0.02924001               -0.05623093                0.21417572                0.01124841                0.04644590                0.00045013
               4.00075304                0.01908256               89.18945231                0.56822856               -0.07773077               -0.05897716                0.22069380                0.01225394                0.01993276                0.00450814
               4.99978758                0.02487811               89.18987193                0.61929373               -0.10395350               -0.06207265                0.22173092                0.01386917               -0.01558578                0.00668894
               5.99867397                0.03011536               89.19006734                0.67825324               -0.11042463               -0.06415624                0.21762616                0.01362936               -0.04826203                0.00757745
               6.99757908                0.03460237               89.19009352                0.74557290               -0.10314291               -0.06523895                0.20985784                0.01200642               -0.07043220                0.00799071
               7.99661112                0.03842045               89.19004762                0.82551702               -0.08733951               -0.06548386                0.20049254                0.00934796               -0.08010171                0.00924811
               8.99583229                0.04184092               89.19000800                0.92776037               -0.06956367               -0.06554454                0.19117137                0.00472874               -0.06507457                0.01587958
               9.99521984                0.04523657               89.19031227                1.00000000               -0.06124528               -0.07001753                0.19133780               -0.00976128               -0.04727677               -0.02101903
               0.00034579                1.00435762               89.18745002                0.53923209               -0.07498852               -0.00002325                0.19505409                0.05275581               -0.00152254                0.01812200
               0.99959590                1.00508602               89.18772409                0.01121152               -0.12757303               -0.12759500                0.19694463                0.15652570                0.00174057                0.00169499
               1.99779432                1.00798012               89.18808983                0.01000000               -0.17201851               -0.05806152                0.20273174                0.30423356               -0.00328190                0.06947417
               2.99615553                1.01273211               89.18852415                0.01000000               -0.13552950               -0.11191185                0.21183441                0.38200273               -0.00710451                0.14514149
               3.99508373                1.01849279               89.18892543                0.01392818               -0.08728304               -0.09973026                0.22085629                0.31388499               -0.00834196                0.20072588
               4.99440987                1.02425739               89.18928852                0.04188730               -0.05677995               -0.03557312                0.22902825                0.15909500               -0.00530709                0.13567751
               5.99394814                1.02947380               89.18963044                0.11962682               -0.04316309               -0.04965513                0.23601363                0.11890231                0.00106652                0.07950113
               6.99354661                1.03394998               89.18998914                0.21607348               -0.04314084               -0.06915855                0.24206471                0.07556297                0.01107412                0.06279379
               7.99308532                1.03776561               89.19042253                0.34333056               -0.05375442               -0.07614713                0.24823504                0.04343405                0.02503099                0.05835137
               8.99247152                1.04118548               89.19099085                0.52725446               -0.06793689               -0.07455695                0.25631787                0.01956276                0.02853205                0.07215841
               9.99172658                1.04453640               89.19147364                0.82680214               -0.07449377               -0.09724447                0.26178245               -0.00027799                0.02403531                0.00535863
               0.00093687                2.00477088               89.18797220                0.50168265               -0.05040374                0.02091041                0.20380045                0.01855543               -0.00435270                0.04742830
               1.00043283                2.00328407               89.18802600                0.01000000               -0.05802225               -0.17205790                0.20272832                0.30423430                0.06956573               -0.00330843
               1.99977642                2.00732304               89.18951712                0.01254939               -0.09816297               -0.09802482                0.19673156                0.57177264                0.12019654                0.12043728
               2.99846957                2.01105618               89.19109331                0.01222263               -0.21354794               -0.15097583                0.24819803                0.68626385                0.10113894                0.23080890
               3.99550546                2.01708796               89.19230934                0.01000001               -0.32405516               -0.15907172                0.23166603                0.80402424               -0.02731253                0.32826443
               4.99198847                2.02416665               89.19128028                0.01000000               -0.20730221               -0.21201803                0.31327305                0.69854722               -0.06537503                0.58807057
               5.99135942                2.02912226               89.19063119                0.01000001               -0.05949657               -0.33609595                0.30983205                0.48633420                0.01638790                0.61717825
               6.99079854                2.03321920               89.19098038                0.01448020               -0.05575598               -0.24147375                0.31110384                0.40863358                0.09009183                0.76993385
               7.99024430                2.03689750               89.19177434                0.01000000               -0.06728884               -0.25250552                0.32375588                0.34091073                0.14303479                0.87921881
               8.98945276                2.04034979               89.19308731                0.22667435               -0.08659272               -0.07594485                0.36352625                0.22331312                0.11113268                0.70129743
               9.98851245                2.04329168               89.19317893                0.70148745               -0.09403140               -0.39324107                0.36236455                0.27157126                0.05009145                0.59217692
               0.00369052                3.00477582               89.18863644                0.52692016               -0.05620918               -0.02916840                0.21410494                0.01124051                0.00045198                0.04659267
               1.00312843                3.00164486               89.18839654                0.01000000               -0.11164268               -0.13558168                0.21181311                0.38224714                0.14566938               -0.00709706
               2.00145767                3.00601962               89.19103752                0.01223977               -0.15062708               -0.21307546                0.24751385                0.68545397                0.23077237                0.10179028
               3.00011589                3.00971259               89.19351855                0.01000001               -0.17019589               -0.17009780                0.20699038                0.72376064                0.17289861                0.17319572
               3.99805375                3.01531136               89.19571107                0.01000000               -0.18846880               -0.20278631                0.29785775                0.80766763                0.23094506                0.44108332
               4.99634651                3.02001702               89.19932443                0.01000001               -0.17157416               -0.35559505                0.32455117                0.74671705                0.21389195                0.79746481
               5.99462227                3.02275188               89.20087449                0.01000000               -0.12012378               -0.42469839                0.43891475                0.76220951                0.26219960                0.90410978
               6.99394404                3.02912051               89.20508526                0.01893431               -0.09246580               -0.37537871                0.44245411                0.76365173                0.31836670                1.14959158
               7.99277295                3.03271550               89.20864657                0.02717858               -0.17002167               -0.49822284                0.50033262                0.83075857                0.00541904                1.48446832
               8.99054360                3.03966658               89.20666673                0.24196800               -0.07493691               -0.23948263                0.26351586                0.47892407               -0.08810243                0.92762397
               9.99127421                3.03667158               89.20644846                0.71313138                0.07306097               -0.58204792                0.25842219                0.09865794               -0.02586609                1.01084768
               0.00742361                4.00418751               89.18920000                0.56824388               -0.05896335               -0.07764878                0.22062963                0.01224604                0.00452230                0.02003996
               1.00683398                4.00057244               89.18873385                0.01387412               -0.10029203               -0.08734564                0.22084205                0.31452919                0.20103305               -0.00832605
               2.00541777                4.00306153               89.19218448                0.01000001               -0.15904652               -0.32459012                0.23159297                0.80400479                0.32748263               -0.02657734
               3.00365305                4.00765422               89.19565113                0.01000000               -0.20316936               -0.18707469                0.29705361                0.80750610                0.44050119                0.23039072
               4.00135438                4.01303223               89.20208875                0.01000000               -0.20853809               -0.20666311                0.30422422                0.73324780                0.48725831                0.48660258
               4.99948229                4.01705475               89.20646630                0.01000000               -0.19271286               -0.21244078                0.36599143                0.66347352                0.30232689                0.61722147
               5.99750013                4.02062829               89.20959046                0.01437005               -0.16871645               -0.13552311                0.35583049                0.77174291                0.19241317                0.74504412
               6.99610796                4.02571163               89.21257104                0.01128215               -0.05933635               -0.37375684                0.24302743                0.65210499                0.16395354                0.92446344
               7.99631340                4.02693305               89.21710613                0.06613186               -0.05163963               -0.43771589                0.16108208                0.84443844               -0.10069062                0.71509558
               8.99507516                4.03556013               89.21379716                0.21954872                0.00811097               -0.57628356                0.22356206                0.68231033               -0.19834441                0.63022726
               9.99647562                4.03165072               89.21444676                0.66338178                0.14004547               -0.48708890                0.21466589                0.06790995               -0.02643541                0.75162494
               0.01116560                5.00322285               89.18955630                0.61925531               -0.06206028               -0.10387820                0.22165997                0.01385812                0.00670202               -0.01551087
               1.01054500                4.99989794               89.18903328                0.04193215               -0.03548122               -0.05683177                0.22900966                0.15900927                0.13585392               -0.00525155
               2.01045598                4.99952782               89.19108879                0.01000000               -0.21248449               -0.20819719                0.31281247                0.70064563                0.58819493               -0.06550158
               3.00629531                5.00597110               89.19919373                0.01000001               -0.35688975               -0.16956438                0.32502480                0.74915012                0.79787504                0.21247352
               4.00331818                5.01117810               89.20639908                0.01000000               -0.21376929               -0.19142582                0.36641015                0.66482622                0.61890246                0.29997564
               5.00201992                5.01576821               89.21230182                0.01771885               -0.09589679               -0.09503005                0.36133121                0.68172892                0.46278224                0.46084399
               6.00140024                5.02004142               89.21651374                0.01670109               -0.06692700               -0.11230975                0.31101638                0.54733253                0.38407903                0.57464996
               7.00068138                5.02164537               89.22118477                0.05881751               -0.07935152               -0.27377860                0.21120382                0.47430526                0.11124829                0.38853760
               7.99981321                5.02396118               89.22098120                0.13941530               -0.06046249               -0.23968426                0.18033652                0.55624397               -0.17330092                0.24771955
               8.99947213                5.02814091               89.22047181                0.27603266                0.03190071               -0.58099341                0.20026471                0.43284002               -0.09422150                0.43507383
              10.00045123                5.02692980               89.22155160                0.67992209                0.09790966               -0.35896412                0.21333725                0.09106700               -0.00868205                0.45451794
               0.01435058                6.00210995               89.18968823                0.67825587               -0.06413870               -0.11036407                0.21755090                0.01362229                0.00758820               -0.04823015
               1.01370919                5.99943580               89.18931179                0.11961660               -0.04965245               -0.04319365                0.23598376                0.11883661                0.07956632                0.00115193
               2.01335753                5.99889759               89.19037408                0.01000001               -0.33617107               -0.05955342                0.30971168                0.48873047                0.61688932                0.01651580
               3.00698577                6.00426294               89.20067159                0.01000000               -0.42518680               -0.11964643                0.43920526                0.76625994                0.90353289                0.26053237
               4.00485380                6.00920372               89.20944755                0.01437027               -0.13661162               -0.16796479                0.35621122                0.77359834                0.74592651                0.18908035
               5.00425354                6.01515415               89.21644973                0.01674149               -0.11420912               -0.06543491                0.31160813                0.54879596                0.57642777                0.37993793
               6.00256961                6.01838210               89.22187658                0.06282629               -0.12896189               -0.12748242                0.20763182                0.30390773                0.18340588                0.18075148
               7.00167430                6.02023606               89.22213270                0.13796865               -0.08134368               -0.11514953                0.19799093                0.22868666               -0.08376042               -0.00790939
               8.00094274                6.02213936               89.22248035                0.23085360               -0.04554777               -0.15677109                0.19929706                0.23482565               -0.07105978                0.04877672
               9.00076335                6.02394026               89.22308128                0.35842507               -0.01117772               -0.30478328                0.20959738                0.15923167               -0.03249730                0.12327209
              10.00071918                6.02447144               89.22412387                0.72035275               -0.00441611               -0.19435004                0.23078115                0.02231733               -0.00177079                0.10709166
               0.01678635                7.00101557               89.18965050                0.74557996               -0.06522531               -0.10310298                0.20979470                0.01200528                0.00800425               -0.07044462
               1.01613409                6.99903407               89.18960700                0.21607378               -0.06914486               -0.04315011                0.24203696                0.07554884                0.06288309                0.01116095
               2.01540345                6.99833675               89.19066057                0.01448575               -0.24098585               -0.05573575                0.31111296                0.41088066                0.76932570                0.09034325
               3.01131438                7.00357817               89.20481227                0.01893619               -0.37522569               -0.09314404                0.44272897                0.76837440                1.14878366                0.31657702
               4.00789894                7.00781880               89.21234319                0.01128789               -0.37484588               -0.05920236                0.24415291                0.65631932                0.92383962                0.15928704
               5.00381746                7.01445951               89.22101241                0.05884611               -0.27512226               -0.07830561                0.21251331                0.47645466                0.38955808                0.10640357
               6.00239649                7.01749177               89.22204632                0.13795864               -0.11598040               -0.08115015                0.19870049                0.22956013               -0.00496704               -0.08730503
               7.00149785                7.01934238               89.22261736                0.23158902               -0.07954859               -0.07922155                0.20218647                0.13087706               -0.03968568               -0.04243169
               8.00080552                7.02082576               89.22318507                0.34517067               -0.05865828               -0.10924798                0.20685322                0.09218483               -0.03697231               -0.01900478
               9.00032468                7.02204525               89.22391914                0.49491550               -0.04851489               -0.14437895                0.21763129                0.04359374               -0.01681682               -0.01032518
               9.99983522                7.02304280               89.22486778                0.79736540               -0.04894645               -0.11788984                0.23786919                0.00192911               -0.00236239               -0.02238093
               0.01855368                8.00004789               89.18954029                0.82553773               -0.06546886               -0.08731584                0.20043318                0.00935091                0.00926425               -0.08015198
               1.01789899                7.99857280               89.18997666                0.34336678               -0.07613139               -0.05374846                0.24819526                0.04345964                0.05841787                0.02510786
               2.01703105                7.99778287               89.19139092                0.01000000               -0.25138891               -0.06724429                0.32364745                0.34287871                0.87847506                0.14318186
               3.01287121                8.00240005               89.20830901                0.02719650               -0.49661046               -0.17103271                0.50131637                0.83472980                1.48249211                0.00325405
               4.00709884                8.00801967               89.21679358                0.06612895               -0.43807744               -0.05244220                0.16327045                0.84827928                0.71282846               -0.10300105
               5.00410966                8.01358803               89.22073484                0.13940786               -0.24104474               -0.06102152                0.18212529                0.55902605                0.24826735               -0.17565356
               6.00227794                8.01675909               89.22231511                0.23084012               -0.15759022               -0.04574643                0.20042348                0.23596871                0.05030826               -0.07354406
               7.00095786                8.01865163               89.22310296                0.34514517               -0.10971861               -0.05863221                0.20740210                0.09253406               -0.01736811               -0.03909036
               8.00008357                8.01995440               89.22367544                0.48741788               -0.07698372               -0.07683285                0.21275746                0.03768953               -0.03088366               -0.03230823
               8.99941818                8.02105269               89.22434642                0.67818881               -0.06604538               -0.08695051                0.22243504                0.01227499               -0.01664241               -0.03598278
               9.99876266                8.02211365               89.22523091                0.90271382               -0.06555173               -0.08500913                0.24049837               -0.00113954               -0.00521483               -0.04214881
               0.01992355                8.99926925               89.18943611                0.92774445               -0.06552450               -0.06954733                0.19111907                0.00473035                0.01589428               -0.06513147
               1.01926831                8.99795910               89.19048107                0.52724177               -0.07448921               -0.06792509                0.25626940                0.01960729                0.07217963                0.02858174
               2.01843377                8.99699186               89.19263974                0.22668551               -0.07480654               -0.08656867                0.36344082                0.22455075                0.70045066                0.11122616
               3.01777217                9.00015751               89.20626380                0.24198293               -0.23786128               -0.07599890                0.26429417                0.48051926                0.92511265               -0.08868075
               4.01367654                9.00676996               89.21344413                0.21955229               -0.57568106                0.00704533                0.22492943                0.68379003                0.62745188               -0.19824264
               5.00625855                9.01323908               89.22017021                0.27598677               -0.58121333                0.03105327                0.20187424                0.43455284                0.43338467               -0.09502747
               6.00205227                9.01657684               89.22284912                0.35840027               -0.30526645               -0.01162438                0.21093905                0.16001739                0.12291974               -0.03364266
               7.00015322                9.01816974               89.22376273                0.49485720               -0.14470131               -0.04875270                0.21853662                0.04388747               -0.01018382               -0.01791041
               7.99915825                9.01928910               89.22426775                0.67813094               -0.08711411               -0.06614499                0.22289974                0.01236624               -0.03566005               -0.01746358
               8.99841094                9.02030624               89.22486132                0.93234710               -0.07338687               -0.07338145                0.23135800                0.00288960               -0.02060761               -0.02092964
               9.99769051                9.02134261               89.22571062                0.99457013               -0.07204313               -0.07723860                0.24802638               -0.00208753               -0.00750986               -0.02305236
               0.02126858                9.99865694               89.18967593                1.00000000               -0.07000584               -0.06123060                0.19128701               -0.00976203               -0.02104691               -0.04732506
               1.02056852                9.99721430               89.19089960                0.82681644               -0.09724631               -0.07448066                0.26173530               -0.00025087                0.00530730                0.02406114
               2.01932365                9.99605150               89.19266674                0.70149430               -0.39325086               -0.09403658                0.36229854                0.27227762                0.59157488                0.05013649
               3.01270350               10.00088008               89.20598768                0.71317295               -0.58152894                0.07225630                0.25897857                0.09858669                1.00977783               -0.02563392
               4.00769307               10.00816058               89.21404306                0.66341530               -0.48548363                0.13906197                0.21566060                0.06810445                0.74996929               -0.02639412
               5.00299383               10.01420910               89.22120276                0.67993208               -0.35727193                0.09700203                0.21462487                0.09182929                0.45234807               -0.00880626
               6.00054763               10.01652661               89.22383801                0.72031417               -0.19352412               -0.00502356                0.23207879                0.02290959                0.10518458               -0.00210785
               6.99912335               10.01767657               89.22464883                0.79730165               -0.11766179               -0.04931664                0.23892787                0.00225713               -0.02394418               -0.00278814
               7.99819440               10.01863150               89.22508187                0.90265769               -0.08504437               -0.06575981                0.24127180               -0.00096061               -0.04342958               -0.00557750
               8.99742246               10.01958506               89.22563310                0.99458618               -0.07731214               -0.07211784                0.24847198               -0.00197964               -0.02391265               -0.00776011
               9.99664816               10.02056887               89.22647162                1.00000000               -0.07743041               -0.07737410                0.26467399               -0.00585382               -0.00886080               -0.00831454
               0.00103384                0.00453130               90.18910948                0.78825776               -0.03885452               -0.03884940                0.18998871                0.00835336                0.00313115                0.00322284
               1.00064530                0.00560115               90.18945538                0.53774792                0.00576196               -0.07638850                0.19300744                0.06000938                0.02262882               -0.00142027
               2.00114908                0.00845471               90.19013644                0.50385478                0.02336028               -0.04815030                0.20364367                0.02029216                0.05646772               -0.00433149
               3.00111250                0.01361928               90.19097495                0.53070524               -0.03767570               -0.05494428                0.21546005                0.01434243                0.05149907                0.00191930
               4.00039557                0.01966489               90.19166934                0.57373840               -0.09182788               -0.05823481                0.22226184                0.01566100                0.01639612                0.00653842
               4.99927594                0.02550411               90.19209688                0.62543341               -0.11871792               -0.06179511                0.22262300                0.01687106               -0.02771096                0.00880041
               5.99802121                0.03054743               90.19224553                0.68283953               -0.12289411               -0.06404474                0.21735912                0.01566825               -0.06711005                0.00955449
               6.99681806                0.03463486               90.19218624                0.74551773               -0.11190450               -0.06512606                0.20819432                0.01287878               -0.09334748                0.00968394
               7.99578312                0.03790754               90.19203784                0.81736016               -0.09192705               -0.06510246                0.19733980                0.00917885               -0.10413173                0.01098040
               8.99497952                0.04070718               90.19189842                0.90853493               -0.07050596               -0.06486971                0.18722310                0.00406795               -0.08358105                0.01963329
               9.99437300                0.04347949               90.19220277                0.98706144               -0.06065219               -0.07092713                0.18697607               -0.01094257               -0.06062210               -0.02564120
               0.00004753                1.00414280               90.18939164                0.53782523               -0.07638393                0.00577414                0.19299551                0.06000247               -0.00140130                0.02277529
               0.99928369                1.00483726               90.18968485                0.01219722               -0.13522944               -0.13523490                0.19510713                0.17743103                0.00399364                0.00397105
               1.99734294                1.00797320               90.19011515                0.01000000               -0.18164268               -0.07653021                0.20258048                0.31993676                0.00127615                0.06582473
               2.99565083                1.01306984               90.19065085                0.01000000               -0.13665871               -0.13278898                0.21412585                0.39170241               -0.00005272                0.16240279
               3.99460976                1.01908254               90.19115091                0.01117658               -0.08237248               -0.12799861                0.22518085                0.33416654               -0.00026851                0.20373156
               4.99400338                1.02488615               90.19160185                0.05006561               -0.04986239               -0.01901920                0.23467982                0.19389233                0.00299832                0.18142803
               5.99361252                1.02990699               90.19201683                0.12841834               -0.03682931               -0.04747071                0.24221303                0.14128192                0.00886734                0.11346822
               6.99326680                1.03398360               90.19243594                0.22310128               -0.03868864               -0.07111590                0.24791634                0.08612736                0.01816756                0.08558608
               7.99283874                1.03725651               90.19292775                0.34675138               -0.05162865               -0.07805969                0.25284337                0.04856104                0.03203664                0.07537599
               8.99223422                1.04005849               90.19357100                0.52755756               -0.06737378               -0.07465145                0.25848797                0.02347089                0.03475160                0.09951613
               9.99149127                1.04277022               90.19410946                0.82571576               -0.07429575               -0.10814794                0.26370201                0.00351813                0.03022894                0.01961562
               0.00084497                2.00464678               90.19001000                0.50385692               -0.04814555                0.02339228                0.20359811                0.02028606               -0.00432536                0.05661959
               1.00036352                2.00289645               90.19005134                0.01000000               -0.07648655               -0.18165874                0.20257504                0.31990664                0.06588552                0.00125987
               1.99931524                2.00692410               90.19144727                0.01000001               -0.12631551               -0.12610661                0.21053070                0.60123051                0.13798885                0.13811430
               2.99783721                2.01096350               90.19350878                0.01000001               -0.20263325               -0.18733464                0.25617429                0.70962761                0.08744386                0.29635546
               3.99526258                2.01710492               90.19456059                0.01000001               -0.27539306               -0.18651190                0.28003214                0.86228269                0.02972276                0.43375111
               4.99232935                2.02512372               90.19455283                0.01164313               -0.17565867               -0.12969079                0.34771507                0.73875812                0.01224816                0.64082990
               5.99174941                2.02959802               90.19386197                0.01184908               -0.05691330               -0.16542410                0.34158739                0.48144244                0.02765072                0.78628816
               6.99119108                2.03321254               90.19419799                0.01131065               -0.05349790               -0.28449174                0.33761603                0.34825807                0.10572369                0.83950938
               7.99067945                2.03634635               90.19509296                0.03684221               -0.06279240               -0.14441099                0.34381218                0.22851219                0.17659355                0.89209710
               8.98993523                2.03921416               90.19683049                0.28292510               -0.08297750               -0.09439686                0.37929769                0.17911223                0.14109665                0.63470655
               9.98901990                2.04131653               90.19693907                0.73773031               -0.09153364               -0.35069967                0.38503536                0.20236911                0.06565084                0.50986904
               0.00395391                3.00461065               90.19078502                0.53064266               -0.05494105               -0.03762135                0.21541721                0.01435048                0.00193740                0.05162784
               1.00340450                3.00120409               90.19052287                0.01000000               -0.13267056               -0.13670439                0.21413553                0.39198509                0.16248623               -0.00005552
               2.00130050                3.00545107               90.19344430                0.01000001               -0.18709664               -0.20174858                0.25566719                0.70883889                0.29678040                0.08749350
               2.99966257                3.00932314               90.19559871                0.01000000               -0.18026525               -0.17996157                0.28275079                0.78437893                0.26960483                0.26918186
               3.99769519                3.01535231               90.19900007                0.01000001               -0.16885608               -0.17172502                0.35320977                0.98229846                0.31245464                0.54452368
               4.99628545                3.02229234               90.20260507                0.01218355               -0.12713236               -0.29973484                0.31139692                0.93700830                0.33984694                0.89415335
               5.99515255                3.02659851               90.20703296                0.01728201               -0.14009058               -0.36076388                0.49588937                0.58602287                0.34427888                1.07281066
               6.99348363                3.02829376               90.20962368                0.01733028               -0.18725890               -0.31054328                0.36907178                0.51502572                0.28601323                0.85700937
               7.99140737                3.03436829               90.21239140                0.05429350               -0.13186757               -0.40412405                0.28659759                0.67746760               -0.09293313                1.27317610
               8.99084628                3.03817055               90.20927982                0.29320382               -0.00367365               -0.23503124                0.25902638                0.29595452               -0.13557818                0.77451676
               9.99133390                3.03575623               90.20906800                0.74691736                0.04876137               -0.50280606                0.26526272                0.08710662               -0.01318375                0.85598304
               0.00794511                4.00389435               90.19141632                0.57372001               -0.05823076               -0.09176534                0.22221771                0.01565713                0.00654850                0.01652033
               1.00736280                4.00016236               90.19095916                0.01115984               -0.12860707               -0.08242725                0.22520003                0.33517387                0.20460503               -0.00022920
               2.00537297                4.00288913               90.19444752                0.01000001               -0.18696243               -0.27584389                0.28030759                0.86256725                0.43509863                0.02832293
               3.00362355                4.00736427               90.19892884                0.01000001               -0.17168077               -0.16775790                0.35287095                0.98215743                0.54430536                0.31312575
               4.00193935                4.01367042               90.20541978                0.01291389               -0.19001189               -0.18986014                0.31824014                0.97145142                0.60879039                0.60770107
               4.99982331                4.01912902               90.21166373                0.01741881               -0.22354558               -0.27948432                0.46654986                0.76708479                0.40904224                0.71117932
               5.99746844                4.02238274               90.21465336                0.01000000               -0.30507539               -0.38357193                0.35321904                0.65780580                0.10548249                0.63251980
               6.99372181                4.02700167               90.21492396                0.01000000               -0.15582153               -0.38036084                0.37958321                0.59182092                0.07008242                0.62197848
               7.99435201                4.02826386               90.21856176                0.08722512                0.03722930               -0.53290009                0.16301464                0.72352541               -0.10791176                0.62718328
               8.99446639                4.03451353               90.21613747                0.25478328                0.06193340               -0.52926019                0.23938241                0.51716535               -0.15203683                0.51517648
               9.99559068                4.03126041               90.21672170                0.68618954                0.11242852               -0.46581061                0.23559183                0.06664679               -0.02940311                0.65452106
               0.01173104                5.00277534               90.19178069                0.62547344               -0.06178356               -0.11865692                0.22254881                0.01686824                0.00881425               -0.02762962
               1.01111320                4.99955554               90.19134672                0.05004714               -0.01905491               -0.04989561                0.23467076                0.19388990                0.18111977                0.00306179
               2.01134994                4.99993419               90.19435233                0.01164268               -0.12943879               -0.17680733                0.34745213                0.74057216                0.64132554                0.01157067
               3.00852443                5.00596798               90.20248822                0.01221869               -0.29952370               -0.12621378                0.31172483                0.93828666                0.89498564                0.33911653
               4.00535947                5.01155510               90.21160236                0.01743390               -0.28048042               -0.22271568                0.46675199                0.76684886                0.71194281                0.40711943
               5.00291482                5.01670265               90.21703068                0.01366127               -0.24617253               -0.24421750                0.33246904                0.53124644                0.32275929                0.32097535
               6.00043601                5.01892707               90.21913997                0.01386179               -0.17379437               -0.25568326                0.46382656                0.39608198                0.19534501                0.34595488
               6.99943893                5.02068654               90.22336150                0.07564839               -0.10349977               -0.38246323                0.22660992                0.57428173                0.04802073                0.36901398
               7.99836602                5.02371029               90.22286350                0.16144541               -0.06229440               -0.34136419                0.19940483                0.60978236               -0.18882576                0.26097800
               8.99819304                5.02758535               90.22255019                0.30927627                0.04035260               -0.55950274                0.21422224                0.38803561               -0.08746986                0.36751644
               9.99917307                5.02644001               90.22373721                0.69994856                0.09800286               -0.37501902                0.22183254                0.08199682               -0.01787902                0.41303314
               0.01472207                6.00152122               90.19186575                0.68284503               -0.06403239               -0.12284062                0.21727294                0.01566563                0.00956673               -0.06708653
               1.01408175                5.99916445               90.19169812                0.12836596               -0.04750522               -0.03684275                0.24219210                0.14126651                0.11347895                0.00892811
               2.01377197                5.99935298               90.19360430                0.01185717               -0.16566873               -0.05696819                0.34177753                0.48307387                0.78618587                0.02825429
               3.01076838                6.00483999               90.20683261                0.01726312               -0.36151539               -0.13980265                0.49622885                0.58853786                1.07268790                0.34197672
               4.00654166                6.00921611               90.21451689                0.01000000               -0.38460478               -0.30446877                0.35383214                0.65905687                0.63327297                0.10260515
               5.00307628                6.01424467               90.21907263                0.01387049               -0.25677368               -0.17203996                0.46340183                0.39680794                0.34714201                0.19245080
               6.00140619                6.01726908               90.22398067                0.08022148               -0.13260324               -0.13186907                0.22747354                0.30639441                0.13230968                0.13001752
               7.00042421                6.01935241               90.22420416                0.15707504               -0.08786666               -0.11780794                0.21946119                0.25790190               -0.10708035               -0.03006558
               7.99964885                6.02143658               90.22453708                0.25127616               -0.04634155               -0.18848656                0.21446126                0.26396140               -0.08748670                0.04024725
               8.99949738                6.02332348               90.22521812                0.38215289               -0.00637878               -0.31866940                0.21811482                0.16640466               -0.04047374                0.09912928
               9.99952128                6.02376003               90.22645789                0.73314033                0.00238953               -0.21408611                0.23443021                0.02219916               -0.00848264                0.08920294
               0.01675788                7.00031853               90.19174239                0.74550514               -0.06511174               -0.11186742                0.20811419                0.01287760                0.00969351               -0.09336262
               1.01610677                6.99881869               90.19205343                0.22308327               -0.07110036               -0.03868506                0.24789419                0.08615021                0.08565554                0.01822810
               2.01533588                6.99879483               90.19387805                0.01130625               -0.28373520               -0.05349658                0.33764978                0.34995994                0.83884029                0.10591597
               3.01043206                7.00317193               90.20935009                0.01735045               -0.30999778               -0.18759980                0.36974242                0.51819073                0.85609108                0.28505226
               4.00913592                7.00546573               90.21471004                0.01000000               -0.38170282               -0.15569925                0.38032480                0.59537126                0.62172946                0.06670912
               5.00279800                7.01326185               90.22319998                0.07566346               -0.38398752               -0.10305879                0.22771313                0.57697392                0.36971489                0.04443523
               6.00145617                7.01628968               90.22412414                0.15707267               -0.11842696               -0.08775976                0.22003387                0.25858686               -0.02770559               -0.10989016
               7.00042947                7.01833039               90.22470960                0.25114969               -0.08909950               -0.08877456                0.21911599                0.16171062               -0.05823517               -0.06042923
               7.99967418                7.01994056               90.22529827                0.36266305               -0.06158900               -0.12249368                0.21771796                0.11418607               -0.05304459               -0.03466991
               8.99919769                7.02121196               90.22611920                0.50953159               -0.04651172               -0.16004093                0.22280200                0.05445115               -0.02556141               -0.02657454
               9.99874394                7.02215829               90.22726525                0.80412340               -0.04537408               -0.12970289                0.24052053                0.00459813               -0.00635495               -0.04116854
               0.01797931                7.99928387               90.19152975                0.81738299               -0.06508548               -0.09190474                0.19725876                0.00918223                0.01098667               -0.10416913
               1.01732846                7.99839075               90.19248146                0.34670757               -0.07806929               -0.05161667                0.25281352                0.04858591                0.07538310                0.03210444
               2.01641793                7.99828305               90.19470846                0.03686917               -0.14335825               -0.06276437                0.34384081                0.22988191                0.89150714                0.17672335
               3.01446129                8.00108800               90.21205667                0.05431598               -0.40293799               -0.13271771                0.28705274                0.67965493                1.27105999               -0.09363429
               4.00835917                8.00610212               90.21826954                0.08723311               -0.53347454                0.03721515                0.16479167                0.72574292                0.62528074               -0.10958799
               5.00379180                8.01218350               90.22263348                0.16144773               -0.34248864               -0.06284261                0.20085398                0.61209353                0.26118788               -0.19062672
               6.00150939                8.01551388               90.22438212                0.25125530               -0.18921251               -0.04646721                0.21539954                0.26493660                0.04136777               -0.08951228
               7.00000755                8.01757692               90.22522113                0.36264363               -0.12291949               -0.06152807                0.21816394                0.11449605               -0.03336855               -0.05478403
               7.99905100                8.01898671               90.22582721                0.49848564               -0.08194370               -0.08179644                0.21891194                0.05133919               -0.04569299               -0.04685974
               8.99836868                8.02012266               90.22657871                0.67974329               -0.06652141               -0.09298383                0.22439886                0.01828541               -0.02474760               -0.05056503
               9.99772057                8.02116597               90.22764067                0.90110310               -0.06481017               -0.08846896                0.24086680                0.00050818               -0.00849570               -0.05951243
               0.01872776                8.99848044               90.19132593                0.90854697               -0.06484654               -0.07048972                0.18715348                0.00406926                0.01964089               -0.08362239
               1.01807930                8.99778635               90.19306088                0.52758799               -0.07457488               -0.06736291                0.25845354                0.02351880                0.09951740                0.03480301
               2.01723627                8.99753954               90.19638259                0.28294433               -0.09366041               -0.08295324                0.37926987                0.17995911                0.63417241                0.14121658
               3.01620609                9.00051758               90.20888338                0.29322763               -0.23404960               -0.00437242                0.25955108                0.29670065                0.77288334               -0.13580569
               4.01255527                9.00621003               90.21579554                0.25479195               -0.52889885                0.06131524                0.24030273                0.51810642                0.51331782               -0.15213625
               5.00562811                9.01200500               90.22226253                0.30924401               -0.55968959                0.03976324                0.21543986                0.38927862                0.36624067               -0.08816588
               6.00136148                9.01536034               90.22499784                0.38211838               -0.31907760               -0.00670764                0.21916516                0.16704554                0.09885201               -0.04141778
               6.99924656                9.01709982               90.22597082                0.50945869               -0.16031303               -0.04668565                0.22352741                0.05471938               -0.02646759               -0.02648172
               7.99815522                9.01830463               90.22650418                0.67972839               -0.09312171               -0.06658712                0.22476315                0.01836934               -0.05029393               -0.02543208
               8.99738413                9.01935228               90.22716923                0.91410567               -0.07438727               -0.07438023                0.23013709                0.00519852               -0.02862558               -0.02889314
               9.99666748                9.02038891               90.22818189                0.99964555               -0.07166506               -0.07705069                0.24547848               -0.00116539               -0.01075853               -0.03226826
               0.01944886                9.99787407               90.19156590                0.98707861               -0.07091316               -0.06063629                0.18691463               -0.01094887               -0.02566500               -0.06065992
               1.01873973                9.99704349               90.19353518                0.82568967               -0.10814866               -0.07428642                0.26366900                0.00353845                0.01955175                0.03026215
               2.01728589                9.99662399               90.19642666                0.73773062               -0.35074559               -0.09155545                0.38499631                0.20281466                0.50947261                0.06570939
               3.01172482               10.00100055               90.20861175                0.74692654               -0.50260074                0.04829700                0.26563000                0.08709434                0.85545161               -0.01304166
               4.00723387               10.00732843               90.21632560                0.68621292               -0.46488763                0.11183949                0.23618825                0.06677038                0.65364287               -0.02940707
               5.00242706               10.01297876               90.22339888                0.69994287               -0.37391953                0.09737629                0.22270449                0.08246008                0.41160292               -0.01798489
               5.99975548               10.01537973               90.22618292                0.73310191               -0.21347084                0.00193888                0.23534621                0.02262172                0.08781425               -0.00875089
               6.99815765               10.01664320               90.22705533                0.80407610               -0.12947743               -0.04566201                0.24131349                0.00487015               -0.04240697               -0.00671546
               7.99716593               10.01765496               90.22749835                0.90105255               -0.08846394               -0.06496682                0.24144898                0.00066335               -0.06054213               -0.00879926
               8.99638837               10.01863505               90.22810838                0.99962234               -0.07709631               -0.07172292                0.24582913               -0.00107635               -0.03296785               -0.01095946
               9.99562401               10.01962496               90.22910519                0.99569204               -0.07643615               -0.07639535                0.26069619               -0.00535652               -0.01226470               -0.01181579
               0.00070937                0.00427148               91.19099544                0.78488119               -0.03589414               -0.03588837                0.18653784                0.00991087                0.00423471                0.00429214
               1.00035043                0.00534862               91.19137399                0.53562555                0.01191238               -0.07791482                0.19028952                0.06862026                0.02836211               -0.00106447
               2.00094762                0.00844022               91.19217119                0.50635672                0.02444212               -0.04544431                0.20307878                0.02224200                0.06675303               -0.00388704
               3.00083927                0.01398101               91.19313459                0.53539845               -0.04942885               -0.05346788                0.21594824                0.01844197                0.05593864                0.00403759
               3.99995904                0.02025019               91.19389755                0.58058787               -0.10910521               -0.05740120                0.22235394                0.01998953                0.01102970                0.00908102
               4.99865717                0.02604417               91.19432439                0.63318592               -0.13583193               -0.06141771                0.22147769                0.02035852               -0.04183833                0.01133675
               5.99724240                0.03076386               91.19441452                0.68856886               -0.13686745               -0.06371329                0.21487742                0.01752419               -0.08745261                0.01193398
               6.99591982                0.03429667               91.19425740                0.74542806               -0.12130516               -0.06467044                0.20460154                0.01274058               -0.11699027                0.01173179
               7.99481630                0.03686024               91.19399442                0.80701092               -0.09620350               -0.06422292                0.19299823                0.00705727               -0.12748621                0.01304563
               8.99399575                0.03888844               91.19375246                0.88375483               -0.07087936               -0.06447041                0.18360822                0.00141578               -0.10007192                0.02294868
               9.99339871                0.04091037               91.19405179                0.96993588               -0.05970362               -0.07179583                0.18274836               -0.01225371               -0.07160391               -0.02644872
              -0.00026866                1.00391260               91.19130993                0.53563579               -0.07790765                0.01192031                0.19027640                0.06860328               -0.00103601                0.02847275
               0.99895226                1.00456948               91.19162623                0.01285087               -0.14387468               -0.14386897                0.19308052                0.20180114                0.00734841                0.00732876
               1.99685385                1.00798578               91.19214144                0.01046634               -0.19167758               -0.08420245                0.20321037                0.35039971                0.00829119                0.07982966
               2.99511871                1.01344634               91.19280667                0.01128186               -0.13632422               -0.09727912                0.21813536                0.39781270                0.01032110                0.19245972
               3.99412736                1.01967618               91.19342905                0.01194263               -0.07573953               -0.11681845                0.23193690                0.35402425                0.01086106                0.25738310
               4.99360392                1.02542999               91.19398211                0.06275078               -0.04179816               -0.00320722                0.24308163                0.23627132                0.01338457                0.24147783
               5.99329140                1.03012672               91.19447470                0.14298849               -0.03024428               -0.04659825                0.25107622                0.16224217                0.01730954                0.15881694
               6.99299903                1.03364996               91.19494747                0.23661795               -0.03502045               -0.07375117                0.25584588                0.09267433                0.02396987                0.11721397
               7.99259099                1.03621801               91.19547939                0.35570234               -0.05070950               -0.07922233                0.25789729                0.04605683                0.03501982                0.09870623
               8.99198484                1.03824373               91.19616061                0.52834537               -0.06683710               -0.07766723                0.25821650                0.02036173                0.03660722                0.12831732
               9.99125425                1.04019241               91.19674768                0.82264062               -0.07305977               -0.11899242                0.26158151                0.00534763                0.03362306                0.04486783
               0.00076768                2.00450989               91.19204416                0.50642055               -0.04544118                0.02447295                0.20303528                0.02224756               -0.00387889                0.06691801
               1.00031327                2.00247125               91.19207750                0.01044791               -0.08444636               -0.19167780                0.20320573                0.35064519                0.07987570                0.00830497
               1.99907876                2.00675618               91.19372773                0.01000001               -0.16040697               -0.16082727                0.23081368                0.75138891                0.18626447                0.18630973
               2.99710513                2.01203543               91.19621680                0.01000001               -0.20114421               -0.18850803                0.28447512                0.79955709                0.17458186                0.37288310
               3.99505587                2.01791382               91.19790999                0.01000000               -0.20865417               -0.21667706                0.35526685                0.85568525                0.11151573                0.44663671
               4.99293205                2.02598002               91.19823458                0.01000000               -0.13942968               -0.23204009                0.38708694                0.67123582                0.04535636                0.65997505
               5.99226728                2.02983189               91.19746294                0.01000000               -0.06250140               -0.33550091                0.38420240                0.40197280                0.02910184                0.82361572
               6.99168202                2.03282164               91.19773270                0.01000000               -0.05618053               -0.40576177                0.37564317                0.33753611                0.10854632                0.81245816
               7.99114367                2.03527579               91.19865058                0.08206158               -0.06267168               -0.07538955                0.37672710                0.15903039                0.18917247                0.81042770
               8.99042859                2.03733509               91.20067326                0.34526046               -0.07676762               -0.11968970                0.38135275                0.12126604                0.15239344                0.55613962
               9.98960831                2.03853052               91.20087964                0.77059179               -0.08202721               -0.30919020                0.39184964                0.12853945                0.07325189                0.43786189
               0.00425358                3.00440206               91.19294479                0.53540257               -0.05346982               -0.04938171                0.21591987                0.01844684                0.00403933                0.05607656
               1.00371888                3.00073592               91.19267925                0.01130927               -0.09680701               -0.13636223                0.21815937                0.39743918                0.19241690                0.01034600
               2.00231744                3.00476924               91.19615087                0.01000001               -0.18833355               -0.20181124                0.28460879                0.80057853                0.37340868                0.17426788
               2.99995221                3.00967617               91.19917356                0.01000000               -0.25104821               -0.25041043                0.38033258                0.85175819                0.33023598                0.32977715
               3.99729647                3.01534264               91.20277526                0.01000000               -0.24208219               -0.26649287                0.38311139                0.84262191                0.26275479                0.49030399
               4.99511056                3.02078919               91.20555237                0.01000000               -0.14036191               -0.45636461                0.34317364                0.67857876                0.26953188                0.98214432
               5.99448923                3.02341671               91.21079227                0.01682953               -0.04023544               -0.43301098                0.26046995                0.44139050                0.22879062                1.00066383
               6.99430586                3.02553473               91.21246669                0.01000000               -0.16155437               -0.42041299                0.39125697                0.66063485                0.12549587                1.04753589
               7.99125815                3.03471022               91.21437852                0.09341631               -0.15752079               -0.31355911                0.19738588                0.60565976               -0.03013897                1.02038917
               8.99115544                3.03584994               91.21184726                0.34551200                0.00880177               -0.23708970                0.25567262                0.13721433               -0.10803354                0.63000083
               9.99143418                3.03400861               91.21175371                0.77418044                0.02787429               -0.42292920                0.26861691                0.07140594               -0.00561391                0.70143765
               0.00846889                4.00352225               91.19364436                0.58058300               -0.05740180               -0.10906137                0.22231564                0.01998693                0.00908710                0.01110905
               1.00789488                3.99974400               91.19323785                0.01199349               -0.11594111               -0.07578472                0.23196873                0.35372818                0.25788395                0.01087168
               2.00615007                4.00271995               91.19779063                0.01000000               -0.21639903               -0.20833889                0.35364529                0.85533846                0.44739470                0.10965300
               3.00356690                4.00702722               91.20270855                0.01000000               -0.26773891               -0.24132612                0.38364820                0.84283970                0.49067480                0.26259946
               4.00079529                4.01258396               91.20845356                0.01000000               -0.25686713               -0.25596289                0.35338423                0.77718083                0.55668276                0.55589257
               4.99842955                4.01685273               91.21579730                0.01510664               -0.22228717               -0.30051881                0.44435369                0.72073212                0.26544786                0.60219895
               5.99634955                4.02117167               91.21665484                0.01000000               -0.24141747               -0.28917513                0.36237385                0.60238699                0.14016190                0.59778906
               6.99360120                4.02441338               91.22016270                0.02803880               -0.17039503               -0.28946380                0.49770243                0.57226744                0.12536972                0.41559909
               7.99294165                4.02900461               91.22036642                0.11615583                0.01366424               -0.57524000                0.20194578                0.68848881               -0.18493118                0.53425366
               8.99387449                4.03259330               91.21858481                0.29136514                0.08887257               -0.47196743                0.24789173                0.33804548               -0.12133935                0.41778188
               9.99471910                4.03007194               91.21915860                0.70704245                0.08446131               -0.42771681                0.24699188                0.06213451               -0.03098487                0.55524308
               0.01220982                5.00222083               91.19400727                0.63313261               -0.06140779               -0.13578686                0.22140679                0.02035337                0.01134251               -0.04178220
               1.01159575                4.99922023               91.19372669                0.06265126               -0.00344202               -0.04181767                0.24308314                0.23634876                0.24132682                0.01341263
               2.01214098                5.00060246               91.19803783                0.01000000               -0.23253778               -0.13914990                0.38815985                0.67130558                0.66075572                0.04511913
               3.00694499                5.00484965               91.20542823                0.01000000               -0.45632018               -0.13933133                0.34250910                0.67904811                0.98261675                0.26844394
               4.00301458                5.01022338               91.21573412                0.01512637               -0.30037470               -0.22179111                0.44446918                0.72065493                0.60190183                0.26509517
               5.00093750                5.01477881               91.21895120                0.01354512               -0.20191283               -0.20094379                0.37804571                0.53564338                0.35976999                0.35825322
               5.99897632                5.01763320               91.22579028                0.03398342               -0.15096154               -0.25866968                0.50385178                0.43506844                0.16912928                0.35315441
               6.99791827                5.01974545               91.22571697                0.09898934               -0.10641575               -0.30633698                0.24183329                0.54736500               -0.20705662                0.22668366
               7.99684801                5.02320542               91.22496930                0.19044063               -0.05346199               -0.42475363                0.22298212                0.59512665               -0.19962833                0.24878310
               8.99684903                5.02641059               91.22475625                0.34316630                0.04357959               -0.51197311                0.22572505                0.32037107               -0.08456281                0.29622053
               9.99771960                5.02545427               91.22598825                0.71860091                0.08705742               -0.36722386                0.22624327                0.07191243               -0.02727449                0.35883740
               0.01487717                6.00080652               91.19403369                0.68859746               -0.06369469               -0.13682582                0.21478596                0.01752830                0.01194764               -0.08742042
               1.01424022                5.99890765               91.19415563                0.14299721               -0.04652063               -0.03024643                0.25106011                0.16231153                0.15902380                0.01738335
               2.01394676                5.99993695               91.19720963                0.01000000               -0.33566427               -0.06257784                0.38444129                0.40377798                0.82370173                0.02949653
               3.00752694                6.00424060               91.21059617                0.01685602               -0.43337634               -0.03972511                0.26088061                0.44352029                1.00065566                0.22740232
               4.00527923                6.00814814               91.21652419                0.01000000               -0.28971716               -0.24115268                0.36247105                0.60311576                0.59828493                0.13796583
               5.00173259                6.01283386               91.22571777                0.03398108               -0.25974742               -0.14957208                0.50370820                0.43551487                0.35418050                0.16696852
               6.00008428                6.01599828               91.22642606                0.10359643               -0.13781538               -0.13703442                0.25797727                0.34046134               -0.10136779               -0.10352358
               6.99897629                6.01828664               91.22652192                0.18233505               -0.09526195               -0.13143143                0.24529406                0.28760060               -0.13519058               -0.05117586
               7.99817904                6.02050954               91.22676957                0.27705886               -0.04716132               -0.21815942                0.23291589                0.27771032               -0.10637240                0.02203823
               8.99803306                6.02235384               91.22744358                0.40801229               -0.00545252               -0.31287150                0.22643042                0.16076831               -0.05073061                0.06398666
               9.99806999                6.02272746               91.22881248                0.74613047                0.00369322               -0.22088101                0.23450673                0.02218296               -0.01737259                0.06389604
               0.01635813                6.99948431               91.19381278                0.74541870               -0.06465894               -0.12127754                0.20452012                0.01273953                0.01173861               -0.11699979
               1.01571154                6.99861530               91.19456489                0.23662812               -0.07372683               -0.03501049                0.25583644                0.09271493                0.11729024                0.02403447
               2.01488359                6.99935090               91.19741357                0.01000000               -0.40536661               -0.05620770                0.37566387                0.33895340                0.81237574                0.10853201
               3.00760421                7.00405515               91.21220712                0.01000000               -0.41999795               -0.16232554                0.39184940                0.66269061                1.04594612                0.12446560
               4.00648364                7.00540032               91.21994969                0.02802021               -0.29032769               -0.17028669                0.49819745                0.57403212                0.41435843                0.12373604
               5.00179766                7.01178737               91.22556667                0.09897962               -0.30754360               -0.10604539                0.24285851                0.54902171                0.22767972               -0.20953635
               6.00033276                7.01489252               91.22644700                0.18233228               -0.13193186               -0.09515622                0.24575097                0.28814054               -0.04947529               -0.13731027
               6.99915902                7.01711682               91.22699968                0.27631600               -0.09988702               -0.09959589                0.23982402                0.19094160               -0.08163806               -0.08329599
               7.99833502                7.01884223               91.22753943                0.38417072               -0.06562722               -0.13491184                0.23115644                0.13347128               -0.07370118               -0.05673100
               8.99784647                7.02015316               91.22837518                0.52528910               -0.04595031               -0.16812415                0.22804472                0.06355633               -0.03732879               -0.04861856
               9.99741602                7.02103665               91.22967819                0.81054035               -0.04304571               -0.13603507                0.24024638                0.00829146               -0.01263813               -0.06233533
               0.01686999                7.99838097               91.19348546                0.80704325               -0.06420595               -0.09618339                0.19291261                0.00706390                0.01305498               -0.12752344
               1.01622793                7.99820744               91.19503293                0.35574040               -0.07920102               -0.05069310                0.25787193                0.04611422                0.09877256                0.03506418
               2.01528597                7.99881280               91.19826773                0.08208492               -0.07483035               -0.06264499                0.37673923                0.15988870                0.81010149                0.18921769
               3.01473133                8.00099409               91.21405007                0.09342464               -0.31291612               -0.15844122                0.19793037                0.60711442                1.01864878               -0.03108096
               4.00902765                8.00474241               91.22008941                0.11615855               -0.57552444                0.01354261                0.20316566                0.68994837                0.53280057               -0.18575887
               5.00322084                8.01071295               91.22475192                0.19042387               -0.42550037               -0.05385056                0.22410627                0.59680830                0.24869453               -0.20100998
               6.00051764                8.01409515               91.22662310                0.27702237               -0.21877177               -0.04724113                0.23367661                0.27850235                0.02280754               -0.10794965
               6.99884540                8.01629473               91.22746624                0.38414605               -0.13527562               -0.06554609                0.23150976                0.13373309               -0.05575047               -0.07506009
               7.99781213                8.01781130               91.22805368                0.51123536               -0.08678164               -0.08664596                0.22684719                0.06577782               -0.06515328               -0.06606912
               8.99710977                8.01899135               91.22883440                0.67943176               -0.06716427               -0.09772293                0.22665992                0.02548466               -0.03563700               -0.06840253
               9.99646885                8.02000676               91.23004825                0.89736943               -0.06409247               -0.09019643                0.23957617                0.00324042               -0.01329448               -0.07872912
               0.01684647                8.99756065               91.19317918                0.88373377               -0.06444738               -0.07085822                0.18352974                0.00141531                0.02294619               -0.10010766
               1.01620199                8.99760144               91.19565014                0.52835699               -0.07758736               -0.06682492                0.25818247                0.02041123                0.12829196                0.03663708
               2.01529472                8.99809800               91.20022514                0.34529165               -0.11925517               -0.07676204                0.38131702                0.12177281                0.55573170                0.15237101
               3.01381689                9.00088633               91.21145482                0.34552256               -0.23654902                0.00842087                0.25602624                0.13777200                0.62887310               -0.10824153
               4.01056374                9.00567118               91.21825018                0.29134526               -0.47179083                0.08849590                0.24851589                0.33875928                0.41653885               -0.12159900
               5.00438107                9.01071036               91.22447900                0.34313151               -0.51213533                0.04318844                0.22662798                0.32121226                0.29531223               -0.08513608
               6.00032103                9.01394769               91.22723242                0.40797962               -0.31317704               -0.00568646                0.22722583                0.16126791                0.06378050               -0.05148879
               6.99811753                9.01580590               91.22823328                0.52519209               -0.16835403               -0.04607506                0.22862087                0.06379954               -0.04854514               -0.03806324
               7.99695395                9.01710931               91.22876302                0.67940269               -0.09784100               -0.06720686                0.22694736                0.02555886               -0.06818976               -0.03619029
               8.99616071                9.01819870               91.22946406                0.88932184               -0.07519668               -0.07518932                0.22863411                0.00849497               -0.03856551               -0.03878669
               9.99545002                9.01923272               91.23062019                0.99926113               -0.07106941               -0.07603996                0.24135038                0.00042164               -0.01506846               -0.04303641
               0.01681672                9.99696380               91.19341422                0.96987833               -0.07179179               -0.05968438                0.18268975               -0.01226095               -0.02648952               -0.07163533
               1.01609880                9.99687094               91.19617298                0.82270474               -0.11900907               -0.07304967                0.26155921                0.00536876                0.04476949                0.03364293
               2.01443654                9.99727756               91.20036667                0.77058905               -0.30926052               -0.08204438                0.39182483                0.12876017                0.43756259                0.07325555
               3.00991359               10.00116250               91.21130028                0.77417635               -0.42288693                0.02761773                0.26884912                0.07140860                0.70111744               -0.00551716
               4.00597880               10.00651232               91.21876683                0.70705423               -0.42725124                0.08411480                0.24734835                0.06221688                0.55476098               -0.03103019
               5.00136857               10.01157672               91.22565685                0.71858246               -0.36656692                0.08663564                0.22682107                0.07220449                0.35796116               -0.02737719
               5.99864746               10.01398143               91.22854494                0.74610381               -0.22043968                0.00337328                0.23511679                0.02246834                0.06296354               -0.01759358
               6.99695977               10.01537323               91.22947510                0.81050805               -0.13584777               -0.04326754                0.24083362                0.00851113               -0.06326873               -0.01292413
               7.99593051               10.01646717               91.22991085                0.89734505               -0.09017561               -0.06421475                0.24001194                0.00337259               -0.07953358               -0.01354626
               8.99515626               10.01748757               91.23054968                0.99921506               -0.07606328               -0.07111348                0.24161425                0.00049455               -0.04357785               -0.01523330
               9.99440924               10.01848596               91.23168554                0.99521320               -0.07470205               -0.07467630                0.25404595               -0.00423868               -0.01664096               -0.01629070
               0.00036143                0.00398817               92.19284023                0.78003912               -0.03246399               -0.03246330                0.18157081                0.01199778                0.00565895                0.00571383
               1.00003679                0.00507539               92.19326117                0.53253893                0.01810576               -0.07950515                0.18668741                0.07864973                0.03507855               -0.00027541
               2.00072355                0.00843647               92.19419801                0.50940988                0.02340605               -0.04232121                0.20181515                0.02450083                0.07691623               -0.00270881
               3.00050492                0.01435586               92.19529392                0.54108739               -0.06485953               -0.05190397                0.21487880                0.02382476                0.05779164                0.00695899
               3.99942636                0.02078351               92.19611642                0.58902870               -0.12913564               -0.05657404                0.21968684                0.02549515                0.00218651                0.01220171
               4.99792220                0.02641539               92.19652643                0.64232972               -0.15436090               -0.06098739                0.21658400                0.02443568               -0.05862647                0.01427537
               5.99633914                0.03066577               92.19654308                0.69479930               -0.15119198               -0.06308594                0.20801189                0.01911942               -0.10852060                0.01474900
               6.99489836                0.03348936               92.19627828                0.74384615               -0.13004033               -0.06367838                0.19661204                0.01095023               -0.13861806                0.01447633
               7.99373833                0.03519850               92.19589781                0.79265010               -0.09888288               -0.06240269                0.18571843                0.00179129               -0.14523858                0.01615855
               8.99292071                0.03634986               92.19557059                0.85180693               -0.06980368               -0.06458260                0.17953156               -0.00425107               -0.10989613                0.02606267
               9.99234226                0.03755874               92.19585773                0.94775452               -0.05784448               -0.07190053                0.17797847               -0.01438087               -0.07676638               -0.02116943
              -0.00060580                1.00366354               92.19319716                0.53257442               -0.07950544                0.01810539                0.18669415                0.07864397               -0.00026306                0.03516305
               0.99859915                1.00428033               92.19354646                0.01372103               -0.15329395               -0.15329283                0.19099685                0.22951927                0.01235171                0.01235110
               1.99632832                1.00801325               92.19417935                0.01000001               -0.20147514               -0.08977993                0.20517904                0.38670861                0.01915197                0.09572577
               2.99456964                1.01383682               92.19501356                0.01000000               -0.13383884               -0.11507947                0.22472047                0.44230932                0.02568825                0.23174786
               3.99365154                1.02021777               92.19578965                0.01000000               -0.06721067               -0.20460337                0.24218940                0.40087245                0.02641610                0.32306871
               4.99322543                1.02580552               92.19646348                0.08319663               -0.03290970                0.01687876                0.25565007                0.27892299                0.02667099                0.30944200
               5.99299335                1.03003491               92.19703835                0.16855059               -0.02419652               -0.04565049                0.26438793                0.17706213                0.02621879                0.21622779
               6.99274150                1.03285258               92.19755285                0.26322052               -0.03336767               -0.07734424                0.26758402                0.09077846                0.02650496                0.16031349
               7.99232600                1.03457447               92.19808570                0.37541238               -0.05217109               -0.07713662                0.26373910                0.03177308                0.03045807                0.13619022
               8.99169808                1.03570404               92.19873533                0.52893766               -0.06682080               -0.08497835                0.25542778                0.00492982                0.03111081                0.15376018
               9.99098958                1.03683973               92.19934109                0.81516740               -0.07084964               -0.12454959                0.25420463                0.00006483                0.03156224                0.07707448
               0.00070073                2.00435028               92.19407070                0.50938326               -0.04232597                0.02342236                0.20180263                0.02450338               -0.00270230                0.07703551
               1.00027747                2.00200953               92.19411545                0.01000001               -0.08997452               -0.20148405                0.20519639                0.38691006                0.09575097                0.01917332
               1.99890124                2.00664087               92.19606354                0.01000000               -0.15654385               -0.15698630                0.24234321                0.79953917                0.24169482                0.24150537
               2.99714659                2.01205427               92.19919828                0.01000000               -0.17130633               -0.22049443                0.31119588                0.75619089                0.27913786                0.37481760
               3.99547511                2.01669144               92.20166592                0.01000001               -0.17315342               -0.28014754                0.59974798                0.88093194                0.13387222                0.80959003
               4.99368352                2.02675297               92.20229457                0.01870823               -0.13208931               -0.07165059                0.41855478                0.67474815                0.05498226                0.70115337
               5.99283332                2.02975276               92.20154602                0.01766925               -0.07545772               -0.13075127                0.42923747                0.25050973                0.01679747                0.72435250
               6.99217437                2.03194248               92.20171085                0.01319536               -0.06554931               -0.30190512                0.42502971                0.17844063                0.09083944                0.87975466
               7.99152234                2.03365577               92.20262750                0.15427242               -0.07101608               -0.07571155                0.41798271                0.09029211                0.15997170                0.71712355
               8.99075405                2.03465030               92.20445755                0.40735803               -0.07250817               -0.14225103                0.36807799                0.05121620                0.12670339                0.47778161
               9.99007217                2.03506774               92.20477606                0.79188223               -0.06818716               -0.26668540                0.37385573                0.06270157                0.06454643                0.38301202
               0.00456577                3.00413199               92.19510342                0.54109660               -0.05190113               -0.06481161                0.21483866                0.02382313                0.00696658                0.05790706
               1.00404676                3.00025065               92.19488606                0.01000000               -0.11457044               -0.13385865                0.22473120                0.44191404                0.23188793                0.02572716
               2.00227436                3.00487353               92.19913647                0.01000000               -0.22019360               -0.17228201                0.31126290                0.75626039                0.37444686                0.27849014
               2.99964289                3.00942693               92.20320536                0.01000000               -0.28514388               -0.28463399                0.41589376                0.76844100                0.34214276                0.34212774
               3.99657149                3.01461482               92.20666230                0.01000001               -0.29919071               -0.24310139                0.39211943                0.97273629                0.26153309                0.50332736
               4.99365907                3.02437251               92.20946855                0.01039949               -0.18787255               -0.44893978                0.37943217                0.80262670                0.16474984                1.02810070
               5.99281403                3.02741988               92.21224236                0.01000000               -0.06258866               -0.52061182                0.20448282                0.27574611                0.27325128                1.06555443
               6.99240730                3.02681448               92.21744882                0.02612355               -0.06950073               -0.49395523                0.39966508                0.29918083                0.04995892                1.40499797
               7.99142402                3.03306024               92.21633912                0.14919294               -0.05484380               -0.26488040                0.20631987                0.33767415               -0.14730018                0.77718897
               8.99131043                3.03285902               92.21439328                0.39305869               -0.00076504               -0.23450610                0.25442109                0.04695808               -0.08982896                0.50877666
               9.99140872                3.03150602               92.21444034                0.78830270                0.00982940               -0.34685074                0.26448651                0.05226190               -0.00674828                0.56127836
               0.00893986                4.00305405               92.19586263                0.58902831               -0.05656507               -0.12908098                0.21962433                0.02549494                0.01220399                0.00226985
               1.00837421                3.99933236               92.19559854                0.01000000               -0.20448461               -0.06723190                0.24219259                0.40018014                0.32221825                0.02645001
               2.00485017                4.00319523               92.20152043                0.01000001               -0.28000427               -0.17279789                0.59960466                0.88091951                0.80976209                0.13462149
               3.00277412                4.00636159               92.20660180                0.01000001               -0.24329530               -0.29888454                0.39218435                0.97358813                0.50414987                0.26101620
               3.99998426                4.01182941               92.21248747                0.01000000               -0.29215666               -0.29142219                0.51406910                0.93578141                0.63778006                0.63755075
               4.99693099                4.01777417               92.22055081                0.01854330               -0.20389920               -0.52126306                0.41213374                0.69530501                0.40917549                0.60894861
               5.99590628                4.01934052               92.22190083                0.01509704               -0.22066827               -0.56004718                0.58629353                0.42639962                0.02721775                0.65157781
               6.99251762                4.02206337               92.22487801                0.05926721               -0.18374981               -0.39767394                0.33803860                0.63645554               -0.10942240                0.51780096
               7.99223128                4.02835816               92.22260067                0.15567915                0.03649018               -0.53887204                0.23667372                0.59034761               -0.24348339                0.42141261
               8.99324743                4.02996018               92.22109530                0.32647165                0.07960618               -0.41040147                0.25380047                0.19724891               -0.11075180                0.34403985
               9.99382340                4.02813073               92.22166153                0.72215031                0.05759758               -0.37715708                0.25017204                0.05479848               -0.03322339                0.46400024
               0.01251906                5.00155037               92.19620882                0.64225886               -0.06098714               -0.15433737                0.21653304                0.02442858                0.01428149               -0.05858641
               1.01190918                4.99890602               92.19620838                0.08322371                0.01722311               -0.03292173                0.25567850                0.27896372                0.31012618                0.02670012
               2.01286352                5.00141757               92.20211553                0.01871527               -0.07143591               -0.13140277                0.41892352                0.67492632                0.70138172                0.05591768
               3.01048047                5.00344924               92.20933840                0.01039848               -0.44944933               -0.18762213                0.37938123                0.80308063                1.02874467                0.16395812
               4.00387453                5.00878637               92.22049175                0.01857041               -0.52132008               -0.20347786                0.41191729                0.69497552                0.60919353                0.40819965
               5.00005406                5.01394725               92.22459159                0.01000001               -0.34108532               -0.34028012                0.60988207                0.53798016                0.25770325                0.25735053
               5.99705283                5.01621894               92.22921701                0.06210736               -0.19676460               -0.23993183                0.30893136                0.37910787               -0.00019435                0.21278454
               6.99611877                5.01886100               92.22819816                0.13203946               -0.08593275               -0.25085970                0.25728185                0.54615640               -0.27554160                0.12894250
               7.99533417                5.02228280               92.22732315                0.22743922               -0.03179695               -0.45254736                0.24528735                0.50792305               -0.20216838                0.21119394
               8.99548283                5.02465099               92.22706469                0.37363249                0.04147053               -0.44879478                0.23479967                0.24362584               -0.08783804                0.23241652
               9.99616358                5.02396288               92.22826208                0.73213244                0.06807472               -0.33913589                0.22716086                0.06182031               -0.03673816                0.30222543
               0.01471713                5.99996730               92.19616147                0.69478125               -0.06308557               -0.15118040                0.20795208                0.01913136                0.01475991               -0.10850350
               1.01408628                5.99867392               92.19671932                0.16858176               -0.04558344               -0.02419676                0.26441466                0.17712330                0.21641221                0.02627484
               2.01380547                6.00056717               92.20129312                0.01767972               -0.13096735               -0.07550998                0.42913968                0.25064345                0.72436851                0.01616625
               3.01146693                6.00260915               92.21205022                0.01000000               -0.52098508               -0.06209473                0.20465861                0.27635396                1.06551299                0.27178070
               4.00338576                6.00775985               92.22176631                0.01508583               -0.56044538               -0.22055735                0.58619438                0.42742116                0.65149658                0.02580335
               5.00025802                6.01096857               92.22914680                0.06210847               -0.24055421               -0.19551385                0.30915782                0.37911287                0.21354658               -0.00155681
               5.99857468                6.01454188               92.22914022                0.13520443               -0.14405683               -0.14362518                0.28276819                0.40292186               -0.15911740               -0.16073125
               6.99737689                6.01704618               92.22911004                0.21572868               -0.09874653               -0.15704280                0.27018631                0.31754119               -0.16136224               -0.06615948
               7.99659975                6.01930721               92.22919540                0.30862460               -0.04685119               -0.23804839                0.25037604                0.27142922               -0.12732150               -0.00570631
               8.99643986                6.02098428               92.22974673                0.43318415               -0.00818628               -0.29011123                0.23286703                0.14351572               -0.06371659                0.02509924
               9.99643602                6.02134801               92.23114802                0.75701686               -0.00038403               -0.21435330                0.23126071                0.02245213               -0.02746242                0.03648757
               0.01548844                6.99852676               92.19583279                0.74389500               -0.06366633               -0.13001511                0.19652631                0.01094896                0.01447935               -0.13861796
               1.01485178                6.99842208               92.19717016                0.26318357               -0.07736416               -0.03335737                0.26756908                0.09079845                0.16033739                0.02655604
               2.01394116                6.99990737               92.20139133                0.01321243               -0.30184586               -0.06556671                0.42509834                0.17913088                0.87954916                0.09073489
               3.00881486                7.00220735               92.21718708                0.02612437               -0.49388138               -0.06952399                0.39978248                0.30067539                1.40428145                0.04870774
               4.00406353                7.00437523               92.22467399                0.05927728               -0.39802853               -0.18367025                0.33879740                0.63785900                0.51725841               -0.11036759
               5.00085429                7.01003697               92.22805715                0.13202029               -0.25149401               -0.08588012                0.25805537                0.54725952                0.12961402               -0.27725902
               5.99903365                7.01334644               92.22903916                0.21571594               -0.15750122               -0.09862116                0.27054341                0.31798592               -0.06502833               -0.16289541
               6.99770427                7.01572014               92.22950608                0.30816214               -0.11044988               -0.11020318                0.25945188                0.21302365               -0.10867631               -0.10986197
               7.99682465                7.01752183               92.22992140                0.40963319               -0.06959593               -0.14327363                0.24373305                0.14543260               -0.09807246               -0.08413056
               8.99631235                7.01884876               92.23068010                0.54013173               -0.04697473               -0.16592757                0.23179537                0.06877417               -0.05179452               -0.07414180
               9.99588516                7.01967582               92.23207018                0.81500563               -0.04271891               -0.13493063                0.23647950                0.01225331               -0.02102228               -0.08255472
               0.01514547                7.99736700               92.19538800                0.79265005               -0.06238365               -0.09886170                0.18563387                0.00179323                0.01615604               -0.14525718
               1.01452164                7.99800677               92.19763889                0.37537336               -0.07713282               -0.05215180                0.26370405                0.03181193                0.13616265                0.03049171
               2.01360282                7.99925584               92.20224325                0.15427968               -0.07545259               -0.07096724                0.41796871                0.09084781                0.71696343                0.15997669
               3.01301259                8.00121867               92.21601528                0.14921692               -0.26447481               -0.05524068                0.20665019                0.33871277                0.77624599               -0.14771881
               4.00831332                8.00408645               92.22233286                0.15565599               -0.53902904                0.03627043                0.23740309                0.59153196                0.42046343               -0.24412780
               5.00223200                8.00925097               92.22711560                0.22742452               -0.45310481               -0.03198096                0.24611922                0.50904182                0.21103660               -0.20323793
               5.99925123                8.01256946               92.22905566                0.30858663               -0.23850213               -0.04688537                0.25095144                0.27201556               -0.00522378               -0.12850037
               6.99746196                8.01484212               92.22985133                0.40957918               -0.14357226               -0.06952222                0.24402269                0.14565386               -0.08345116               -0.09907708
               7.99637978                8.01644174               92.23036415                0.52500053               -0.09002979               -0.08990873                0.23431816                0.07798019               -0.08831572               -0.08899628
               8.99566137                8.01766573               92.23111191                0.67545134               -0.06763960               -0.09937498                0.22821375                0.03254795               -0.04896435               -0.08819171
               9.99502699                8.01864940               92.23243219                0.89020503               -0.06343786               -0.08924624                0.23603464                0.00680200               -0.01976448               -0.09721329
               0.01424476                8.99654953               92.19499653                0.85190958               -0.06455786               -0.06978564                0.17944507               -0.00424489                0.02604981               -0.10990907
               1.01359918                8.99737904               92.19822453                0.52888911               -0.08492685               -0.06680515                0.25539406                0.00497650                0.15368942                0.03114940
               2.01254622                8.99848803               92.20400893                0.40736570               -0.14203370               -0.07249007                0.36809260                0.05152545                0.47746619                0.12671906
               3.01075851                9.00110253               92.21400390                0.39307452               -0.23421746               -0.00096913                0.25468491                0.04735120                0.50804867               -0.09004219
               4.00786187                9.00510063               92.22076586                0.32646169               -0.41031946                0.07940395                0.25423815                0.19770078                0.34321691               -0.11102503
               5.00255212                9.00939735               92.22679509                0.37361145               -0.44895289                0.04122754                0.23545213                0.24421342                0.23182106               -0.08831109
               5.99888281                9.01240873               92.22954235                0.43316004               -0.29035254               -0.00833135                0.23344727                0.14388117                0.02495888               -0.06431276
               6.99674507                9.01432970               92.23054323                0.54012848               -0.16610842               -0.04705204                0.23221192                0.06896656               -0.07408567               -0.05234028
               7.99556065                9.01572366               92.23104312                0.67540814               -0.09947084               -0.06766787                0.22843754                0.03262330               -0.08803895               -0.04938307
               8.99475565                9.01686126               92.23174192                0.85616929               -0.07533936               -0.07532930                0.22658852                0.01239889               -0.04992634               -0.05009454
               9.99405386                9.01789089               92.23300890                0.99128799               -0.07017903               -0.07404838                0.23564555                0.00258662               -0.02045669               -0.05427729
               0.01340154                9.99597129               92.19521970                0.94773230               -0.07188724               -0.05782395                0.17789491               -0.01438343               -0.02121587               -0.07676731
               1.01268267                9.99667067               92.19876637                0.81519424               -0.12458511               -0.07083731                0.25417817                0.00008623                0.07695766                0.03160015
               2.01090984                9.99780604               92.20426315                0.79189648               -0.26678330               -0.06819894                0.37389697                0.06279234                0.38278390                0.06457499
               3.00734700               10.00119929               92.21398873                0.78831385               -0.34686593                0.00967532                0.26463892                0.05227414                0.56108407               -0.00670044
               4.00397252               10.00567453               92.22127257                0.72215223               -0.37694113                0.05738950                0.25039640                0.05487631                0.46374491               -0.03326952
               4.99980818               10.01007552               92.22793530                0.73213629               -0.33880096                0.06781686                0.22753276                0.06202146                0.30173294               -0.03683052
               5.99719650               10.01240283               92.23088525                0.75700659               -0.21409086               -0.00058935                0.23165482                0.02264641                0.03591367               -0.02764821
               6.99552636               10.01390108               92.23187201                0.81497960               -0.13479103               -0.04286223                0.23684957                0.01240698               -0.08318461               -0.02122772
               7.99450068               10.01508838               92.23229859                0.89019816               -0.08921242               -0.06352766                0.23634299                0.00690665               -0.09781538               -0.01995021
               8.99374211               10.01615914               92.23294067                0.99125939               -0.07406057               -0.07021219                0.23584620                0.00264881               -0.05468959               -0.02058626
               9.99301947               10.01716843               92.23418611                1.00000000               -0.07226451               -0.07224588                0.24503221               -0.00251019               -0.02184378               -0.02158269
              -0.00001932                0.00367190               93.19462686                0.77343436               -0.02864615               -0.02865071                0.17449902                0.01474532                0.00742380                0.00746646
               0.99969422                0.00477254               93.19510774                0.52826673                0.02362556               -0.08103237                0.18199512                0.08986243                0.04228100                0.00115656
               2.00045319                0.00842337               93.19620749                0.51279903                0.01912411               -0.03886007                0.19939786                0.02707846                0.08461497               -0.00029937
               3.00007670                0.01468092               93.19743216                0.54781899               -0.08414653               -0.05039935                0.21137346                0.03076745                0.05400141                0.01094080
               3.99877026                0.02114776               93.19829128                0.59889759               -0.15093605               -0.05597150                0.21300312                0.03228154               -0.01281075                0.01588520
               4.99705798                0.02645557               93.19865607                0.65233034               -0.17250571               -0.06048748                0.20612082                0.02909211               -0.07984729                0.01760244
               5.99532015                0.03006829               93.19857476                0.69973821               -0.16326266               -0.06199498                0.19399005                0.01969889               -0.13009116                0.01792999
               6.99379273                0.03203703               93.19818964                0.73785202               -0.13504654               -0.06133779                0.18185445                0.00587331               -0.15421447                0.01880178
               7.99261922                0.03280763               93.19770879                0.77091020               -0.09774130               -0.05955132                0.17462502               -0.00799563               -0.15032871                0.02111632
               8.99183790                0.03308021               93.19734310                0.81070764               -0.06650610               -0.06482289                0.17473061               -0.01299135               -0.10736504                0.02964578
               9.99128910                0.03352027               93.19761136                0.92025108               -0.05488069               -0.07046989                0.17286544               -0.01750516               -0.07255332               -0.00901551
              -0.00097251                1.00338539               93.19504381                0.52829028               -0.08103855                0.02362243                0.18200759                0.08985549                0.00117170                0.04236017
               0.99821711                1.00396221               93.19544617                0.01585682               -0.16288534               -0.16287119                0.18910956                0.25953063                0.01967684                0.01967366
               1.99576979                1.00803477               93.19624502                0.01000000               -0.20974632               -0.08971023                0.20919881                0.42956702                0.03562647                0.11777226
               2.99402218                1.01417693               93.19730108                0.01000000               -0.12820159               -0.16704691                0.23471571                0.47810420                0.04801233                0.27575251
               3.99320575                1.02058805               93.19827284                0.03110324               -0.05667710                0.10426042                0.25692554                0.37702673                0.04823428                0.59881353
               4.99288864                1.02585069               93.19909511                0.11846855               -0.02396751                0.02712307                0.27373676                0.29769553                0.04405424                0.37183959
               5.99272640                1.02944834               93.19976245                0.21520646               -0.02034250               -0.04766766                0.28369815                0.17198804                0.03475561                0.27490415
               6.99248179                1.03142366               93.20029915                0.31235758               -0.03543644               -0.07581330                0.28234518                0.06941892                0.02137752                0.21354593
               7.99201768                1.03221212               93.20075417                0.40935411               -0.05650593               -0.07213970                0.26823881               -0.00072456                0.01378921                0.18444926
               8.99135167                1.03243198               93.20126917                0.52641330               -0.06718485               -0.09237139                0.24929772               -0.02101767                0.01634411                0.17155525
               9.99067398                1.03281557               93.20183178                0.80062827               -0.06776921               -0.12143825                0.24134356               -0.01298421                0.02226432                0.10840543
               0.00062414                2.00414434               93.19608022                0.51283424               -0.03886884                0.01914402                0.19938849                0.02708421               -0.00029885                0.08470858
               1.00023545                2.00151511               93.19618143                0.01000000               -0.08971603               -0.20974185                0.20920654                0.42956495                0.11777375                0.03568921
               1.99882982                2.00662917               93.19857459                0.01000000               -0.15749718               -0.15763081                0.25254518                0.77710777                0.30311995                0.30116197
               2.99708551                2.01133998               93.20244071                0.01000001               -0.20963944               -0.25308562                0.40093487                1.09254301                0.55956406                0.47793030
               3.99463703                2.02323297               93.20990495                0.01000000               -0.14669547               -0.30002033                0.57700217                0.93581185                0.17168143                0.98367105
               4.99415160                2.02699803               93.20660568                0.01617738               -0.07250427               -0.13778627                0.43576810                0.29094160               -0.17761306                0.67875152
               5.99318695                2.02911494               93.20604769                0.01422079               -0.08671371               -0.25376813                0.46021366                0.13851601               -0.01295688                0.65004740
               6.99241733                2.03052077               93.20623329                0.10607569               -0.07952703               -0.04780623                0.46564130                0.04881932                0.04274501                0.82878006
               7.99159641                2.03136484               93.20701024                0.25575793               -0.08016138               -0.09656475                0.42629757                0.00310128                0.07713259                0.60976476
               8.99081410                2.03123278               93.20803482                0.46036723               -0.06670928               -0.15221313                0.34047317               -0.01836813                0.06255968                0.41074081
               9.99026222                2.03109151               93.20835675                0.79712101               -0.05518777               -0.22334384                0.33603467                0.01242854                0.03794152                0.34321846
               0.00482764                3.00376827               93.19724156                0.54781659               -0.05040524               -0.08410485                0.21135014                0.03076197                0.01093601                0.05407834
               1.00432359                2.99976738               93.19717387                0.01000000               -0.16702826               -0.12822196                0.23473476                0.47799394                0.27570648                0.04805504
               2.00148707                3.00488215               93.20237612                0.01000001               -0.25271747               -0.20979216                0.40014642                1.09300361                0.47807501                0.55960137
               2.99926924                3.00911521               93.20749144                0.01000001               -0.26115641               -0.26127405                0.45981960                0.76514175                0.29267674                0.29270407
               3.99626394                3.01458764               93.21061765                0.01000000               -0.32218657               -0.58637198                0.52095970                0.94723054                0.17803707                0.72770205
               4.99282550                3.02309497               93.21314101                0.01000000               -0.21449796               -0.65446840                0.53817705                0.64167157                0.20849564                0.66932622
               5.99197399                3.02437298               93.21488193                0.01500793               -0.08086169               -0.59431800                0.57702677                0.33761622                0.29295500                1.11771955
               6.99120827                3.03046753               93.22045999                0.08937575               -0.03031473               -0.32503532                0.25387161                0.21017202                0.11914050                1.07618538
               7.99136769                3.03028083               93.21850492                0.22226556                0.00246854               -0.24580016                0.22098334               -0.04107697               -0.18834507                0.58616460
               8.99125764                3.02938771               93.21693568                0.42899783               -0.00812995               -0.22150478                0.25254922               -0.00738179               -0.08536192                0.41410842
               9.99120509                3.02834870               93.21704344                0.78671514               -0.00525499               -0.27806526                0.25519040                0.02909583               -0.01630048                0.44682995
               0.00924116                4.00246225               93.19803684                0.59886519               -0.05597172               -0.15089994                0.21296192                0.03227786                0.01588426               -0.01274749
               1.00868145                3.99895067               93.19808170                0.03119328                0.10504449               -0.05669652                0.25694056                0.37695262                0.59908756                0.04826823
               2.01134205                4.00243332               93.20978272                0.01000000               -0.29992955               -0.14670168                0.57736770                0.93576756                0.98319358                0.17255785
               3.00268286                4.00611450               93.21055224                0.01000000               -0.58700826               -0.32174115                0.52083862                0.94733208                0.72802888                0.17800098
               3.99960189                4.01150553               93.21873494                0.01695817               -0.27415812               -0.27395558                0.49404090                0.57377391                0.51190751                0.51144216
               4.99719969                4.01390866               93.22403997                0.01440703               -0.35175914               -0.58825677                0.48090569                0.51319204                0.22282369                0.73158780
               5.99256671                4.01722858               93.22838071                0.03504534               -0.32433888               -0.48617323                0.46571275                0.67516395               -0.17114390                0.86097981
               6.99071292                4.02402006               93.22692347                0.10813776               -0.03560115               -0.61876321                0.23120631                0.61566437               -0.26084377                0.55616621
               7.99185468                4.02644884               93.22509989                0.20713348                0.09428380               -0.47231247                0.25465259                0.26765231               -0.19671126                0.32654871
               8.99259859                4.02680268               93.22366082                0.35690004                0.05337451               -0.34901083                0.25763129                0.09885284               -0.11088820                0.29025234
               9.99292217                4.02553020               93.22416204                0.72884565                0.03235813               -0.31682035                0.24901977                0.04200035               -0.03925544                0.38682682
               0.01249634                5.00075027               93.19833794                0.65232335               -0.06047769               -0.17248843                0.20606323                0.02909234                0.01760804               -0.07980634
               1.01189156                4.99863345               93.19884026                0.11850920                0.02711285               -0.02396558                0.27374421                0.29766073                0.37195875                0.04411439
               2.01303860                5.00194812               93.20641630                0.01619114               -0.13739472               -0.07244215                0.43514375                0.29040592                0.67857787               -0.17786451
               3.00914367                5.00268039               93.21301585                0.01000000               -0.65466671               -0.21434852                0.53841079                0.64207823                0.66897298                0.20838417
               3.99994526                5.00910853               93.22397247                0.01440772               -0.58886845               -0.35117837                0.48064970                0.51300693                0.73216964                0.22173260
               4.99736630                5.01132983               93.23114884                0.03799706               -0.22896994               -0.22857517                0.54016492                0.34854541                0.15141403                0.15129599
               5.99536586                5.01464951               93.23196890                0.10304738               -0.15325012               -0.21335376                0.27660264                0.55672114               -0.19107778                0.06067281
               6.99430130                5.01809227               93.23086261                0.17927417               -0.07138739               -0.41822612                0.27283400                0.55830059               -0.26963169                0.15205498
               7.99393812                5.02083458               93.22987505                0.27179520               -0.00739815               -0.43258397                0.25949900                0.37282360               -0.19942443                0.16072645
               8.99415333                5.02240750               93.22945225                0.39677672                0.03259724               -0.37811347                0.24063205                0.16926110               -0.09592273                0.17897568
               9.99459006                5.02201229               93.23053147                0.73776748                0.04367266               -0.29405489                0.22671395                0.05027813               -0.04740725                0.24851414
               0.01405666                5.99901248               93.19819273                0.69980274               -0.06198460               -0.16324245                0.19392732                0.01972045                0.01794838               -0.13007010
               1.01343681                5.99847136               93.19944393                0.21524380               -0.04767157               -0.02033004                0.28369288                0.17200947                0.27491471                0.03479248
               2.01310323                6.00098448               93.20579243                0.01422698               -0.25364007               -0.08663227                0.46010635                0.13876145                0.64992351               -0.01297187
               3.00836401                6.00182753               93.21468934                0.01501560               -0.59453201               -0.08080727                0.57701791                0.33804970                1.11790322                0.29256915
               4.00121259                6.00448196               93.22824808                0.03505289               -0.48671967               -0.32410528                0.46595460                0.67615481                0.86110652               -0.17162526
               4.99862962                6.00933716               93.23190092                0.10305721               -0.21369467               -0.15282222                0.27679917                0.55690015                0.06141581               -0.19216356
               5.99693869                6.01296150               93.23208142                0.17856545               -0.14678772               -0.14651726                0.30093552                0.42678945               -0.16130248               -0.16230812
               6.99569386                6.01565554               93.23192565                0.25905068               -0.09713844               -0.19569867                0.28659550                0.33188066               -0.18081281               -0.08110050
               7.99499592                6.01779716               93.23177709                0.34507755               -0.04438806               -0.24218555                0.26083249                0.24231571               -0.14830156               -0.03929566
               8.99480610                6.01924041               93.23210092                0.45413531               -0.01388857               -0.25511788                0.23589335                0.11802065               -0.07840704               -0.01130940
               9.99471815                6.01964910               93.23343769                0.76342934               -0.00879488               -0.19554503                0.22674805                0.02213598               -0.03826634                0.01068449
               0.01397298                6.99748542               93.19774331                0.73781316               -0.06132276               -0.13501947                0.18178731                0.00587583                0.01880965               -0.15421435
               1.01335975                6.99822685               93.19991627                0.31239163               -0.07576609               -0.03542308                0.28232167                0.06945899                0.21363002                0.02138630
               2.01245766                7.00021547               93.20591554                0.10614835               -0.04762870               -0.07948741                0.46563110                0.04915145                0.82871029                0.04281924
               3.01240718                7.00106425               93.22020277                0.08941394               -0.32494628               -0.03023209                0.25413238                0.21067873                1.07574233                0.11856063
               4.00595873                7.00262642               93.22672564                0.10815660               -0.61912068               -0.03569919                0.23167658                0.61665766                0.55590231               -0.26149314
               5.00002476                7.00827339               93.23072778                0.17927150               -0.41877303               -0.07134544                0.27330801                0.55909492                0.15239164               -0.27066434
               5.99758327                7.01171917               93.23185787                0.25904070               -0.19607555               -0.09697729                0.28683743                0.33218273               -0.08040549               -0.18182994
               6.99610325                7.01417829               93.23218872                0.34686045               -0.11918577               -0.11897549                0.27178019                0.22228608               -0.13666017               -0.13742982
               7.99519956                7.01599087               93.23241409                0.43757550               -0.07207260               -0.14437528                0.25112716                0.14580768               -0.12376174               -0.11351678
               8.99466180                7.01730514               93.23301109                0.55107569               -0.04920782               -0.15373570                0.23275799                0.06834323               -0.06768539               -0.09953623
               9.99421540                7.01810139               93.23440778                0.81552990               -0.04464019               -0.12626667                0.23039420                0.01536721               -0.03078688               -0.09937943
               0.01269133                7.99631209               93.19719814                0.77085588               -0.05953864               -0.09773278                0.17456213               -0.00799506                0.02110428               -0.15035590
               1.01209594                7.99776290               93.20030701                0.40927311               -0.07212354               -0.05649476                0.26823766               -0.00068670                0.18445902                0.01381178
               2.01124886                7.99939473               93.20662711                0.25575838               -0.09646515               -0.08014979                0.42636876                0.00335020                0.60968820                0.07709121
               3.01016664                8.00122289               93.21818307                0.22230697               -0.24561285                0.00238930                0.22111539               -0.04064972                0.58560333               -0.18868037
               4.00633660                8.00376798               93.22483748                0.20713954               -0.47239324                0.09422728                0.25506448                0.26827565                0.32586675               -0.19715933
               5.00071877                8.00791025               93.22967431                0.27179091               -0.43295782               -0.00744730                0.26003485                0.37351069                0.16056434               -0.20018373
               5.99767744                8.01102196               93.23164213                0.34501149               -0.24254429               -0.04436641                0.26124539                0.24272901               -0.03902007               -0.14913243
               6.99586789                8.01327603               93.23234670                0.43758411               -0.14461049               -0.07199396                0.25132713                0.14597463               -0.11306867               -0.12446769
               7.99478523                8.01490965               93.23274004                0.53789332               -0.09027208               -0.09018284                0.23857761                0.08423025               -0.11259971               -0.11306057
               8.99406244                8.01616570               93.23339867                0.66534838               -0.06761156               -0.09685434                0.22811420                0.03743620               -0.06348729               -0.10783685
               9.99343300                8.01712377               93.23476894                0.87816298               -0.06294433               -0.08540692                0.23055520                0.01038275               -0.02764109               -0.11273422
               0.01091145                8.99553077               93.19676808                0.81066314               -0.06480770               -0.06649884                0.17467273               -0.01299443                0.02963909               -0.10740080
               1.01026338                8.99709695               93.20075803                0.52644882               -0.09233898               -0.06718146                0.24929765               -0.02098624                0.17151253                0.01636837
               2.00906467                8.99861248               93.20758699                0.46037790               -0.15212209               -0.06670561                0.34050907               -0.01819595                0.41051859                0.06255820
               3.00722093                9.00111203               93.21654852                0.42902144               -0.22138943               -0.00820256                0.25272954               -0.00711424                0.41361105               -0.08551052
               4.00463688                9.00451097               93.22333495                0.35689802               -0.34899660                0.05327736                0.25792232                0.09914708                0.28969466               -0.11110715
               5.00024100                9.00812444               93.22918804                0.39677259               -0.37824070                0.03247247                0.24107496                0.16963180                0.17857783               -0.09628501
               5.99707207                9.01083184               93.23190137                0.45411798               -0.25529768               -0.01396482                0.23629687                0.11827791               -0.01141645               -0.07884142
               6.99513505                9.01273842               93.23287752                0.55099322               -0.15387900               -0.04924527                0.23304751                0.06851144               -0.09949972               -0.06811491
               7.99399449                9.01418721               93.23333177                0.66532135               -0.09693205               -0.06762139                0.22827210                0.03749718               -0.10772247               -0.06379488
               8.99319641                9.01536805               93.23399583                0.81281128               -0.07437894               -0.07436821                0.22380636                0.01592723               -0.06179354               -0.06191065
               9.99250691                9.01639325               93.23533310                0.95906478               -0.06894953               -0.07119449                0.22884382                0.00494346               -0.02680119               -0.06483385
               0.00929907                9.99498211               93.19697212                0.92022305               -0.07045649               -0.05486534                0.17279564               -0.01752256               -0.00904732               -0.07259010
               1.00859450                9.99641927               93.20125655                0.80062653               -0.12146065               -0.06776783                0.24132363               -0.01296205                0.10831967                0.02228236
               2.00686985                9.99806062               93.20784461                0.79712672               -0.22343208               -0.05518596                0.33604432                0.01249638                0.34304179                0.03797430
               3.00412586               10.00105884               93.21659306                0.78672297               -0.27813622               -0.00531942                0.25530257                0.02913810                0.44666691               -0.01627859
               4.00130713               10.00483353               93.22377476                0.72888131               -0.31676619                0.03225581                0.24915957                0.04206753                0.38666815               -0.03929371
               4.99779054               10.00855970               93.23020751                0.73776836               -0.29390513                0.04352563                0.22694609                0.05041012                0.24824785               -0.04749900
               5.99542903               10.01074266               93.23317803                0.76340426               -0.19538963               -0.00891801                0.22698500                0.02226693                0.01033879               -0.03840768
               6.99388274               10.01229112               93.23421209                0.81550999               -0.12617451               -0.04472908                0.23063024                0.01549790               -0.09979564               -0.03097130
               7.99290554               10.01355723               93.23463771                0.87813666               -0.08538982               -0.06299844                0.23076588                0.01046518               -0.11313129               -0.02779590
               8.99217495               10.01467834               93.23526661                0.95901482               -0.07120300               -0.06897182                0.22898324                0.00498687               -0.06512088               -0.02688795
               9.99148148               10.01569988               93.23658619                0.99941903               -0.06934711               -0.06933692                0.23467183               -0.00038894               -0.02765336               -0.02746069
              -0.00045186                0.00330360               94.19633021                0.76474356               -0.02463615               -0.02462129                0.16426405                0.01828403                0.00950539                0.00954574
               0.99930178                0.00442167               94.19690107                0.52222867                0.02716423               -0.08215426                0.17588247                0.10156031                0.04915645                0.00360678
               2.00009143                0.00835542               94.19818597                0.51614314                0.00996836               -0.03538280                0.19553194                0.03020942                0.08655553                0.00400662
               2.99950115                0.01483684               94.19952139                0.55548931               -0.10725957               -0.04935197                0.20480142                0.03922582                0.04067535                0.01602656
               3.99794624                0.02113810               94.20037648                0.60990963               -0.17296850               -0.05577280                0.20158749                0.04022153               -0.03742151                0.02015433
               4.99604178                0.02588935               94.20064885                0.66153863               -0.18712483               -0.05966482                0.18799791                0.03305547               -0.10777431                0.02095232
               5.99420374                0.02864898               94.20042288                0.69946098               -0.16808658               -0.05889177                0.17161224                0.01592048               -0.14994331                0.02281987
               6.99268005                0.02964639               94.19991536                0.72197382               -0.13127160               -0.05665416                0.16234531               -0.00621846               -0.15670825                0.02617740
               7.99157831                0.02953005               94.19939031                0.73775493               -0.09046112               -0.05680411                0.16281086               -0.02244232               -0.13564069                0.02844480
               8.99087083                0.02909064               94.19906520                0.75958000               -0.06118262               -0.06472178                0.17099982               -0.02196951               -0.08849073                0.03399382
               9.99035466                0.02893760               94.19931504                0.88822231               -0.05161692               -0.06751504                0.16971785               -0.01980511               -0.05709302                0.00870002
              -0.00138708                1.00305739               94.19683732                0.52239666               -0.08214448                0.02715505                0.17586325                0.10148274                0.00359218                0.04920257
               0.99779147                1.00360012               94.19732865                0.01731750               -0.17134912               -0.17130302                0.18787618                0.28904940                0.03007409                0.03008076
               1.99518594                1.00800160               94.19836333                0.01138459               -0.21447028               -0.09112116                0.21633692                0.46780571                0.05974470                0.13589983
               2.99350207                1.01434332               94.19970787                0.01000000               -0.11818701               -0.17071591                0.24897650                0.50425733                0.07918001                0.38275502
               3.99282220                1.02058038               94.20092816                0.07016903               -0.04425860                0.14409713                0.27664471                0.38734607                0.07799452                0.60630733
               4.99261690                1.02529270               94.20193822                0.18201131               -0.01688851                0.01963754                0.29810508                0.27132108                0.06550832                0.41255158
               5.99248443                1.02806006               94.20271231                0.29565726               -0.02197839               -0.05073742                0.30532210                0.12649857                0.03697109                0.31532322
               6.99217733                1.02907985               94.20319976                0.38608618               -0.04263319               -0.06445776                0.29138282                0.01443090                0.00099397                0.25765272
               7.99163176                1.02896201               94.20345047                0.44857487               -0.06149865               -0.07148662                0.26467038               -0.04756380               -0.01607251                0.21210798
               8.99094736                1.02844342               94.20372128                0.51396050               -0.06610589               -0.09460202                0.23829413               -0.04558329               -0.00537345                0.17872439
               9.99030965                1.02826245               94.20416796                0.77830102               -0.06377112               -0.11085743                0.22521644               -0.02647345                0.00720361                0.13589854
               0.00049233                2.00384670               94.19805847                0.51609107               -0.03537648                0.00997692                0.19549170                0.03023767                0.00399650                0.08660436
               1.00013856                2.00099561               94.19829958                0.01149930               -0.08939900               -0.21443244                0.21631539                0.46605759                0.13588877                0.05980207
               1.99870435                2.00653300               94.20111445                0.01000000               -0.15655225               -0.15720850                0.24586960                0.83796398                0.41555460                0.41343399
               2.99700752                2.01142252               94.20721698                0.01000000               -0.19802862               -0.35869150                0.59334630                1.06199346                0.53327397                0.67886818
               3.99474378                2.02402005               94.21320597                0.01859063               -0.15095011               -0.01207552                0.30871846                0.82600190                0.17645675                0.77481486
               4.99398852                2.02628210               94.21100993                0.01000000               -0.08986042               -0.24839843                0.43250266                0.22809988               -0.17266373                0.77416556
               5.99294657                2.02763423               94.21075029                0.10143747               -0.09608977               -0.03094039                0.45947264                0.04724284               -0.05350761                0.84387008
               6.99206672                2.02835724               94.21102368                0.24055891               -0.08415520               -0.07159218                0.43639072               -0.02720620               -0.03149783                0.67378632
               7.99126346                2.02810032               94.21115345                0.36190479               -0.07040000               -0.11340643                0.37178636               -0.08044866               -0.02474950                0.48392752
               8.99065872                2.02719860               94.21126701                0.49358434               -0.05381656               -0.14641159                0.30398628               -0.06312780               -0.00300087                0.35602843
               9.99018713                2.02672045               94.21149675                0.78965378               -0.04715884               -0.18125546                0.29829285               -0.01993734                0.00560026                0.31798034
               0.00491986                3.00325693               94.19933042                0.55556614               -0.04935372               -0.10719886                0.20477834                0.03922944                0.01603407                0.04073174
               1.00442633                2.99931148               94.19958075                0.01000000               -0.17007814               -0.11821357                0.24897812                0.50360075                0.38204863                0.07923918
               2.00151830                3.00485743               94.20713940                0.01000000               -0.35857167               -0.19633958                0.59123408                1.05985861                0.67569114                0.53296763
               2.99725489                3.00716949               94.21240175                0.01029587               -0.35178240               -0.35126628                0.49468245                1.34282019                0.51353785                0.51436314
               3.99448265                3.02033886               94.21708149                0.01000000               -0.18450920               -0.76583034                0.54505110                0.75730717                0.40458945                0.47358571
               4.99356471                3.02032474               94.22023209                0.01922623               -0.15642516               -0.59420015                0.71123521                0.24277815                0.24068059                0.97002981
               5.99135415                3.02744125               94.22378289                0.06963261               -0.11987952               -0.40805433                0.57130846                0.19882999                0.06479027                1.01186036
               6.99116712                3.02764801               94.22252626                0.17950970               -0.00863612               -0.27865767                0.20704905               -0.11162645               -0.16065395                0.57248234
               7.99118143                3.02669388               94.22075879                0.29757628               -0.00512262               -0.22906547                0.22488638               -0.09182860               -0.17257515                0.43017405
               8.99106467                3.02551519               94.21944426                0.44588259               -0.01571173               -0.19749696                0.24725989               -0.03738717               -0.08497034                0.34114404
               9.99086719                3.02463734               94.21954415                0.77299531               -0.01974735               -0.21706073                0.24929473                0.00465113               -0.03077653                0.36656998
               0.00916782                4.00170273               94.20012187                0.60986338               -0.05577411               -0.17292858                0.20156098                0.04019610                0.02014318               -0.03737450
               1.00861008                3.99863134               94.20073735                0.07019023                0.14378430               -0.04426972                0.27664090                0.38735768                0.60573902                0.07802339
               2.01204351                4.00260621               94.21306778                0.01861135               -0.01137974               -0.15034258                0.30820440                0.82535221                0.77381996                0.17731402
               3.00838248                4.00439720               94.21701857                0.01000000               -0.76544159               -0.18448366                0.54452199                0.75730456                0.47360992                0.40457545
               3.99673467                4.00870344               94.22236828                0.01000000               -0.83203968               -0.83154903                0.71403617                0.79515937                0.39705371                0.39727695
               4.99174169                4.01439810               94.23016892                0.02698883               -0.35673885               -0.56062607                0.56487291                0.61454532                0.07368905                0.73130666
               5.98959990                4.01947314               94.23121509                0.09690944               -0.05800622               -0.68547837                0.27147044                0.52746655               -0.15940987                0.59523183
               6.99058157                4.02278408               94.22950213                0.17807272                0.09799062               -0.53740404                0.25927824                0.28493687               -0.17191075                0.34007308
               7.99155971                4.02351901               94.22769373                0.26511327                0.06929757               -0.39368738                0.25649095                0.10195953               -0.19262501                0.25584387
               8.99196752                4.02324866               94.22624793                0.37775946                0.02380721               -0.28623928                0.25697777                0.03517588               -0.11670668                0.25084752
               9.99203585                4.02237924               94.22664193                0.72722151                0.00683359               -0.24899148                0.24953377                0.02254744               -0.05233367                0.32835932
               0.01186657                4.99979836               94.20033009                0.66148320               -0.05965699               -0.18710984                0.18795781                0.03306700                0.02095324               -0.10774618
               1.01127000                4.99842608               94.20168327                0.18207833                0.01964594               -0.01687855                0.29809653                0.27135081                0.41253427                0.06552424
               2.01225949                5.00185057               94.21081841                0.01000000               -0.24831204               -0.08988566                0.43231131                0.22843748                0.77428821               -0.17195645
               3.00630376                5.00347982               94.22010662                0.01925264               -0.59372740               -0.15617895                0.71110812                0.24220862                0.96983273                0.24058216
               4.00038494                5.00370788               94.23010474                0.02700402               -0.56089223               -0.35646296                0.56506048                0.61470192                0.73132911                0.07354395
               4.99508591                5.00911221               94.23539489                0.09211051               -0.34337192               -0.34258708                0.33493069                0.79675556                0.07798284                0.07769449
               5.99351750                5.01373169               94.23474906                0.16441258               -0.11329587               -0.40331922                0.27988023                0.67558617               -0.23182312                0.09364190
               6.99281999                5.01689993               94.23365484                0.24136692               -0.03807279               -0.43430118                0.27784782                0.42859196               -0.23218257                0.11210638
               7.99275604                5.01882013               94.23251313                0.31764582                0.00439814               -0.37683768                0.26130555                0.23946077               -0.19632982                0.10874849
               8.99290796                5.01979040               94.23187733                0.40908307                0.01504725               -0.30247046                0.24188235                0.10404918               -0.10741322                0.13544703
               9.99305699                5.01965751               94.23279636                0.73528799                0.01490316               -0.23469232                0.22832391                0.03477536               -0.06075640                0.20009633
               0.01257371                5.99796053               94.20004001                0.69943619               -0.05888328               -0.16806464                0.17155449                0.01593099                0.02281570               -0.14992212
               1.01198487                5.99829376               94.20239318                0.29564165               -0.05075941               -0.02196801                0.30530686                0.12650610                0.31533680                0.03699316
               2.01155852                6.00080850               94.21049525                0.10151479               -0.03077641               -0.09607492                0.45951389                0.04746179                0.84387250               -0.05346319
               3.01136935                6.00127362               94.22359058                0.06963740               -0.40811023               -0.11974933                0.57133278                0.19907678                1.01164711                0.06460967
               4.00339631                6.00157418               94.23108540                0.09692885               -0.68581735               -0.05759596                0.27166106                0.52721849                0.59539319               -0.15990919
               4.99765300                6.00754636               94.23468278                0.16438081               -0.40362029               -0.11309582                0.28005430                0.67582834                0.09406385               -0.23248859
               5.99532391                6.01140676               94.23515893                0.23681048               -0.17940200               -0.17912793                0.30513434                0.44994016               -0.14635052               -0.14694763
               6.99406496                6.01409806               94.23484195                0.31144819               -0.09327310               -0.21747149                0.28730103                0.30851680               -0.19079753               -0.10076582
               7.99345845                6.01598225               94.23441205                0.38243493               -0.04269183               -0.22657915                0.26024442                0.19360983               -0.16668271               -0.07224705
               8.99321112                6.01719925               94.23446459                0.46723868               -0.02306500               -0.21150605                0.23512436                0.08800655               -0.09306689               -0.04132305
               9.99299715                6.01768539               94.23568298                0.76376574               -0.02139761               -0.16502658                0.22407331                0.01956637               -0.04988534               -0.01249255
               0.01151871                6.99643706               94.19946854                0.72190512               -0.05665643               -0.13127107                0.16231101               -0.00622874                0.02616096               -0.15671195
               1.01095215                6.99798672               94.20281660                0.38604644               -0.06449233               -0.04262563                0.29139251                0.01444954                0.25762206                0.00103362
               2.01022887                6.99992908               94.21070395                0.24055336               -0.07162713               -0.08411435                0.43635710               -0.02699444                0.67371443               -0.03145635
               3.00951961                7.00108483               94.22226973                0.17952982               -0.27861513               -0.00871560                0.20711874               -0.11140872                0.57218749               -0.16083979
               4.00465657                7.00255597               94.22930752                0.17807800               -0.53748548                0.09798874                0.25951383                0.28542866                0.33976416               -0.17226478
               4.99876990                7.00685030               94.23352331                0.24135869               -0.43459820               -0.03796657                0.27811403                0.42894006                0.11221369               -0.23275900
               5.99596460                7.01014913               94.23477591                0.31144629               -0.21775313               -0.09317259                0.28744477                0.30873624               -0.10037852               -0.19138943
               6.99441484                7.01255050               94.23494168                0.38970491               -0.12187760               -0.12170476                0.27193478                0.20885686               -0.16166287               -0.16214559
               7.99352705                7.01428855               94.23494394                0.46436154               -0.07249417               -0.13596994                0.25067530                0.13135734               -0.14735840               -0.13968374
               8.99296495                7.01556028               94.23533526                0.55440774               -0.05255070               -0.13374993                0.23082727                0.06100138               -0.08325041               -0.12123286
               9.99247604                7.01635698               94.23667807                0.81040068               -0.04889168               -0.11079934                0.22447369                0.01649394               -0.04119672               -0.11293049
               0.00934982                7.99533511               94.19887924                0.73777344               -0.05679643               -0.09047648                0.16278209               -0.02243870                0.02845033               -0.13566656
               1.00878185                7.99744125               94.20300365                0.44865603               -0.07146471               -0.06149219                0.26467817               -0.04752628                0.21209517               -0.01603008
               2.00792052                7.99912621               94.21077062                0.36191206               -0.11337838               -0.07036937                0.37174268               -0.08023587                0.48377014               -0.02471325
               3.00651428                8.00109930               94.22043759                0.29756689               -0.22905505               -0.00512481                0.22496117               -0.09145462                0.42981998               -0.17273364
               4.00333942                8.00353395               94.22743415                0.26508466               -0.39378226                0.06926214                0.25673075                0.10236996                0.25544250               -0.19292759
               4.99863864                8.00678703               94.23231630                0.31763102               -0.37704921                0.00440762                0.26162558                0.23983527                0.10863733               -0.19681061
               5.99579844                8.00954331               94.23428056                0.38239529               -0.22679813               -0.04265664                0.26049996                0.19386737               -0.07211717               -0.16720931
               6.99410268                8.01166396               94.23487787                0.46430331               -0.13613144               -0.07242470                0.25080783                0.13146925               -0.13942118               -0.14782202
               7.99307581                8.01326286               94.23513570                0.54645092               -0.08699773               -0.08692254                0.23808888                0.08105608               -0.13444169               -0.13475029
               8.99236272                8.01452425               94.23567420                0.64628268               -0.06710869               -0.09025814                0.22612534                0.03800229               -0.07744999               -0.12514951
               9.99173363                8.01546940               94.23704329                0.85989128               -0.06290878               -0.07900050                0.22446251                0.01287871               -0.03637321               -0.12475359
               0.00685765                8.99462753               94.19848998                0.75965966               -0.06471291               -0.06118478                0.17097086               -0.02196957                0.03399111               -0.08850660
               1.00621052                8.99675688               94.20321049                0.51399752               -0.09457770               -0.06609878                0.23828246               -0.04555618                0.17864150               -0.00535555
               2.00496610                8.99852169               94.21081911                0.49357002               -0.14638763               -0.05379614                0.30395631               -0.06304522                0.35580718               -0.00304192
               3.00328277                9.00098233               94.21905849                0.44588490               -0.19749275               -0.01573343                0.24738262               -0.03722879                0.34082037               -0.08503649
               4.00101624                9.00394121               94.22592431                0.37774436               -0.28627598                0.02375386                0.25717568                0.03540654                0.25050807               -0.11685243
               4.99755725                9.00693845               94.23161659                0.40910174               -0.30256153                0.01497928                0.24216325                0.10430048                0.13520824               -0.10765416
               5.99496501                9.00929599               94.23426829                0.46718606               -0.21162883               -0.02309764                0.23539599                0.08819024               -0.04139818               -0.09339060
               6.99332467                9.01110200               94.23520418                0.55442999               -0.13385638               -0.05257326                0.23102809                0.06111020               -0.12121397               -0.08352680
               7.99228788                9.01255010               94.23560857                0.64623702               -0.09031115               -0.06711321                0.22623257                0.03804257               -0.12507825               -0.07765334
               8.99151845                9.01375512               94.23621804                0.75786635               -0.07222893               -0.07222090                0.22052197                0.01776820               -0.07313542               -0.07321878
               9.99084331                9.01477697               94.23758578                0.91978694               -0.06751450               -0.06781822                0.22203801                0.00686535               -0.03385007               -0.07403581
               0.00465174                9.99411141               94.19867561                0.88829016               -0.06751644               -0.05161214                0.16967210               -0.01980514                0.00865660               -0.05711313
               1.00397657                9.99611928               94.20359284                0.77833169               -0.11087879               -0.06376011                0.22518805               -0.02645137                0.13575637                0.00721286
               2.00243416                9.99805029               94.21098404                0.78965824               -0.18131910               -0.04714027                0.29828720               -0.01992577                0.31780912                0.00556990
               3.00035019               10.00078464               94.21909478                0.77302008               -0.21713624               -0.01976980                0.24938462                0.00467920                0.36646715               -0.03076470
               3.99809144               10.00400903               94.22625576                0.72724448               -0.24901641                0.00678242                0.24963723                0.02261807                0.32826875               -0.05236013
               4.99536986               10.00708661               94.23247422                0.73530120               -0.23463727                0.01481623                0.22847053                0.03487721                0.19996176               -0.06081642
               5.99339869               10.00908136               94.23542495                0.76376904               -0.16495422               -0.02146397                0.22422768                0.01966207               -0.01267184               -0.05001368
               6.99207078               10.01061250               94.23648461                0.81037845               -0.11075742               -0.04895030                0.22462531                0.01657206               -0.11317128               -0.04130898
               7.99118354               10.01192059               94.23691391                0.85989600               -0.07897809               -0.06295071                0.22459817                0.01293237               -0.12503224               -0.03646350
               8.99049121               10.01307983               94.23752033                0.91978531               -0.06781492               -0.06752866                0.22212933                0.00689877               -0.07423974               -0.03391762
               9.98982724               10.01411304               94.23887955                0.98175423               -0.06639722               -0.06639301                0.22470933                0.00171423               -0.03385995               -0.03373498
              -0.00097092                0.00284860               95.19791214                0.75334018               -0.02074853               -0.02074252                0.14917109                0.02285097                0.01190427                0.01188211
               0.99882159                0.00398952               95.19862539                0.51412572                0.02674546               -0.08242009                0.16795866                0.11210756                0.05452493                0.00744031
               1.99956399                0.00814879               95.20011813                0.51891528               -0.00609449               -0.03244941                0.18980216                0.03409594                0.07857967                0.01086591
               2.99869970                0.01462849               95.20152819                0.56397778               -0.13348055               -0.04920550                0.19514246                0.04906031                0.01392095                0.02215629
               3.99689437                0.02044749               95.20232303                0.62042396               -0.19218011               -0.05627823                0.18392415                0.04746099               -0.07474737                0.02387365
               4.99485610                0.02429587               95.20241603                0.66489409               -0.19198043               -0.05552275                0.16175703                0.03077155               -0.13950292                0.02665260
               5.99305477                0.02594582               95.20200701                0.68593369               -0.15824826               -0.05184236                0.14780468               -0.00025145               -0.15757225                0.03388309
               6.99169113                0.02599179               95.20143655                0.68999197               -0.11490986               -0.05233959                0.14767632               -0.02724297               -0.13767992                0.03687506
               7.99075657                0.02525620               95.20096500                0.69117793               -0.07738897               -0.05650664                0.15718207               -0.03538088               -0.10052194                0.03607069
               8.99014335                0.02444791               95.20076309                0.70061378               -0.05545086               -0.06432594                0.17138733               -0.02505190               -0.05591926                0.03838273
               9.98964755                0.02398844               95.20100572                0.85431749               -0.04958030               -0.06366072                0.17141086               -0.01823207               -0.03281302                0.02968020
              -0.00188333                1.00264118               95.19856108                0.51409365               -0.08240974                0.02673606                0.16793608                0.11205253                0.00744665                0.05452214
               0.99729258                1.00316532               95.19920369                0.01819845               -0.17656073               -0.17652320                0.18841249                0.31293888                0.04424091                0.04425814
               1.99458546                1.00782429               95.20057176                0.01131315               -0.21258119               -0.10135055                0.22820176                0.48153233                0.09308331                0.13622201
               2.99304095                1.01413643               95.20228061                0.01718376               -0.10250818               -0.12025112                0.26756822                0.45100919                0.11985693                0.58468715
               3.99253529                1.01988471               95.20380573                0.14114461               -0.03131499                0.10642217                0.30230844                0.35415246                0.11542513                0.56471375
               4.99241465                1.02374064               95.20505721                0.28975892               -0.01655034               -0.00541980                0.32319841                0.19202929                0.08175245                0.41167576
               5.99220429                1.02542739               95.20586890                0.40531830               -0.03255708               -0.05120277                0.31200038                0.03880201                0.01886956                0.31461153
               6.99176351                1.02546840               95.20612681                0.45810642               -0.05147943               -0.06608980                0.27921397               -0.05215915               -0.03560373                0.24555484
               7.99117470                1.02469114               95.20604758                0.46769778               -0.06183971               -0.07605630                0.24697606               -0.07811148               -0.04910836                0.20098338
               8.99052672                1.02380465               95.20603505                0.48405866               -0.06249980               -0.09087717                0.22333316               -0.05359379               -0.02624717                0.17959709
               9.98992470                1.02335183               95.20633611                0.75157742               -0.06020124               -0.09567581                0.21088576               -0.03192256               -0.00888304                0.16643841
               0.00022185                2.00338333               95.19999005                0.51893557               -0.03245968               -0.00608370                0.18978576                0.03412225                0.01088582                0.07866815
               0.99989726                2.00045905               95.20050773                0.01130093               -0.09991695               -0.21254615                0.22820029                0.48007268                0.13623602                0.09310554
               1.99822351                2.00612177               95.20349199                0.01000000               -0.21188938               -0.21180613                0.28869320                0.96794263                0.60174683                0.60148457
               2.99565947                2.01222347               95.21430764                0.01846717               -0.19251482               -0.22677731                0.68092867                1.15055537                0.50488761                1.07277063
               3.99437322                2.02257593               95.21607932                0.01000000               -0.12527336               -0.24938355                0.30841983                0.79770520               -0.02241902                0.66777128
               4.99315400                2.02418747               95.21525573                0.10222334               -0.11350845               -0.02020324                0.40475677                0.04344466               -0.13807173                0.82535273
               5.99210305                2.02492176               95.21523714                0.25910937               -0.08848974               -0.06410035                0.39234821               -0.03730688               -0.09350977                0.65662377
               6.99138421                2.02467000               95.21496111                0.37537291               -0.06224830               -0.10148370                0.34102509               -0.09654480               -0.09584401                0.48339655
               7.99085808                2.02373508               95.21444596                0.43702646               -0.04867125               -0.11735511                0.29659348               -0.11080720               -0.07782544                0.36975829
               8.99041078                2.02263037               95.21411454                0.50352478               -0.04716702               -0.12874896                0.27383585               -0.07069967               -0.03502521                0.31631327
               9.98991474                2.02207492               95.21432261                0.77874031               -0.04960392               -0.14084580                0.27940734               -0.03229036               -0.01651415                0.31443363
               0.00464766                3.00251950               95.20133713                0.56403138               -0.04920830               -0.13341173                0.19511544                0.04904979                0.02215311                0.01399650
               1.00415558                2.99891439               95.20215344                0.01707069               -0.12338830               -0.10252127                0.26754679                0.45108630                0.58251413                0.11990770
               2.00217990                3.00358817               95.21420081                0.01844677               -0.22788399               -0.19105890                0.68178989                1.15001071                1.07224171                0.50535955
               2.99959790                3.00960089               95.21738509                0.01594644               -0.28272515               -0.28611630                0.40500028                0.92519769                0.30287152                0.30203997
               3.99652539                3.01489704               95.22151867                0.01197004               -0.43300907               -0.80740553                0.67190649                0.68775430                0.28031206                0.66296104
               4.99093772                3.02333658               95.22736571                0.06621429               -0.27748847               -0.54077389                0.48851299                0.29605077                0.10145691                0.95901018
               5.99097562                3.02414538               95.22630810                0.17407234                0.00407894               -0.33773584                0.22883689               -0.09778015               -0.15617151                0.51440455
               6.99101930                3.02343872               95.22460097                0.27444579                0.00112792               -0.24885314                0.20832075               -0.11947458               -0.17593155                0.39250721
               7.99099818                3.02234403               95.22300265                0.35218948               -0.01232113               -0.19618505                0.22255041               -0.09053732               -0.15766544                0.32425191
               8.99077287                3.02122968               95.22188088                0.44270179               -0.03041972               -0.16219033                0.24260515               -0.04518213               -0.08706790                0.28941192
               9.99038979                3.02053492               95.22202934                0.75513702               -0.03830864               -0.16148728                0.25301372               -0.01083784               -0.04496085                0.32156865
               0.00841307                4.00071509               95.20206806                0.62044839               -0.05627546               -0.19211493                0.18389632                0.04742308                0.02385863               -0.07471383
               1.00785032                3.99840863               95.20361452                0.14099890                0.10620801               -0.03131452                0.30224048                0.35419287                0.56444530                0.11544575
               2.01053723                4.00230060               95.21594681                0.01000000               -0.24978820               -0.12533223                0.30907069                0.80068126                0.66757434               -0.02027257
               3.00285455                4.00650114               95.22144268                0.01197155               -0.80723086               -0.43404310                0.67187220                0.68916574                0.66218507                0.28034371
               3.99439262                4.00642782               95.23301566                0.03293043               -0.65139425               -0.65173729                0.75840639                0.48145167                0.54272295                0.54237434
               4.98982667                4.01337199               95.23533743                0.10927499               -0.21736592               -0.74833575                0.37480285                0.75415686                0.01840030                0.41313615
               5.99004530                4.01816704               95.23381012                0.18850726                0.04846982               -0.57834357                0.26120223                0.39073819               -0.09432675                0.33567300
               6.99079606                4.01969294               95.23210904                0.25752361                0.06055436               -0.42220730                0.25369387                0.12593085               -0.16136114                0.23716103
               7.99125638                4.01981138               95.23022971                0.31449553                0.02600948               -0.30264034                0.24772704                0.02422400               -0.20106829                0.21018623
               8.99131625                4.01938656               95.22880037                0.38586420               -0.00844420               -0.21649505                0.25375746               -0.00086158               -0.12756285                0.22464021
               9.99108750                4.01884518               95.22915271                0.72065166               -0.02287544               -0.17808779                0.25634089                0.00321611               -0.07086680                0.29125155
               0.01020905                4.99867721               95.20209709                0.66481596               -0.05551199               -0.19197528                0.16175530                0.03076803                0.02665540               -0.13949396
               1.00965393                4.99828810               95.20480219                0.28980804               -0.00540213               -0.01653657                0.32316480                0.19211565                0.41156482                0.08179164
               2.01010101                5.00108152               95.21506252                0.10228311               -0.01999712               -0.11354641                0.40472178                0.04389833                0.82528979               -0.13769358
               3.00925399                5.00092003               95.22723801                0.06620622               -0.54087170               -0.27722639                0.48837511                0.29665076                0.95896713                0.10214373
               3.99928357                5.00186229               95.23527368                0.10928423               -0.74861766               -0.21734124                0.37483334                0.75427347                0.41261249                0.01858394
               4.99428164                5.00836986               95.23784745                0.17826368               -0.34070635               -0.34065162                0.25242851                0.86634607                0.04958749                0.04941097
               5.99246945                5.01257851               95.23756651                0.24649152               -0.11940268               -0.40856717                0.27851585                0.52159679               -0.14821615                0.07560608
               6.99189358                5.01499458               95.23641956                0.30673329               -0.03402067               -0.36697755                0.26896156                0.27707217               -0.20141619                0.05867936
               7.99178903                5.01629123               95.23510116                0.35412969               -0.00858710               -0.29449880                0.25282137                0.13442185               -0.20044405                0.06530174
               8.99172184                5.01689977               95.23428989                0.41048914               -0.01260766               -0.22152689                0.24057764                0.05197530               -0.12253349                0.10202846
               9.99153688                5.01697316               95.23509795                0.72786038               -0.01849594               -0.16638181                0.23461674                0.01714712               -0.07654333                0.15902483
               0.00980664                5.99687559               95.20162382                0.68595387               -0.05183272               -0.15826270                0.14779662               -0.00021714                0.03391594               -0.15757723
               1.00928831                5.99807790               95.20555006                0.40541003               -0.05116822               -0.03255265                0.31200073                0.03884662                0.31463408                0.01890980
               2.00878328                6.00002967               95.21498271                0.25917804               -0.06407555               -0.08852758                0.39230518               -0.03717393                0.65654098               -0.09330270
               3.00800680                6.00095661               95.22611600                0.17411519               -0.33775128                0.00402083                0.22885873               -0.09776503                0.51409371               -0.15630755
               4.00202825                6.00208100               95.23368130                0.18852909               -0.57847170                0.04850443                0.26126698                0.39096027                0.33572727               -0.09456121
               4.99643737                6.00655896               95.23750201                0.24651708               -0.40878673               -0.11925851                0.27861434                0.52168583                0.07574185               -0.14849380
               5.99385252                6.00999570               95.23818411                0.30589248               -0.19062867               -0.19043857                0.28996725                0.37411537               -0.13497909               -0.13527725
               6.99262479                6.01235338               95.23767167                0.36521238               -0.09064454               -0.20475583                0.27251621                0.23670405               -0.19674234               -0.12200047
               7.99203962                6.01392140               95.23698198                0.41380464               -0.04754842               -0.19088462                0.25133974                0.13362116               -0.18260845               -0.09804614
               8.99167383                6.01495603               95.23680340                0.47037538               -0.03779787               -0.16144462                0.23288456                0.05684871               -0.10768614               -0.06360815
               9.99128367                6.01551754               95.23791916                0.75815682               -0.03901586               -0.12453460                0.22523802                0.01459992               -0.06251483               -0.03437866
               0.00780009                6.99551195               95.20098953                0.68995143               -0.05233061               -0.11491349                0.14765503               -0.02724612                0.03688238               -0.13768758
               1.00727678                6.99763705               95.20574412                0.45809783               -0.06606369               -0.05147429                0.27922235               -0.05214147                0.24556391               -0.03558939
               2.00647881                6.99931097               95.21464268                0.37538685               -0.10147110               -0.06221824                0.34104243               -0.09647826                0.48335281               -0.09587489
               3.00524736                7.00100044               95.22434514                0.27443648               -0.24891906                0.00114201                0.20837350               -0.11929417                0.39238087               -0.17598391
               4.00150043                7.00283238               95.23191591                0.25752949               -0.42233540                0.06058219                0.25381026                0.12613679                0.23702737               -0.16155808
               4.99680065                7.00598469               95.23629006                0.30671018               -0.36715495               -0.03391024                0.26910122                0.27725479                0.05870250               -0.20174718
               5.99415733                7.00876974               95.23760676                0.36520568               -0.20493436               -0.09051556                0.27259480                0.23678912               -0.12180882               -0.19708384
               6.99270196                7.01089946               95.23762742                0.42985415               -0.11492588               -0.11481482                0.26090293                0.16516617               -0.18060067               -0.18086089
               7.99185881                7.01247354               95.23742760                0.48439365               -0.07196462               -0.11856876                0.24397553                0.10159343               -0.16659914               -0.15889048
               8.99126267                7.01367088               95.23762764                0.54715480               -0.05764848               -0.10880520                0.22760307                0.04704816               -0.09735503               -0.13778679
               9.99070584                7.01448247               95.23889726                0.79858634               -0.05568256               -0.08982783                0.22092282                0.01534256               -0.05185540               -0.12580927
               0.00501152                7.99457732               95.20045378                0.69125853               -0.05650599               -0.07738442                0.15715518               -0.03538139                0.03604977               -0.10054094
               1.00444646                7.99704841               95.20560058                0.46767119               -0.07606029               -0.06182013                0.24694954               -0.07808589                0.20090491               -0.04911351
               2.00349032                7.99878530               95.21406196                0.43699870               -0.11734759               -0.04863749                0.29654335               -0.11074797                0.36963318               -0.07788960
               3.00209951                8.00097945               95.22268230                0.35221023               -0.19617895               -0.01231667                0.22260909               -0.09039360                0.32408600               -0.15775255
               3.99956674                8.00329264               95.22997209                0.31447044               -0.30272048                0.02599655                0.24787360                0.02449091                0.20998429               -0.20124919
               4.99604510                8.00588076               95.23490682                0.35408939               -0.29466054               -0.00856269                0.25302385                0.13466405                0.06523678               -0.20075362
               5.99367353                8.00818539               95.23685213                0.41376988               -0.19103885               -0.04750525                0.25148317                0.13377577               -0.09796432               -0.18292756
               6.99222432                8.01005709               95.23736285                0.48438141               -0.11867273               -0.07191622                0.24406514                0.10165834               -0.15873344               -0.16688693
               7.99130007                8.01155002               95.23750182                0.54634653               -0.08092352               -0.08087996                0.23369915                0.06715436               -0.15150431               -0.15167935
               8.99060585                8.01277992               95.23792118                0.61595796               -0.06663651               -0.08066711                0.22307109                0.03323889               -0.08953886               -0.13900668
               9.98996734                8.01372099               95.23925819                0.83473003               -0.06385116               -0.07030965                0.21947331                0.01353616               -0.04531734               -0.13464895
               0.00215027                8.99396426               95.20018750                0.70055182               -0.06431946               -0.05543629                0.17136024               -0.02505064                0.03835549               -0.05594630
               1.00150707                8.99640065               95.20552367                0.48405606               -0.09087294               -0.06247948                0.22329545               -0.05356506                0.17950224               -0.02625337
               2.00033281                8.99833822               95.21366612                0.50352975               -0.12874629               -0.04715685                0.27383330               -0.07063800                0.31616681               -0.03501480
               2.99893215                9.00075411               95.22149617                0.44272157               -0.16219320               -0.03042433                0.24267533               -0.04509686                0.28924378               -0.08711097
               3.99708895                9.00335231               95.22847846                0.38586175               -0.21654819               -0.00846076                0.25388873               -0.00071724                0.22443357               -0.12765938
               4.99460118                9.00581344               95.23403131                0.41051311               -0.22162144               -0.01263204                0.24075784                0.05213994                0.10190487               -0.12269698
               5.99265652                9.00781964               95.23660929                0.47035658               -0.16153450               -0.03781654                0.23305690                0.05696860               -0.06365108               -0.10787497
               6.99137049                9.00946114               95.23749808                0.54715912               -0.10887249               -0.05764994                0.22772570                0.04711693               -0.13776970               -0.09755745
               7.99047907                9.01085594               95.23785642                0.61594258               -0.08070037               -0.06663782                0.22313483                0.03327503               -0.13895833               -0.08967161
               8.98975649                9.01205754               95.23840627                0.69146579               -0.06923136               -0.06922604                0.21754137                0.01695001               -0.08320193               -0.08325066
               9.98909444                9.01307628               95.23977386                0.87411692               -0.06620466               -0.06416740                0.21675587                0.00779890               -0.04132823               -0.08198442
              -0.00036226                9.99346859               95.20036556                0.85434352               -0.06365411               -0.04956747                0.17140089               -0.01822932                0.02966072               -0.03285240
               0.99900120                9.99579882               95.20576031                0.75157034               -0.09568245               -0.06018266                0.21086616               -0.03190822                0.16636757               -0.00889803
               1.99772409                9.99784217               95.21381035                0.77877131               -0.14088584               -0.04960563                0.27944685               -0.03226415                0.31432895               -0.01648353
               2.99618349               10.00037097               95.22158075                0.75513659               -0.16155145               -0.03831425                0.25306393               -0.01080318                0.32148655               -0.04496314
               3.99449307               10.00312343               95.22876750                0.72067214               -0.17814558               -0.02288842                0.25641284                0.00326950                0.29119010               -0.07088909
               4.99262057               10.00562812               95.23477692                0.72786199               -0.16639334               -0.01853206                0.23470837                0.01722060                0.15898236               -0.07658050
               5.99116520               10.00742906               95.23766259                0.75816854               -0.12451051               -0.03905788                0.22534438                0.01466687               -0.03448057               -0.06258761
               6.99013036               10.00890409               95.23870460                0.79857787               -0.08980144               -0.05570481                0.22099085                0.01539753               -0.12594305               -0.05195231
               7.98936917               10.01021727               95.23912967                0.83474067               -0.07029256               -0.06386676                0.21953028                0.01357595               -0.13479793               -0.04538401
               8.98872451               10.01139540               95.23970919                0.87413025               -0.06416621               -0.06621385                0.21681338                0.00782116               -0.08211276               -0.04136629
               9.98808585               10.01243764               95.24108037                0.95185731               -0.06386669               -0.06386386                0.21721230                0.00336433               -0.04039881               -0.04031130
              -0.00164027                0.00224337               96.19931363                0.73994735               -0.01734346               -0.01734513                0.12584113                0.02873939                0.01405904                0.01404855
               0.99818629                0.00341387               96.20026024                0.50292706                0.02002483               -0.08109293                0.15760232                0.11903767                0.05612752                0.01302666
               1.99876022                0.00766549               96.20198202                0.52000564               -0.03058139               -0.03133085                0.18155763                0.03910855                0.05637337                0.02068995
               2.99757467                0.01377513               96.20342424                0.57156020               -0.15983846               -0.05175110                0.18197670                0.05829117               -0.02966121                0.02728924
               3.99556346                0.01865018               96.20405496                0.62487356               -0.20034573               -0.05318108                0.15695068                0.04730918               -0.12067608                0.02922909
               4.99356775                0.02114003               96.20388399                0.65133505               -0.17658414               -0.04535109                0.13725559                0.00973708               -0.15698562                0.04382840
               5.99203177                0.02160286               96.20337897                0.65047182               -0.12996486               -0.04807039                0.13664247               -0.03078666               -0.13860706                0.04886558
               6.99096845                0.02100338               96.20286889                0.64042125               -0.08952210               -0.05369945                0.14688276               -0.04401610               -0.09880329                0.04375360
               7.99024133                0.02008630               96.20253395                0.63523995               -0.06283649               -0.05855897                0.16160555               -0.03444811               -0.05636037                0.04020628
               8.98971172                0.01931438               96.20249295                0.63883753               -0.05140956               -0.06304688                0.17649238               -0.01857704               -0.02079192                0.04250387
               9.98921314                0.01887043               96.20274326                0.82120034               -0.04985844               -0.05961065                0.17780568               -0.01272150               -0.00727443                0.05149289
              -0.00252338                1.00206992               96.20019604                0.50295511               -0.08110089                0.02003195                0.15760589                0.11904965                0.01300835                0.05614242
               0.99666561                1.00260295               96.20109690                0.01749260               -0.17529684               -0.17529516                0.19265667                0.32286561                0.06193694                0.06197855
               1.99397068                1.00735218               96.20292737                0.01171999               -0.20001901               -0.13659227                0.24694274                0.44169122                0.13567506                0.17087969
               2.99266523                1.01325761               96.20505923                0.07973018               -0.08082943                0.19991671                0.29211358                0.38547317                0.16862693                0.73076787
               3.99235410                1.01811837               96.20697433                0.26369848               -0.02382250                0.05061748                0.33114824                0.26063764                0.14832814                0.51162388
               4.99218878                1.02068652               96.20840219                0.42850244               -0.02809340               -0.03296844                0.32509167                0.07526446                0.06776552                0.35885791
               5.99179223                1.02112215               96.20895232                0.49392107               -0.04511061               -0.06376772                0.28319046               -0.04404536               -0.02378825                0.25188394
               6.99128657                1.02046639               96.20878404                0.48081500               -0.05254378               -0.07261927                0.24375133               -0.08244371               -0.07068814                0.19815526
               7.99074135                1.01950071               96.20838999                0.44578325               -0.05763402               -0.07729440                0.22170746               -0.07351464               -0.06889527                0.18058345
               8.99013389                1.01868391               96.20818795                0.43897936               -0.06057409               -0.08176734                0.21042864               -0.04282720               -0.03892602                0.18745264
               9.98952987                1.01827433               96.20838567                0.72605690               -0.06040188               -0.07772692                0.20384738               -0.02957964               -0.02179169                0.20784155
              -0.00032532                2.00264401               96.20185419                0.52008043               -0.03133283               -0.03055396                0.18153065                0.03908019                0.02068224                0.05643872
               0.99936135                1.99990797               96.20286359                0.01174055               -0.13676481               -0.20000524                0.24693416                0.44184758                0.17086595                0.13568451
               1.99693938                2.00493364               96.20688831                0.01000001               -0.24217032               -0.24211941                0.45648660                1.58131462                0.73153806                0.73361814
               2.99451794                2.01777346               96.22083556                0.01307508               -0.17960368               -0.35911811                0.44352034                0.90290541                0.52124495                0.87045111
               3.99334731                2.01966253               96.21937436                0.09031833               -0.12243435               -0.07283147                0.32922551                0.02306851               -0.19608529                0.80331712
               4.99206925                2.02048066               96.21910507                0.28028965               -0.09881565               -0.06316398                0.33498028               -0.03596915               -0.12492720                0.61817933
               5.99137099                2.02032750               96.21859725                0.41514778               -0.05641172               -0.09828929                0.29340719               -0.08632142               -0.11610386                0.44330442
               6.99094102                2.01955100               96.21784418                0.46418468               -0.04087374               -0.10580844                0.26170659               -0.10598596               -0.10937784                0.34078621
               7.99055352                2.01854042               96.21708532                0.46868480               -0.04297255               -0.10527720                0.25459851               -0.09325535               -0.08538218                0.30039539
               8.99008157                2.01767903               96.21674373                0.50061579               -0.05564017               -0.10331553                0.26435344               -0.05308945               -0.04117213                0.30203826
               9.98944071                2.01731589               96.21708490                0.77235508               -0.06408541               -0.10178572                0.27923542               -0.02925392               -0.02401131                0.33509261
               0.00373031                3.00145884               96.20323273                0.57163203               -0.05173755               -0.15977640                0.18192468                0.05826953                0.02730714               -0.02959111
               1.00321293                2.99860284               96.20493169                0.07967020                0.20005901               -0.08082375                0.29205263                0.38549192                0.73094470                0.16860816
               2.00773149                3.00250979               96.22077520                0.01303661               -0.36092389               -0.17973025                0.44578715                0.90499358                0.87366280                0.52133813
               2.99599445                3.00607525               96.22050175                0.01251719               -0.88116107               -0.88111589                0.67599078                1.20956699                0.20539823                0.20485526
               3.99010827                3.01666174               96.23051962                0.07210145               -0.25950154               -0.69333034                0.58821847                0.68475290                0.19939078                0.83914147
               4.99080442                3.01942324               96.23000235                0.18536526                0.04435966               -0.41507873                0.22844301                0.08703072               -0.09320733                0.45683856
               5.99099546                3.01915637               96.22835963                0.28189824                0.00747573               -0.26996543                0.19974619               -0.07511274               -0.15981545                0.35427607
               6.99095394                3.01835022               96.22669267                0.34079143               -0.01236237               -0.19211432                0.20498371               -0.08837337               -0.16749737                0.29802783
               7.99074821                3.01739517               96.22520979                0.37613053               -0.03286581               -0.14580973                0.22217913               -0.07195661               -0.15462153                0.26659101
               8.99029662                3.01661760               96.22429636                0.42997188               -0.05385725               -0.11732911                0.24558917               -0.03724347               -0.09258610                0.26002979
               9.98967107                3.01623861               96.22460442                0.74020409               -0.06255551               -0.10901205                0.26100679               -0.01424270               -0.05546026                0.30146819
               0.00655207                3.99944849               96.20379980                0.62481842               -0.05318356               -0.20030621                0.15694526                0.04725948                0.02919805               -0.12062815
               1.00602024                3.99829150               96.20678216                0.26355355                0.05073835               -0.02382340                0.33110525                0.26067405                0.51177773                0.14833261
               2.00756684                4.00133904               96.21924920                0.09021653               -0.07314513               -0.12244921                0.32954984                0.02288082                0.80363113               -0.19628763
               3.00455733                4.00015114               96.23045602                0.07207869               -0.69362301               -0.26129422                0.58889602                0.68671866                0.83937280                0.19958549
               3.99369438                4.00579592               96.23753641                0.15128983               -0.66210475               -0.66239068                0.31847565                0.99737120                0.35869498                0.35871678
               4.99131524                4.01217908               96.23766498                0.22903449               -0.13763121               -0.57436919                0.24650141                0.60563404                0.06486585                0.33787583
               5.99094175                4.01492820               96.23643913                0.28375789               -0.01902441               -0.41432740                0.25390040                0.22576152               -0.09346305                0.24067209
               6.99093475                4.01570871               96.23457601                0.31733861               -0.00473734               -0.29196685                0.23839126                0.04995527               -0.19322486                0.19550698
               7.99084701                4.01562422               96.23264827                0.34298503               -0.02207461               -0.20106362                0.24035667               -0.01238214               -0.21942130                0.18914255
               8.99049326                4.01533245               96.23132308                0.38593188               -0.04665857               -0.13948292                0.25462385               -0.01623473               -0.14261925                0.21166824
               9.98991384                4.01513565               96.23176875                0.71360284               -0.05794222               -0.10835249                0.26428122               -0.00773247               -0.08765579                0.27137294
               0.00698948                4.99745272               96.20356519                0.65132893               -0.04536155               -0.17659684                0.13725558                0.00973852                0.04379168               -0.15699653
               1.00653586                4.99812637               96.20814656                0.42835883               -0.03300081               -0.02807314                0.32508585                0.07532612                0.35883289                0.06783356
               2.00632946                5.00006081               96.21891284                0.28029718               -0.06319574               -0.09883753                0.33511455               -0.03602199                0.61818998               -0.12508418
               3.00527194                5.00084937               96.22987412                0.18537541               -0.41508553                0.04445984                0.22844542                0.08742054                0.45665509               -0.09330985
               3.99802775                5.00341393               96.23760141                0.22906680               -0.57435565               -0.13776016                0.24650031                0.60584784                0.33793449                0.06478144
               4.99378483                5.00793585               96.24044346                0.28132244               -0.30233428               -0.30226048                0.26151891                0.54028428                0.06040741                0.06036759
               5.99198106                5.01086982               96.24031938                0.32345499               -0.12639068               -0.31336169                0.26530827                0.30439732               -0.12879174                0.03028384
               6.99125702                5.01251088               96.23903407                0.35430168               -0.05521150               -0.26292565                0.25261417                0.14507825               -0.20942457                0.01724904
               7.99087683                5.01337390               96.23756955                0.37511799               -0.03982608               -0.19646657                0.24398814                0.05722943               -0.21932976                0.03623891
               8.99046050                5.01382794               96.23668888                0.40642224               -0.04834109               -0.13715522                0.24161150                0.01623131               -0.14146188                0.07778225
               9.98991001                5.01407156               96.23748869                0.71933370               -0.05504857               -0.09685725                0.24144738                0.00443734               -0.09159149                0.12465240
               0.00539954                5.99591655               96.20299594                0.65045136               -0.04808664               -0.12996858                0.13664472               -0.03076621                0.04885579               -0.13863216
               1.00491867                5.99773003               96.20863319                0.49394425               -0.06380662               -0.04509754                0.28317995               -0.04399213                0.25184214               -0.02374416
               2.00412340                5.99936229               96.21834135                0.41520321               -0.09830213               -0.05642421                0.29337703               -0.08621259                0.44323627               -0.11602926
               3.00295263                6.00104034               96.22816775                0.28194382               -0.26992770                0.00747438                0.19975116               -0.07497626                0.35419975               -0.15979020
               3.99872485                6.00304072               96.23631074                0.28374386               -0.41437989               -0.01899567                0.25394143                0.22589908                0.24058940               -0.09356021
               4.99466503                6.00613388               96.24025507                0.32341416               -0.31350894               -0.12626547                0.26534793                0.30442565                0.03032596               -0.12890424
               5.99245467                6.00866096               96.24095827                0.36679727               -0.16663953               -0.16651958                0.26365148                0.22631652               -0.14607523               -0.14619230
               6.99133224                6.01045020               96.24029227                0.40695257               -0.08900656               -0.16343963                0.25330141                0.13794463               -0.20987263               -0.14191936
               7.99067454                6.01169489               96.23943884                0.43320064               -0.06060086               -0.13914989                0.24205333                0.07285796               -0.20019467               -0.11571545
               8.99012022                6.01258934               96.23912229                0.46444132               -0.05795989               -0.10705857                0.23242722                0.02956579               -0.12321163               -0.08102231
               9.98951534                6.01319851               96.24018774                0.74773014               -0.06048798               -0.07849006                0.22817705                0.01039993               -0.07548293               -0.05746888
               0.00274718                6.99485335               96.20242164                0.64045825               -0.05369038               -0.08951158                0.14685593               -0.04400824                0.04374318               -0.09882863
               1.00221028                6.99722442               96.20840104                0.48079966               -0.07261394               -0.05253047                0.24371042               -0.08239613                0.19811103               -0.07067285
               2.00129490                6.99893232               96.21752480                0.46413504               -0.10581440               -0.04086541                0.26166614               -0.10587526                0.34070310               -0.10934677
               3.00009399                7.00099886               96.22643720                0.34079256               -0.19213540               -0.01235594                0.20501593               -0.08825328                0.29792869               -0.16752322
               3.99745219                7.00303401               96.23438373                0.31733456               -0.29204431               -0.00471469                0.23844925                0.05007105                0.19542734               -0.19331955
               4.99425310                7.00541054               96.23890534                0.35429313               -0.26305625               -0.05515856                0.25269077                0.14518621                0.01725061               -0.20957978
               5.99219107                7.00753943               96.24022781                0.40694726               -0.16355600               -0.08893670                0.25334252                0.13799963               -0.14181410               -0.21004584
               6.99098198                7.00924209               96.24015974                0.45794355               -0.09981112               -0.09973196                0.24647286                0.09987737               -0.19533094               -0.19548121
               7.99019485                7.01059090               96.23982345                0.49200161               -0.07168939               -0.09472207                0.23562324                0.06287652               -0.18173453               -0.17250068
               8.98954819                7.01168677               96.23988732                0.52780885               -0.06475814               -0.08119316                0.22530921                0.03031050               -0.10952936               -0.15114984
               9.98889968                7.01250176               96.24109652                0.77990014               -0.06485111               -0.06493417                0.22013494                0.01339537               -0.06234809               -0.14043543
              -0.00022278                7.99412632               96.20202235                0.63525786               -0.05854529               -0.06282594                0.16156978               -0.03442787                0.04018903               -0.05637068
               0.99919177                7.99667942               96.20794264                0.44579104               -0.07728796               -0.05761721                0.22167437               -0.07348317                0.18053396               -0.06890117
               1.99823146                7.99854498               96.21670149                0.46865187               -0.10529486               -0.04296610                0.25461125               -0.09320859                0.30033278               -0.08540123
               2.99708587                8.00079322               96.22488977                0.37612434               -0.14584413               -0.03285990                0.22222480               -0.07186214                0.26650139               -0.15468608
               3.99531458                8.00294643               96.23239162                0.34297379               -0.20112684               -0.02207022                0.24043537               -0.01224661                0.18903687               -0.21952774
               4.99306334                8.00503070               96.23737678                0.37509146               -0.19657326               -0.03980662                0.24409835                0.05736090                0.03620940               -0.21949249
               5.99138312                8.00688223               96.23931023                0.43318655               -0.13925107               -0.06056966                0.24214292                0.07295035               -0.11567318               -0.20037850
               6.99027832                8.00845556               96.23975917                0.49200494               -0.09478622               -0.07164933                0.23565921                0.06291942               -0.17241317               -0.18189872
               7.98948739                8.00980045               96.23980969                0.53336388               -0.07313717               -0.07310422                0.22771730                0.04578013               -0.16368500               -0.16379389
               8.98881557                8.01096548               96.24013562                0.57358166               -0.06670625               -0.06923377                0.22048101                0.02440782               -0.09898049               -0.14963274
               9.98815327                8.01189982               96.24143276                0.80301491               -0.06623047               -0.05933311                0.21697062                0.01252860               -0.05384201               -0.14379715
              -0.00304759                8.99359683               96.20191719                0.63888849               -0.06304586               -0.05140380                0.17646671               -0.01856367                0.04247718               -0.02078796
               0.99632195                8.99607208               96.20767639                0.43893615               -0.08177370               -0.06056875                0.21042355               -0.04282335                0.18740164               -0.03892184
               1.99531693                8.99807300               96.21629578                0.50067384               -0.10333246               -0.05564180                0.26437737               -0.05307955                0.30195391               -0.04117398
               2.99425530                9.00034166               96.22391200                0.42996069               -0.11735783               -0.05385022                0.24562120               -0.03717494                0.25991733               -0.09261165
               3.99296978                9.00259261               96.23100208                0.38591574               -0.13953912               -0.04666299                0.25471543               -0.01613782                0.21155196               -0.14267880
               4.99146452                9.00461441               96.23643175                0.40644519               -0.13722792               -0.04834591                0.24172799                0.01632577                0.07772879               -0.14157059
               5.99022522                9.00632804               96.23892943                0.46443710               -0.10711841               -0.05796092                0.23252174                0.02964860               -0.08103779               -0.12333563
               6.98932215                9.00780910               96.23975870                0.52775078               -0.08123460               -0.06475738                0.22538806                0.03036488               -0.15114139               -0.10965443
               7.98860053                9.00912882               96.24007126                0.57354115               -0.06925873               -0.06670183                0.22052547                0.02442929               -0.14960790               -0.09907031
               8.98793698                9.01030209               96.24056887                0.61568663               -0.06594788               -0.06594103                0.21642266                0.01344828               -0.09142172               -0.09145422
               9.98728157                9.01131510               96.24192090                0.82398209               -0.06554056               -0.06030226                0.21495258                0.00748246               -0.04881501               -0.08884598
              -0.00554455                9.99309824               96.20210363                0.82114294               -0.05963227               -0.04985883                0.17780593               -0.01271465                0.05145113               -0.00726108
               0.99385913                9.99546805               96.20781016                0.72605746               -0.07775799               -0.06040283                0.20386201               -0.02958673                0.20777972               -0.02178098
               1.99290029                9.99743214               96.21657298                0.77234583               -0.10181809               -0.06408577                0.27924272               -0.02925578                0.33499388               -0.02399384
               2.99182277                9.99971622               96.22415606                0.74020024               -0.10906111               -0.06254421                0.26100778               -0.01420211                0.30137778               -0.05545863
               3.99071907               10.00201317               96.23138401                0.71359416               -0.10841725               -0.05794422                0.26433827               -0.00769216                0.27133920               -0.08767671
               4.98965442               10.00406379               96.23716839                0.71935411               -0.09688376               -0.05506264                0.24151150                0.00448276                0.12466054               -0.09162435
               5.98878140               10.00572301               96.23993184                0.74773840               -0.07847952               -0.06050267                0.22822718                0.01044900               -0.05751411               -0.07552945
               6.98808483               10.00716041               96.24090443                0.77993409               -0.06492034               -0.06486922                0.22019461                0.01343848               -0.14052115               -0.06242334
               7.98748299               10.00846641               96.24130452                0.80300141               -0.05932889               -0.06624036                0.21701653                0.01255860               -0.14389087               -0.05390601
               8.98689826               10.00964666               96.24185660                0.82395387               -0.06030406               -0.06554326                0.21498840                0.00749636               -0.08891873               -0.04884352
               9.98627691               10.01069378               96.24322380                0.91994284               -0.06213475               -0.06213187                0.21452351                0.00424563               -0.04712229               -0.04706879
              -0.00258296                0.00136477               97.20042896                0.72604759               -0.01412793               -0.01412958                0.09015740                0.03700513                0.01547700                0.01545796
               0.99727576                0.00257674               97.20177744                0.48795180                0.00552088               -0.07751995                0.14332484                0.11777834                0.04953806                0.01937846
               1.99752746                0.00667188               97.20374928                0.51774995               -0.06211165               -0.03362936                0.17109828                0.04729358                0.01635651                0.03497866
               2.99603353                0.01190428               97.20516773                0.57342752               -0.17531774               -0.05638070                0.15654594                0.05937288               -0.08754720                0.02904473
               3.99402110                0.01519334               97.20546205                0.61014119               -0.18205745               -0.03955561                0.12945308                0.02536774               -0.15044419                0.05285064
               4.99239238                0.01613603               97.20516114                0.61034006               -0.13616907               -0.04393148                0.12946073               -0.03088672               -0.13846241                0.06431811
               5.99129772                0.01577643               97.20473986                0.59479966               -0.09161445               -0.05296396                0.14267140               -0.05007795               -0.09738642                0.05345023
               6.99056009                0.01503657               97.20437421                0.58251119               -0.06462083               -0.05803565                0.15756871               -0.03621078               -0.05633668                0.04392806
               7.99000530                0.01434824               97.20419711                0.57854193               -0.05209420               -0.05968082                0.17100653               -0.01767113               -0.02038736                0.04234654
               8.98951821                0.01390799               97.20429294                0.58043294               -0.05019339               -0.06050632                0.18095705               -0.00730747                0.00370556                0.04583126
               9.98900144                0.01373347               97.20456183                0.79098727               -0.05167688               -0.05664462                0.18264401               -0.00825369                0.01168224                0.06890985
              -0.00342488                1.00122347               97.20171319                0.48791374               -0.07751329                0.00553189                0.14332632                0.11778966                0.01937052                0.04951808
               0.99579999                1.00180154               97.20305682                0.01430364               -0.16192482               -0.16193929                0.20331831                0.30584049                0.08096256                0.08096976
               1.99333662                1.00633559               97.20551061                0.01119170               -0.17167299               -0.18627896                0.27457351                0.34468918                0.18499334                0.29086198
               2.99236653                1.01134047               97.20812288                0.19224518               -0.05888598                0.11428439                0.33204091                0.30134916                0.21440011                0.63493893
               3.99215890                1.01479779               97.21042870                0.42166188               -0.02872788               -0.00481809                0.33634522                0.12585713                0.13859920                0.42225718
               4.99179197                1.01569672               97.21155905                0.52235552               -0.04061150               -0.05925680                0.28168431               -0.02554062                0.01289725                0.26030973
               5.99134667                1.01524679               97.21153271                0.49528328               -0.04399470               -0.06979436                0.23024309               -0.07481839               -0.06510896                0.18589791
               6.99091208                1.01445621               97.21100183                0.43341055               -0.04768946               -0.07297408                0.20905943               -0.06734320               -0.08403597                0.16800439
               7.99039288                1.01375143               97.21048173                0.39050495               -0.05797799               -0.07125288                0.20734090               -0.04538516               -0.07174635                0.18027979
               8.98975252                1.01330293               97.21024362                0.38713247               -0.06497329               -0.06726349                0.20920946               -0.02574256               -0.04350811                0.20830995
               9.98909342                1.01316703               97.21041305                0.70228466               -0.06590971               -0.05877213                0.20869742               -0.02605337               -0.03113085                0.25215954
              -0.00138330                2.00147541               97.20362066                0.51774639               -0.03362437               -0.06207000                0.17104002                0.04729360                0.03494713                0.01640403
               0.99828045                1.99933795               97.20544642                0.01110585               -0.18671946               -0.17167779                0.27454486                0.34514587                0.29083563                0.18499958
               1.99488231                2.00294630               97.21262172                0.01000000               -0.23410696               -0.23407724                0.90279526                1.27992377                0.87965096                0.88001497
               2.99359831                2.01418997               97.22317805                0.05643338               -0.13501540               -0.36314706                0.26649581                0.68727945                0.38089670                0.67326572
               3.99218200                2.01509698               97.22266383                0.28479873               -0.10828745               -0.06399844                0.28936638               -0.01926793               -0.15247179                0.59654840
               4.99143257                2.01495090               97.22195533                0.45608428               -0.05700707               -0.08916413                0.25493183               -0.06374223               -0.12450606                0.41305796
               5.99104186                2.01438054               97.22110529                0.50580616               -0.03619921               -0.09288808                0.23017972               -0.08157444               -0.11229635                0.30760492
               6.99070858                2.01357709               97.22019524                0.48907263               -0.03954844               -0.08943821                0.23158810               -0.07751239               -0.09971440                0.27298652
               7.99025089                2.01292318               97.21953793                0.47183904               -0.05604097               -0.08192614                0.25392736               -0.05525977               -0.07544068                0.28347881
               8.98958776                2.01256272               97.21940161                0.49651160               -0.07493587               -0.07260037                0.27197091               -0.02955720               -0.03856335                0.31285674
               9.98875217                2.01255803               97.21990732                0.76836664               -0.08355894               -0.06432964                0.27859776               -0.02191669               -0.02360709                0.36073998
               0.00179589                2.99998207               97.20497562                0.57346161               -0.05638888               -0.17526713                0.15648110                0.05937192                0.02902926               -0.08743513
               1.00123201                2.99836799               97.20799449                0.19218215                0.11435946               -0.05887752                0.33202732                0.30139967                0.63509841                0.21441442
               2.00408308                3.00165405               97.22311655                0.05638870               -0.36352835               -0.13545518                0.26640871                0.68816196                0.67327201                0.38093349
               2.99396144                3.00407753               97.23090490                0.09418148               -0.65352344               -0.65347421                0.64252982                0.98101264                0.43365331                0.43198034
               3.99101262                3.01351782               97.23328304                0.20571349               -0.13639367               -0.42883032                0.21984338                0.60057289                0.13859434                0.41206332
               4.99123357                3.01391344               97.23193457                0.29203168                0.00381890               -0.26312494                0.18460539                0.03299525               -0.12325721                0.33148052
               5.99108899                3.01338903               97.23030302                0.34297110               -0.02071906               -0.16799020                0.18585890               -0.05114209               -0.16253095                0.28662264
               6.99081918                3.01266745               97.22870065                0.36494160               -0.03934674               -0.11577098                0.20257741               -0.06311313               -0.16966089                0.25687775
               7.99030206                3.01211291               97.22744623                0.38343243               -0.06463293               -0.08443573                0.23174586               -0.04732670               -0.15427326                0.24650816
               8.98952653                3.01185092               97.22679266                0.42205455               -0.08187957               -0.06676550                0.25365259               -0.02384252               -0.09593330                0.24473303
               9.98866447                3.01188043               97.22724947                0.72940794               -0.08620587               -0.05848300                0.25806132               -0.01250493               -0.05906829                0.28456954
               0.00303231                3.99797006               97.20520697                0.61019078               -0.03958364               -0.18204717                0.12940786                0.02534682                0.05281568               -0.15039258
               1.00263647                3.99816040               97.21023663                0.42150046               -0.00481558               -0.02871224                0.33639524                0.12590362                0.42239921                0.13867284
               2.00293600                4.00023720               97.22253781                0.28466026               -0.06408401               -0.10831801                0.28934790               -0.01928777                0.59663554               -0.15258565
               3.00135479                4.00112048               97.23322060                0.20570022               -0.42892227               -0.13677218                0.21990331                0.60101294                0.41237751                0.13868892
               3.99435755                4.00652037               97.23938517                0.28667712               -0.45667660               -0.45671131                0.21670878                0.65141121                0.32332596                0.32323079
               4.99222126                4.00968840               97.24026746                0.31698652               -0.15462752               -0.34631579                0.24939580                0.30193038               -0.00900101                0.26578984
               5.99126500                4.01102074               97.23888813                0.33241612               -0.07494136               -0.23619868                0.23491404                0.08936368               -0.18197748                0.21064365
               6.99072244                4.01126167               97.23687686                0.34389487               -0.05720581               -0.15220780                0.23053629               -0.00752683               -0.24584657                0.18748616
               7.99012089                4.01123447               97.23503684                0.35853488               -0.06895233               -0.09437387                0.24206086               -0.02943442               -0.24136746                0.18829554
               8.98934339                4.01122741               97.23389285                0.38730546               -0.08389199               -0.05973528                0.25695655               -0.01995807               -0.15378538                0.20380334
               9.98844305                4.01138837               97.23443834                0.70750568               -0.09003411               -0.04166094                0.25785105               -0.01185579               -0.09555348                0.25401327
               0.00192215                4.99634113               97.20484220                0.61034571               -0.04392088               -0.13617837                0.12943518               -0.03089153                0.06433562               -0.13847341
               1.00148294                4.99779374               97.21130391                0.52242001               -0.05924510               -0.04059364                0.28170647               -0.02550854                0.26037409                0.01295878
               2.00073725                4.99948769               97.22176482                0.45603500               -0.08922087               -0.05700386                0.25500231               -0.06371054                0.41309684               -0.12457895
               2.99969852                5.00134209               97.23180692                0.29202393               -0.26321618                0.00386227                0.18468459                0.03312607                0.33148309               -0.12335176
               3.99547292                5.00438359               97.24020368                0.31700611               -0.34633560               -0.15464503                0.24938732                0.30201014                0.26579208               -0.00903368
               4.99277181                5.00698712               97.24307783                0.33883924               -0.20849641               -0.20847008                0.25470542                0.22282764               -0.01114631               -0.01110679
               5.99130300                5.00866505               97.24287267                0.36095401               -0.11584482               -0.19286549                0.24989387                0.11324877               -0.18165809               -0.01772931
               6.99045492                5.00962329               97.24147185                0.37636177               -0.07776831               -0.14361698                0.24285533                0.03923588               -0.25007250               -0.00727429
               7.98974763                5.01022543               97.23998092                0.38580239               -0.07407256               -0.09406393                0.24132576                0.00588751               -0.24422181                0.01885704
               8.98897346                5.01065621               97.23912212                0.40278140               -0.08210984               -0.05451324                0.24411517               -0.00304589               -0.15655432                0.05618115
               9.98810543                5.01104721               97.23992690                0.71079177               -0.08680305               -0.03140174                0.23875637               -0.00089783               -0.10154770                0.09415876
              -0.00049074                5.99524650               97.20435671                0.59479043               -0.05295103               -0.09160755                0.14266473               -0.05009680                0.05346901               -0.09741376
               0.99897975                5.99734853               97.21121366                0.49528887               -0.06979096               -0.04397962                0.23022752               -0.07482377                0.18590521               -0.06511403
               1.99811344                5.99909712               97.22085025                0.50589269               -0.09291697               -0.03618925                0.23019976               -0.08156665                0.30757890               -0.11232753
               2.99712141                6.00119773               97.23011102                0.34299492               -0.16803571               -0.02070632                0.18587085               -0.05105841                0.28657972               -0.16251913
               3.99475273                6.00342747               97.23876013                0.33242311               -0.23625274               -0.07492413                0.23494937                0.08945912                0.21062215               -0.18202163
               4.99239635                6.00551900               97.24280897                0.36093493               -0.19294598               -0.11578670                0.24993006                0.11328614               -0.01772043               -0.18171679
               5.99089381                6.00716343               97.24345714                0.40050586               -0.12247906               -0.12240914                0.24790678                0.08169912               -0.17898150               -0.17903440
               6.98994677                6.00838933               97.24273769                0.42786871               -0.08440435               -0.10501786                0.24207923                0.04672722               -0.23268271               -0.16033815
               7.98920572                6.00935319               97.24182305                0.43852519               -0.07430420               -0.07863777                0.23683070                0.02483657               -0.21674022               -0.13125604
               8.98846069                6.01013715               97.24145195                0.45125500               -0.07813139               -0.05108300                0.23442208                0.01163471               -0.13485139               -0.09957665
               9.98764309                6.01076033               97.24248270                0.73334377               -0.08175986               -0.03092332                0.22855905                0.00907084               -0.08533282               -0.08072950
              -0.00328386                6.99450898               97.20392665                0.58247551               -0.05803050               -0.06460708                0.15754929               -0.03621002                0.04392149               -0.05637629
               0.99613584                6.99691415               97.21061833                0.43337348               -0.07297136               -0.04767483                0.20903182               -0.06734142                0.16800035               -0.08405162
               1.99525672                6.99876390               97.21987600                0.48904300               -0.08944168               -0.03954119                0.23160721               -0.07748917                0.27297748               -0.09974257
               2.99434701                7.00092796               97.22844546                0.36494250               -0.11579388               -0.03933992                0.20257981               -0.06303956                0.25681459               -0.16963849
               3.99294084                7.00288511               97.23668490                0.34389780               -0.15227112               -0.05718712                0.23056447               -0.00744157                0.18741384               -0.24588554
               4.99130158                7.00467139               97.24134387                0.37633727               -0.14370962               -0.07772518                0.24291310                0.03930439               -0.00728026               -0.25016953
               5.99006665                7.00621687               97.24267361                0.42788379               -0.10509433               -0.08436149                0.24210862                0.04677055               -0.16029577               -0.23277633
               6.98919970                7.00752294               97.24255687                0.46577602               -0.07850497               -0.07845872                0.23526380                0.03828185               -0.20864576               -0.20872391
               7.98849655                7.00865268               97.24214007                0.48195510               -0.07003409               -0.06634259                0.22861243                0.02779126               -0.19110292               -0.18388098
               8.98779901                7.00963455               97.24213382                0.49609303               -0.07280371               -0.05157153                0.22566957                0.01592757               -0.11662697               -0.16382182
               9.98704047                7.01042875               97.24329996                0.75506273               -0.07585415               -0.03698319                0.22128777                0.01207576               -0.07042619               -0.15491006
              -0.00602528                7.99395435               97.20368518                0.57855291               -0.05967206               -0.05208786                0.17100600               -0.01766937                0.04234225               -0.02042303
               0.99337800                7.99639504               97.21003406                0.39058186               -0.07124394               -0.05797312                0.20731434               -0.04536908                0.18024088               -0.07174081
               1.99254984                7.99830630               97.21915419                0.47184644               -0.08192950               -0.05603214                0.25392993               -0.05522688                0.28343514               -0.07546928
               2.99173941                8.00041093               97.22712679                0.38346711               -0.08446853               -0.06461884                0.23176900               -0.04726909                0.24645289               -0.15431422
               3.99086047                8.00228373               97.23478080                0.35854331               -0.09443637               -0.06893840                0.24209662               -0.02935214                0.18822276               -0.24140689
               4.98985068                8.00396449               97.23978879                0.38577265               -0.09414018               -0.07404873                0.24137796                0.00596475                0.01883614               -0.24431517
               5.98897767                8.00547620               97.24169499                0.43850658               -0.07870391               -0.07427801                0.23687479                0.02489138               -0.13122663               -0.21684820
               6.98827660                8.00682016               97.24207604                0.48197235               -0.06638693               -0.07000727                0.22863354                0.02781387               -0.18383128               -0.19119276
               7.98764993                8.00802634               97.24205616                0.50379921               -0.06367165               -0.06364883                0.22281858                0.02328737               -0.17019824               -0.17025213
               8.98700317                8.00910571               97.24233080                0.52014981               -0.06768545               -0.05635410                0.22117061                0.01368680               -0.10367655               -0.15628485
               9.98629622                8.01002067               97.24359760                0.76621019               -0.07069515               -0.04602132                0.21855212                0.01017632               -0.06043956               -0.15036335
              -0.00851860                8.99346722               97.20371683                0.58045138               -0.06048839               -0.05019366                0.18094626               -0.00730455                0.04583654                0.00368223
               0.99087651                8.99575469               97.20973215                0.38720549               -0.06725570               -0.06496856                0.20918858               -0.02572561                0.20824987               -0.04349687
               1.99013628                8.99764326               97.21895366                0.49648798               -0.07261604               -0.07492006                0.27194585               -0.02954323                0.31276015               -0.03856715
               2.98942419                8.99963559               97.22640860                0.42206202               -0.06680244               -0.08186295                0.25367895               -0.02381605                0.24467245               -0.09598019
               3.98880023                9.00150634               97.23357277                0.38728948               -0.05978892               -0.08388505                0.25701008               -0.01990612                0.20374404               -0.15381142
               4.98822841                9.00319041               97.23886587                0.40281731               -0.05457103               -0.08210704                0.24418460               -0.00298783                0.05614451               -0.15661129
               5.98770881                9.00473131               97.24125972                0.45123199               -0.05112905               -0.07812770                0.23448049                0.01167944               -0.09957692               -0.13492943
               6.98720583                9.00612279               97.24200584                0.49607540               -0.05160382               -0.07279979                0.22571516                0.01595279               -0.16380343               -0.11669404
               7.98667674                9.00737970               97.24226693                0.52013913               -0.05637067               -0.06768473                0.22119966                0.01369660               -0.15627407               -0.10372077
               8.98607842                9.00850747               97.24273472                0.53603216               -0.06313239               -0.06313227                0.22083130                0.00761538               -0.09598103               -0.09598954
               9.98541409                9.00950832               97.24407291                0.77296705               -0.06643301               -0.05651037                0.21964558                0.00572454               -0.05503213               -0.09288500
              -0.01074630                9.99295048               97.20392168                0.79098725               -0.05662492               -0.05167398                0.18261555               -0.00825141                0.06889650                0.01166725
               0.98868745                9.99509566               97.20983755                0.70230665               -0.05878125               -0.06590217                0.20868337               -0.02603532                0.25209098               -0.03112480
               1.98807808                9.99680790               97.21939521                0.76834441               -0.06437236               -0.08353585                0.27857291               -0.02192029                0.36063594               -0.02360387
               2.98740000                9.99877367               97.22680091                0.72941733               -0.05852767               -0.08619136                0.25808903               -0.01251221                0.28453073               -0.05911451
               3.98690752               10.00060603               97.23405427                0.70750191               -0.04170237               -0.09003104                0.25789319               -0.01183717                0.25402349               -0.09557415
               4.98656596               10.00232235               97.23960715                0.71081264               -0.03143229               -0.08680587                0.23878964               -0.00086513                0.09417694               -0.10156523
               5.98627888               10.00391364               97.24222713                0.73334751               -0.03093439               -0.08176672                0.22858959                0.00909661               -0.08074058               -0.08536348
               6.98594727               10.00536416               97.24310849                0.75507220               -0.03698478               -0.07586316                0.22133380                0.01209366               -0.15494798               -0.07046406
               7.98553918               10.00667264               97.24347000                0.76619971               -0.04602057               -0.07070566                0.21859183                0.01018980               -0.15042369               -0.06047193
               8.98502686               10.00784307               97.24400896                0.77296882               -0.05650846               -0.06644025                0.21967369                0.00573478               -0.09293965               -0.05504361
               9.98440901               10.00889046               97.24537084                0.88855571               -0.06178461               -0.06178583                0.21921073                0.00423157               -0.05269816               -0.05266113
              -0.00402768               -0.00001593               98.20111678                0.71439778               -0.01155822               -0.01154880                0.04625297                0.04630488                0.01360845                0.01359988
               0.99585674                0.00124267               98.20312674                0.46731603               -0.01376247               -0.06893090                0.12326369                0.10598760                0.02844246                0.02493328
               1.99569707                0.00484241               98.20540398                0.50862066               -0.08728896               -0.05454199                0.14465366                0.05089424               -0.04914074                0.03751738
               2.99411096                0.00844571               98.20655516                0.55580364               -0.15679552               -0.04996329                0.11592224                0.03899360               -0.13192443                0.04772239
               3.99256116                0.00977389               98.20664403                0.56345270               -0.12951305               -0.04121589                0.11813269               -0.02788111               -0.13399498                0.07873119
               4.99152070                0.00963057               98.20647320                0.54806340               -0.08450908               -0.05320547                0.13842115               -0.05218430               -0.09176889                0.06562067
               5.99087098                0.00908616               98.20623240                0.53438428               -0.05681170               -0.06114799                0.15435242               -0.03256492               -0.05547687                0.04603396
               6.99038446                0.00862669               98.20602026                0.52861437               -0.04780631               -0.06212504                0.16476136               -0.00887166               -0.02745700                0.03879257
               7.98991485                0.00836400               98.20595408                0.52832715               -0.04816734               -0.05985102                0.17055042                0.00012570               -0.00415249                0.03932694
               8.98942111                0.00832964               98.20611209                0.52941366               -0.05029278               -0.05882039                0.17322822                0.00023856                0.01212779                0.04105015
               9.98890899                0.00854619               98.20639614                0.76493551               -0.05121200               -0.05741601                0.17390066               -0.01240527                0.02096047                0.07059087
              -0.00482323                0.99986859               98.20306256                0.46742251               -0.06893230               -0.01372040                0.12324665                0.10596725                0.02491468                0.02840387
               0.99448745                1.00055336               98.20516326                0.01000000               -0.12861375               -0.12861866                0.21292780                0.23743343                0.09783950                0.09783674
               1.99260449                1.00429699               98.20841884                0.06833337               -0.12261487                0.00428007                0.33189349                0.42482058                0.24825488                0.69425741
               2.99203515                1.00794607               98.21170005                0.35852221               -0.04572898                0.00055254                0.36592803                0.15237798                0.21470704                0.52728614
               3.99168991                1.00936173               98.21370123                0.52357728               -0.03462150               -0.05173714                0.28897368                0.00559336                0.06435972                0.29481102
               4.99134272                1.00909852               98.21403587                0.48713705               -0.03213245               -0.06321387                0.21866896               -0.06350384               -0.04714336                0.18351799
               5.99104726                1.00847468               98.21355718                0.39986496               -0.03429466               -0.06884374                0.19944825               -0.05394440               -0.07915607                0.15298166
               6.99065682                1.00800544               98.21296523                0.34344212               -0.04913151               -0.06573907                0.20962470               -0.02897840               -0.07738745                0.16373462
               7.99006463                1.00776549               98.21253681                0.32200216               -0.06622101               -0.05592539                0.22484039               -0.01702644               -0.06360240                0.19167145
               8.98933240                1.00774143               98.21237214                0.32905537               -0.07481225               -0.04712573                0.23306979               -0.01368292               -0.04172460                0.22079002
               9.98856839                1.00797203               98.21255962                0.67348385               -0.07640148               -0.04259573                0.23462405               -0.02453224               -0.03843277                0.26674900
              -0.00327789                1.99970967               98.20527499                0.50861618               -0.05451048               -0.08723750                0.14464982                0.05088267                0.03748853               -0.04914115
               0.99617700                1.99867030               98.20835449                0.06826656                0.00393303               -0.12262221                0.33173921                0.42524347                0.69417660                0.24826587
               1.99680077                2.00492801               98.22494422                0.04476137               -0.20416187               -0.20423062                0.91844905                0.77342412                0.68692485                0.68670601
               2.99209377                2.00845676               98.22616547                0.28439093               -0.26400940               -0.16368819                0.28330257                0.31385105               -0.15096666                0.47086639
               3.99152058                2.00873915               98.22516169                0.49475044               -0.04780476               -0.05900386                0.20891622                0.00350519               -0.17378768                0.40116204
               4.99113767                2.00836629               98.22420370                0.53945805               -0.03177107               -0.06788960                0.19733611               -0.05266406               -0.12768704                0.28985252
               5.99088516                2.00770929               98.22320085                0.50523570               -0.03117936               -0.06843497                0.20601202               -0.05614395               -0.09927369                0.24944339
               6.99051408                2.00731191               98.22247594                0.47583142               -0.05234147               -0.05996455                0.24340703               -0.03515534               -0.07445458                0.26644318
               7.98983833                2.00724549               98.22216387                0.46928036               -0.07865844               -0.04695333                0.27539336               -0.02093464               -0.05802458                0.29565354
               8.98894092                2.00738712               98.22218315                0.49021612               -0.09405860               -0.03602057                0.27989357               -0.01544523               -0.03484815                0.31906366
               9.98795716                2.00769428               98.22265685                0.75902140               -0.09837569               -0.02865227                0.26664857               -0.01889996               -0.02268914                0.35387604
              -0.00172684                2.99812384               98.20636235                0.55582649               -0.04991826               -0.15678068                0.11589644                0.03905610                0.04777463               -0.13185608
               0.99777397                2.99810092               98.21157223                0.35869151                0.00066805               -0.04573816                0.36589866                0.15244570                0.52737338                0.21478026
               1.99828652                3.00021237               98.22610337                0.28441151               -0.16364744               -0.26444738                0.28324840                0.31431011                0.47073600               -0.15087924
               2.99450103                3.00467231               98.23335235                0.23129751               -0.32180185               -0.32169285                0.20876487                0.59165172                0.30514142                0.30494440
               3.99185048                3.00818166               98.23491649                0.29189550               -0.15908620               -0.16996262                0.14999717                0.23309349                0.02031203                0.25544215
               4.99131930                3.00774072               98.23369446                0.33170988               -0.04358573               -0.10073343                0.15960215               -0.02905404               -0.15399398                0.27322906
               5.99097877                3.00710598               98.23207681                0.35960873               -0.04508946               -0.05689339                0.17826745               -0.05634652               -0.17431624                0.26456898
               6.99041751                3.00680615               98.23074422                0.37688035               -0.07040176               -0.03123390                0.21179845               -0.04622703               -0.16317586                0.25468250
               7.98957073                3.00682642               98.22984471                0.39392950               -0.09213977               -0.01950253                0.23866883               -0.03098946               -0.14003360                0.23334679
               8.98857472                3.00702102               98.22936942                0.41968082               -0.09973219               -0.01540340                0.24932983               -0.01761480               -0.08709222                0.21561054
               9.98757609                3.00739898               98.22976565                0.71944696               -0.09986294               -0.00778917                0.23540642               -0.01447224               -0.05223617                0.24399541
              -0.00245093                3.99657405               98.20638796                0.56343008               -0.04116849               -0.12951648                0.11807421               -0.02787068                0.07878885               -0.13391799
               0.99713738                3.99775554               98.21351006                0.52369244               -0.05167423               -0.03462026                0.28900807                0.00558806                0.29491616                0.06439883
               1.99651558                3.99963906               98.22503615                0.49474365               -0.05899321               -0.04777910                0.20883048                0.00346145                0.40116007               -0.17383585
               2.99595752                4.00202290               98.23485408                0.29187182               -0.17007725               -0.15902009                0.14998912                0.23312758                0.25540164                0.02040046
               3.99311404                4.00533990               98.24187059                0.31318013               -0.21626252               -0.21616789                0.25037167                0.22754630                0.17032525                0.17035630
               4.99163227                4.00635162               98.24265289                0.32857235               -0.12106177               -0.12842581                0.24512375                0.04025681               -0.16877463                0.21759497
               5.99069280                4.00657142               98.24113742                0.34977922               -0.08815822               -0.05798776                0.22949910               -0.03446368               -0.27281507                0.21849159
               6.98986910                4.00668724               98.23918673                0.36305014               -0.08445646               -0.01507934                0.22946162               -0.04930849               -0.27786813                0.20684746
               7.98900367                4.00685544               98.23748948                0.37349166               -0.09265218                0.00692068                0.23819118               -0.04183948               -0.23836196                0.18940071
               8.98801606                4.00707906               98.23646221                0.39034923               -0.10459402                0.01857206                0.24849760               -0.02541152               -0.14441618                0.18862956
               9.98691179                4.00753849               98.23692577                0.70130481               -0.11042671                0.02556948                0.23506037               -0.01938515               -0.09194394                0.23026715
              -0.00464722                4.99553351               98.20615390                0.54811438               -0.05320488               -0.08451106                0.13837465               -0.05220174                0.06561058               -0.09171160
               0.99482073                4.99740851               98.21378069                0.48701012               -0.06321975               -0.03211000                0.21868028               -0.06354274                0.18352591               -0.04716346
               1.99408838                4.99925679               98.22401289                0.53944115               -0.06789955               -0.03172532                0.19731280               -0.05272824                0.28985337               -0.12778305
               2.99346274                5.00149191               98.23356781                0.33170287               -0.10078503               -0.04357401                0.15964909               -0.02908341                0.27321137               -0.15405601
               3.99207268                5.00385830               98.24258915                0.32861513               -0.12849102               -0.12104132                0.24513166                0.04028059                0.21755823               -0.16877670
               4.99089292                5.00517221               98.24553757                0.34768064               -0.10593996               -0.10590651                0.26648275                0.00346367               -0.09746358               -0.09742445
               5.98995388                5.00594623               98.24531726                0.37438787               -0.08727990               -0.06460413                0.25106504               -0.02070635               -0.24130476               -0.05237094
               6.98914732                5.00650457               98.24389118                0.38728535               -0.08058809               -0.02644115                0.23887110               -0.02689089               -0.27660025               -0.02510831
               7.98834212                5.00696484               98.24239607                0.39238902               -0.08819418                0.00275923                0.23699816               -0.02451462               -0.24392047               -0.00143562
               8.98738344                5.00739246               98.24157119                0.40099140               -0.10363045                0.02535302                0.24309752               -0.01534898               -0.14876872                0.03122951
               9.98626951                5.00791037               98.24226382                0.70285759               -0.11139240                0.03361831                0.22818765               -0.00643936               -0.09485536                0.06898908
              -0.00724498                5.99488383               98.20584924                0.53426736               -0.06117758               -0.05680738                0.15436124               -0.03257599                0.04601543               -0.05548675
               0.99214324                5.99711334               98.21323774                0.39985706               -0.06886973               -0.03427617                0.19945216               -0.05395396                0.15296060               -0.07917083
               1.99137762                5.99900455               98.22294535                0.50530232               -0.06844505               -0.03116285                0.20600248               -0.05614897                0.24941452               -0.09927691
               2.99077434                6.00115142               98.23188517                0.35961627               -0.05691376               -0.04507952                0.17828944               -0.05634183                0.26455298               -0.17435375
               3.99023935                6.00291907               98.24100973                0.34978882               -0.05803637               -0.08813338                0.22951183               -0.03442759                0.21848509               -0.27282403
               4.98961361                6.00423349               98.24525367                0.37440416               -0.06465158               -0.08724363                0.25105520               -0.02069335               -0.05237279               -0.24130019
               5.98894632                6.00527934               98.24591641                0.41037175               -0.06504696               -0.06500869                0.24459680               -0.01284049               -0.20740636               -0.20742484
               6.98831267                6.00615841               98.24513386                0.42622290               -0.06604172               -0.03876480                0.23426037               -0.00867077               -0.24375422               -0.17636240
               7.98762548                6.00691063               98.24417545                0.42801488               -0.07745662               -0.01423373                0.23164548               -0.00592876               -0.21195779               -0.14748247
               8.98676354                6.00758612               98.24381073                0.43187208               -0.09391483                0.00695076                0.23644129               -0.00137195               -0.12719519               -0.11878371
               9.98574718                6.00821086               98.24475893                0.71681126               -0.10163570                0.01891402                0.22539891                0.00694297               -0.08187877               -0.09567528
              -0.00975775                6.99439736               98.20557263                0.52860731               -0.06213213               -0.04780809                0.16478308               -0.00887283                0.03881546               -0.02747950
               0.98962093                6.99672299               98.21258168                0.34338387               -0.06574652               -0.04912734                0.20964451               -0.02897426                0.16376364               -0.07740722
               1.98892732                6.99863353               98.22215695                0.47585925               -0.05997729               -0.05233097                0.24339654               -0.03514284                0.26642446               -0.07446290
               2.98842138                7.00059032               98.23048880                0.37687233               -0.03126321               -0.07038114                0.21177510               -0.04619615                0.25461544               -0.16316361
               3.98830205                7.00209563               98.23899502                0.36304729               -0.01512980               -0.08443264                0.22948248               -0.04926431                0.20680995               -0.27788907
               4.98811879                7.00342734               98.24376360                0.38725531               -0.02649496               -0.08055447                0.23889434               -0.02686605               -0.02511717               -0.27664161
               5.98777216                7.00464605               98.24506998                0.42625245               -0.03880864               -0.06600928                0.23426572               -0.00865231               -0.17633923               -0.24379709
               6.98734261                7.00572927               98.24486502                0.44632182               -0.04881572               -0.04878382                0.22616342               -0.00190266               -0.21221460               -0.21225338
               7.98679584                7.00668016               98.24439570                0.45013440               -0.06434246               -0.03210420                0.22503936                0.00026957               -0.18320514               -0.18827237
               8.98605576                7.00753148               98.24440071                0.45368090               -0.08184772               -0.01736181                0.23119115                0.00227770               -0.10863317               -0.17080781
               9.98515889                7.00828865               98.24552228                0.72672065               -0.08968776               -0.00456264                0.22473512                0.00890193               -0.06903745               -0.15904414
              -0.01207370                7.99392767               98.20544247                0.52835138               -0.05987172               -0.04816926                0.17055788                0.00012509                0.03929538               -0.00418358
               0.98732758                7.99613079               98.21208892                0.32187938               -0.05594296               -0.06621672                0.22484893               -0.01702738                0.19165889               -0.06362226
               1.98680744                7.99795793               98.22178009                0.46929255               -0.04696306               -0.07864475                0.27540862               -0.02093128                0.29563616               -0.05808131
               2.98638832                7.99974380               98.22952515                0.39391645               -0.01951981               -0.09211898                0.23864857               -0.03096264                0.23329230               -0.14003783
               3.98641704                8.00123042               98.23723355                0.37351210                0.00687759               -0.09263613                0.23821513               -0.04180295                0.18936101               -0.23838365
               4.98652587                8.00262241               98.24220433                0.39238163                0.00271460               -0.08817555                0.23702653               -0.02448011               -0.00143761               -0.24397679
               5.98647133                8.00395915               98.24404772                0.42799624               -0.01426802               -0.07743745                0.23166861               -0.00590580               -0.14746739               -0.21201584
               6.98624051                8.00518274               98.24433184                0.45013353               -0.03213356               -0.06432511                0.22505288                0.00028279               -0.18824814               -0.18325268
               7.98582866                8.00626854               98.24426606                0.45695471               -0.05199541               -0.05197982                0.22483539                0.00032338               -0.16364400               -0.16367250
               8.98520060                8.00723888               98.24455903                0.46065289               -0.07088952               -0.04136685                0.23144900                0.00033376               -0.09678000               -0.15209570
               9.98441087                8.00811961               98.24580380                0.72879499               -0.07897301               -0.03022484                0.22755893                0.00535617               -0.05996366               -0.14500210
              -0.01416149                8.99343397               98.20553611                0.52943765               -0.05883962               -0.05028875                0.17322920                0.00023550                0.04101893                0.01208318
               0.98525012                8.99539866               98.21186017                0.32904851               -0.04714137               -0.07480198                0.23304971               -0.01367462                0.22073145               -0.04171279
               1.98489569                8.99706064               98.22173470                0.49023967               -0.03602363               -0.09404758                0.27988585               -0.01542523                0.31901665               -0.03485919
               2.98452964                8.99874794               98.22898558                0.41968741               -0.01541492               -0.09972462                0.24933382               -0.01758637                0.21558116               -0.08709611
               3.98458739                9.00024291               98.23614228                0.39031322                0.01854044               -0.10458671                0.24851920               -0.02539269                0.18859268               -0.14443168
               4.98490045                9.00166382               98.24131544                0.40098446                0.02531611               -0.10362410                0.24313861               -0.01531881                0.03122865               -0.14881384
               5.98509371                9.00309730               98.24361904                0.43186912                0.00692123               -0.09391105                0.23648519               -0.00135751               -0.11878284               -0.12724155
               6.98503888                9.00444277               98.24427300                0.45366172               -0.01737726               -0.08184530                0.23121669                0.00228780               -0.17079681               -0.10866513
               7.98474616                9.00564057               98.24449526                0.46066458               -0.04137505               -0.07088548                0.23145725                0.00033790               -0.15208555               -0.09680213
               8.98421138                9.00670414               98.24498550                0.46241947               -0.06208024               -0.06207834                0.23828337               -0.00091957               -0.09042237               -0.09042588
               9.98350456                9.00768416               98.24631381                0.72814866               -0.07068168               -0.05374597                0.23578237                0.00241701               -0.05472111               -0.08684421
              -0.01599836                9.99292189               98.20575594                0.76488585               -0.05742213               -0.05120789                0.17389243               -0.01240142                0.07056974                0.02092560
               0.98342742                9.99463475               98.21198383                0.67344298               -0.04259960               -0.07639062                0.23459103               -0.02451503                0.26667484               -0.03840057
               1.98314965                9.99607698               98.22214443                0.75901815               -0.02865505               -0.09836573                0.26662562               -0.01887557                0.35381885               -0.02267747
               2.98285432                9.99774930               98.22931784                0.71940935               -0.00781754               -0.09986329                0.23543713               -0.01444708                0.24398461               -0.05223068
               3.98299330                9.99913868               98.23654188                0.70130634                0.02553896               -0.11042246                0.23509239               -0.01937762                0.23025151               -0.09196315
               4.98336510               10.00054992               98.24194418                0.70290307                0.03359696               -0.11139012                0.22822568               -0.00642297                0.06901661               -0.09489576
               5.98366524               10.00208093               98.24450363                0.71679285                0.01889519               -0.10163744                0.22541999                0.00694843               -0.09565561               -0.08190217
               6.98374300               10.00354583               98.24533111                0.72671469               -0.00455969               -0.08969386                0.22475143                0.00890792               -0.15905320               -0.06904527
               7.98357405               10.00485083               98.24567635                0.72881731               -0.03021927               -0.07897331                0.22756846                0.00536244               -0.14502753               -0.05997549
               8.98313862               10.00599731               98.24625008                0.72816026               -0.05374321               -0.07068292                0.23578533                0.00241699               -0.08686782               -0.05471772
               9.98249918               10.00704469               98.24760801                0.86209933               -0.06394370               -0.06394715                0.23425889                0.00419959               -0.05169976               -0.05167441
              -0.00633071               -0.00225480               99.20135402                0.70678874               -0.01118824               -0.01118597                0.02310560                0.04598729                0.00937123                0.00935148
               0.99355741               -0.00099764               99.20424271                0.44395689               -0.02765342               -0.04718282                0.09854611                0.06667519               -0.01869412                0.02371887
               1.99311623                0.00139252               99.20664236                0.49256316               -0.07012090               -0.07120177                0.11286183                0.04319961               -0.11546077                0.06157240
               2.99215499                0.00256894               99.20748617                0.50811050               -0.08465341               -0.02930551                0.10791693               -0.01462086               -0.11399526                0.09370719
               3.99142316                0.00265355               99.20782470                0.49775473               -0.05931835               -0.04772094                0.13175164               -0.04357987               -0.06303024                0.06633313
               4.99096863                0.00232310               99.20792956                0.48916176               -0.03910181               -0.06865250                0.14772192               -0.02784814               -0.03864921                0.03197174
               5.99064112                0.00204754               99.20782690                0.48733054               -0.03396790               -0.07095677                0.15076249               -0.00072236               -0.02837292                0.01692146
               6.99028927                0.00192250               99.20766943                0.48894497               -0.04053448               -0.06472684                0.15198509                0.00563179               -0.01693675                0.01723088
               7.98983043                0.00196932               99.20760812                0.49127071               -0.04852836               -0.05942451                0.15231069                0.00266916               -0.00237105                0.02197314
               8.98931870                0.00220889               99.20775750                0.49236446               -0.04889449               -0.05612258                0.15087806                0.00010156                0.01036636                0.02118503
               9.98885254                0.00281832               99.20803985                0.74606286               -0.04661597               -0.05770344                0.14992024               -0.02933185                0.01961655                0.04452942
              -0.00712799                0.99763334               99.20417813                0.44398088               -0.04715080               -0.02762043                0.09851716                0.06662757                0.02372827               -0.01869391
               0.99240051                0.99853053               99.20731538                0.01046949               -0.05535404               -0.05540269                0.19693037                0.09922535                0.12648882                0.12633951
               1.99176493                1.00068050               99.21214848                0.25670632               -0.05111175               -0.11983166                0.40016068                0.07194732                0.28764104                0.68534883
               2.99137827                1.00227588               99.21544144                0.51514394               -0.03273281               -0.03069695                0.29881039               -0.01488247                0.13743978                0.34944713
               3.99111028                1.00217634               99.21620817                0.46373155               -0.01925591               -0.03742939                0.21457907               -0.06972235               -0.02877281                0.16922045
               4.99099315                1.00163658               99.21593243                0.34106125               -0.01380379               -0.06168681                0.20561587               -0.04836660               -0.06500952                0.12087374
               5.99083420                1.00133797               99.21552167                0.27967605               -0.03042269               -0.05988779                0.23780388               -0.01091611               -0.05506217                0.11208787
               6.99038470                1.00127523               99.21519433                0.26422650               -0.05601372               -0.03977689                0.26462452                0.00021500               -0.04699416                0.13289887
               7.98971393                1.00137507               99.21497854                0.26655632               -0.07447424               -0.02204819                0.27842835               -0.00374003               -0.04014434                0.15822450
               8.98889521                1.00164767               99.21490502                0.27652663               -0.08820662               -0.01310901                0.28355900               -0.00273345               -0.02940081                0.17268281
               9.98794979                1.00224129               99.21510553                0.64359067               -0.09454201               -0.01944009                0.28464765               -0.01571631               -0.03587293                0.20016796
              -0.00679253                1.99719280               99.20651366                0.49258335               -0.07127148               -0.07006796                0.11286371                0.04313165                0.06134812               -0.11545522
               0.99249476                1.99789430               99.21208120                0.25623399               -0.11988273               -0.05112588                0.40005343                0.07205210                0.68541216                0.28754044
               1.99080982                1.99899589               99.23099070                0.57771061               -0.10666268               -0.10679911                0.39923095                0.20067239                0.53720635                0.53629140
               2.99036151                2.00195500               99.22884410                0.63645440               -0.00709025               -0.03940358                0.13976624                0.13909773               -0.27692133                0.35013431
               3.99066801                2.00190496               99.22684215                0.59848752                0.02390801               -0.01292891                0.12181161               -0.04495782               -0.20867805                0.25824150
               4.99083967                2.00108937               99.22590206                0.50757361                0.00580663               -0.03538747                0.16047362               -0.05274816               -0.10595447                0.19872441
               5.99078415                2.00084978               99.22522553                0.47483494               -0.02915986               -0.02970662                0.23158202               -0.01218498               -0.05054042                0.21392271
               6.99025647                2.00112696               99.22506338                0.47722521               -0.07004769               -0.01124621                0.27941243                0.00408173               -0.02343137                0.24704940
               7.98938319                2.00152835               99.22504580                0.48618828               -0.09293273                0.00395793                0.28701715               -0.00089917               -0.02708760                0.25946429
               8.98839781                2.00194671               99.22499948                0.49963152               -0.10161104                0.01181979                0.27493434               -0.00651489               -0.02268490                0.26424436
               9.98735097                2.00242952               99.22524029                0.75602823               -0.10468415                0.01250674                0.25383068               -0.00784486               -0.01801384                0.27644100
              -0.00766837                2.99623198               99.20729355                0.50811133               -0.02931741               -0.08463180                0.10791679               -0.01457746                0.09365375               -0.11401543
               0.99203845                2.99750801               99.21531246                0.51514997               -0.03069713               -0.03271906                0.29876114               -0.01478117                0.34950747                0.13762519
               1.99171769                2.99854452               99.22878152                0.63645955               -0.03936527               -0.00724597                0.13977177                0.13925815                0.35011945               -0.27692450
               2.99125115                3.00148781               99.23508020                0.32879433               -0.03204673               -0.03209828                0.05761021                0.13200657                0.03721092                0.03739740
               3.99107675                3.00191776               99.23628299                0.33137239               -0.01288896                0.01749370                0.08312364               -0.06308742               -0.07234031                0.15635823
               4.99099337                3.00092883               99.23512662                0.35202190               -0.02619223                0.05539100                0.12907160               -0.12173250               -0.14576661                0.23373964
               5.99055291                3.00074384               99.23386837                0.37101574               -0.06028033                0.06501680                0.17460420               -0.06939050               -0.13750749                0.24145360
               6.98978776                3.00105031               99.23293662                0.38041927               -0.08383585                0.05623474                0.20226990               -0.03665370               -0.11547331                0.20690174
               7.98887619                3.00145423               99.23221961                0.38780808               -0.09620087                0.04713866                0.21343061               -0.02356317               -0.09355711                0.16091870
               8.98786375                3.00188406               99.23177926                0.39947660               -0.10244554                0.04257581                0.21580630               -0.01709196               -0.05607555                0.13805819
               9.98682728                3.00249143               99.23195760                0.70326332               -0.10364670                0.05330091                0.19645735               -0.02296000               -0.03134393                0.15660019
              -0.00963613                3.99550016               99.20756845                0.49768245               -0.04772712               -0.05931852                0.13176951               -0.04356619                0.06635723               -0.06301862
               0.98988660                3.99723992               99.21601679                0.46393867               -0.03743434               -0.01926099                0.21454973               -0.06965871                0.16915804               -0.02868669
               1.98961518                3.99885097               99.22671442                0.59849061               -0.01291025                0.02391548                0.12168220               -0.04486907                0.25813664               -0.20866734
               2.98962839                4.00131303               99.23622038                0.33137390                0.01750321               -0.01289658                0.08309576               -0.06303972                0.15624427               -0.07229042
               3.98996525                4.00225484               99.24439261                0.38087110               -0.00247266               -0.00244233                0.20252180               -0.11691314                0.09048854                0.09055864
               4.98957894                4.00219719               99.24516993                0.39754766               -0.03451942                0.07545134                0.19128005               -0.15018250               -0.19781578                0.22451185
               5.98927486                4.00215012               99.24347811                0.40614264               -0.03829689                0.10474011                0.18946627               -0.11875748               -0.24806869                0.22326197
               6.98881300                4.00225166               99.24146609                0.40099510               -0.05983439                0.10618494                0.20137894               -0.08113288               -0.21771621                0.18333993
               7.98807817                4.00247113               99.23980067                0.39969838               -0.08971117                0.10282596                0.22039424               -0.05701992               -0.16766058                0.14873094
               8.98701878                4.00279823               99.23886280                0.40682192               -0.12005602                0.10241112                0.23491047               -0.03544954               -0.09507999                0.14140048
               9.98567705                4.00349554               99.23913954                0.70463042               -0.13417285                0.10512067                0.22144428               -0.03047976               -0.07004706                0.17392860
              -0.01201922                4.99504561               99.20760970                0.48919094               -0.06863065               -0.03910625                0.14771597               -0.02784779                0.03202060               -0.03858780
               0.98729447                4.99712279               99.21567751                0.34110573               -0.06167913               -0.01378979                0.20559191               -0.04832650                0.12086432               -0.06501019
               1.98674719                4.99902283               99.22571107                0.50746616               -0.03539926                0.00582794                0.16043002               -0.05268975                0.19867051               -0.10593830
               2.98658649                5.00122988               99.23499990                0.35204259                0.05535697               -0.02616805                0.12908394               -0.12171097                0.23366768               -0.14583637
               3.98785433                5.00186892               99.24510632                0.39753177                0.07539765               -0.03448536                0.19128063               -0.15016708                0.22443806               -0.19780974
               4.98809444                5.00243786               99.24840748                0.38663495                0.01344771                0.01348875                0.18994132               -0.10835000               -0.09983357               -0.09982813
               5.98812329                5.00283864               99.24789397                0.39536190               -0.01251699                0.05560436                0.19018093               -0.08366103               -0.20965760               -0.05849341
               6.98784410                5.00317401               99.24624927                0.39756344               -0.04670356                0.08182954                0.19247089               -0.06641266               -0.21044050               -0.03553080
               7.98718922                5.00351075               99.24472089                0.40227995               -0.08568791                0.09663899                0.20591688               -0.05150988               -0.16658057               -0.01591385
               8.98613034                5.00393229               99.24398407                0.41101472               -0.11830774                0.10668587                0.21772523               -0.03011884               -0.09451612                0.01108196
               9.98482306                5.00459384               99.24449065                0.70474590               -0.13072781                0.10464136                0.20490381               -0.01224150               -0.06767170                0.04525137
              -0.01434744                5.99471803               99.20744394                0.48728017               -0.07097062               -0.03397260                0.15076599               -0.00071220                0.01691948               -0.02833577
               0.98494285                5.99696413               99.21520271                0.27963866               -0.05991285               -0.03039847                0.23783043               -0.01090924                0.11208087               -0.05509552
               1.98445430                5.99896753               99.22497030                0.47485409               -0.02973819               -0.02914649                0.23161893               -0.01217802                0.21390720               -0.05056148
               2.98434809                6.00078967               99.23367681                0.37105838                0.06498142               -0.06025831                0.17462597               -0.06938196                0.24144190               -0.13754739
               3.98575393                6.00156513               99.24335036                0.40612165                0.10470646               -0.03827074                0.18944914               -0.11874047                0.22319981               -0.24806564
               4.98644222                6.00246696               99.24783007                0.39532418                0.05557798               -0.01249832                0.19019336               -0.08365425               -0.05849579               -0.20965759
               5.98686549                6.00326221               99.24834907                0.40312767                0.01852121                0.01854856                0.20569035               -0.06317792               -0.17767703               -0.17771416
               6.98681264                6.00388825               99.24742290                0.40403143               -0.02878983                0.04529393                0.21046676               -0.05363590               -0.18677669               -0.15172866
               7.98628969                6.00440391               99.24645596                0.40699968               -0.07396639                0.06429386                0.22024791               -0.04243815               -0.14624695               -0.12920642
               8.98533331                6.00493195               99.24618077                0.41344017               -0.10902874                0.07689039                0.22825458               -0.02230508               -0.08064232               -0.10648241
               9.98410912                6.00558837               99.24699068                0.70535583               -0.12241960                0.08045749                0.21585532               -0.00468172               -0.05801763               -0.08060749
              -0.01652565                6.99436616               99.20722231                0.48887700               -0.06475547               -0.04054184                0.15203952                0.00562359                0.01725797               -0.01696870
               0.98282679                6.99651482               99.21481122                0.26434650               -0.03981288               -0.05600120                0.26467748                0.00022206                0.13289589               -0.04701294
               1.98267809                6.99843990               99.22474393                0.47722244               -0.01127746               -0.07003029                0.27936301                0.00409636                0.24699409               -0.02343189
               2.98260124                7.00002471               99.23268096                0.38040155                0.05620723               -0.08381396                0.20225740               -0.03663482                0.20687204               -0.11547118
               3.98380223                7.00110350               99.24127455                0.40100782                0.10615173               -0.05981697                0.20138034               -0.08111241                0.18331899               -0.21771401
               4.98472428                7.00218789               99.24612176                0.39754791                0.08181057               -0.04669228                0.19248026               -0.06641754               -0.03556055               -0.21044655
               5.98543845                7.00320961               99.24735893                0.40404058                0.04527017               -0.02876935                0.21047647               -0.05363428               -0.15171815               -0.18679606
               6.98562968                7.00407988               99.24708014                0.40478286               -0.00708461               -0.00705643                0.22157539               -0.04661606               -0.16463992               -0.16466359
               7.98529675                7.00479663               99.24664085                0.40748373               -0.05649523                0.01247142                0.23415265               -0.03748104               -0.12837681               -0.14875037
               8.98449978                7.00547009               99.24675764                0.41272104               -0.09400832                0.02735324                0.24382283               -0.01985634               -0.06987088               -0.13573039
               9.98341659                7.00620299               99.24779466                0.70396455               -0.10831899                0.03703649                0.23418988               -0.00179646               -0.04802749               -0.12079753
              -0.01853229                7.99390720               99.20709633                0.49125955               -0.05941550               -0.04853758                0.15233432                0.00265658                0.02202170               -0.00240376
               0.98087355                7.99584410               99.21453104                0.26666557               -0.02206855               -0.07446491                0.27844314               -0.00372557                0.15826660               -0.04015822
               1.98102634                7.99756692               99.22466236                0.48616105                0.00391181               -0.09290870                0.28697125               -0.00087984                0.25937252               -0.02710960
               2.98095179                7.99911339               99.23189976                0.38779633                0.04710835               -0.09618696                0.21344386               -0.02355728                0.16087397               -0.09356280
               3.98196851                8.00036879               99.23954510                0.39965119                0.10279835               -0.08970603                0.22043305               -0.05701433                0.14872839               -0.16767889
               4.98300776                8.00153312               99.24452932                0.40229332                0.09661520               -0.08568000                0.20593750               -0.05150086               -0.01589746               -0.16661129
               5.98390081                8.00268682               99.24632836                0.40700939                0.06427745               -0.07395223                0.22024667               -0.04244232               -0.12919377               -0.14625854
               6.98429331                8.00374712               99.24657709                0.40750728                0.01245259               -0.05648281                0.23414730               -0.03747433               -0.14874139               -0.12839110
               7.98414986                8.00465333               99.24655287                0.40973857               -0.03817404               -0.03816319                0.24763370               -0.03211639               -0.11737780               -0.11738530
               8.98352983                8.00547901               99.24695978                0.41294001               -0.07712298               -0.02310933                0.25837878               -0.01862965               -0.06367808               -0.10990205
               9.98260740                8.00632910               99.24814878                0.70244844               -0.09224241               -0.01178806                0.25109307               -0.00266854               -0.04045467               -0.10130896
              -0.02034633                8.99339541               99.20718142                0.49243464               -0.05611109               -0.04889306                0.15086528                0.00009170                0.02120349                0.01035008
               0.97909256                8.99502552               99.21439314                0.27655276               -0.01312320               -0.08818896                0.28352467               -0.00273918                0.17269227               -0.02940367
               1.97939120                8.99658173               99.22455138                0.49959526                0.01178360               -0.10160232                0.27494317               -0.00652238                0.26418366               -0.02272648
               2.97932823                8.99810097               99.23139527                0.39949144                0.04255103               -0.10244289                0.21581989               -0.01709416                0.13803994               -0.05608411
               3.98024222                8.99930938               99.23854315                0.40681731                0.10240020               -0.12006049                0.23493726               -0.03544892                0.14138931               -0.09509176
               4.98137623                9.00047429               99.24372864                0.41103204                0.10666869               -0.11830776                0.21774963               -0.03010203                0.01110645               -0.09452634
               5.98237560                9.00173057               99.24598943                0.41341379                0.07687236               -0.10902055                0.22827033               -0.02230161               -0.10647656               -0.08065881
               6.98291368                9.00295023               99.24663018                0.41274603                0.02734668               -0.09400352                0.24382558               -0.01985123               -0.13572170               -0.06988389
               7.98292253                9.00403336               99.24689607                0.41290990               -0.02311296               -0.07711963                0.25837911               -0.01862607               -0.10990442               -0.06368599
               8.98245142                9.00500791               99.24750039                0.41364001               -0.06297430               -0.06297279                0.27102740               -0.01190598               -0.05989966               -0.05990778
               9.98166304                9.00596723               99.24878856                0.70174749               -0.07883752               -0.05302651                0.26626258               -0.00148092               -0.03596214               -0.05560210
              -0.02179068                9.99292934               99.20739953                0.74600308               -0.05768615               -0.04660746                0.14987708               -0.02933635                0.04451232                0.01960999
               0.97763245                9.99408032               99.21452937                0.64350803               -0.01944370               -0.09452008                0.28456260               -0.01573321                0.20013748               -0.03585179
               1.97782044                9.99553488               99.22472772                0.75598494                0.01248992               -0.10468519                0.25385089               -0.00786556                0.27641297               -0.01805523
               2.97788225                9.99706453               99.23150965                0.70329271                0.05328850               -0.10364389                0.19646344               -0.02296224                0.15662019               -0.03135035
               3.97888621                9.99796758               99.23875612                0.70466626                0.10511396               -0.13418008                0.22145758               -0.03047985                0.17395471               -0.07004729
               4.97998453                9.99916696               99.24417166                0.70476627                0.10463139               -0.13073280                0.20492333               -0.01222868                0.04525497               -0.06766341
               5.98097884               10.00050641               99.24673553                0.70533007                0.08044777               -0.12241593                0.21587593               -0.00467145               -0.08061797               -0.05803805
               6.98159349               10.00186705               99.24760352                0.70398016                0.03704100               -0.10831799                0.23418671               -0.00179253               -0.12078535               -0.04803506
               7.98171966               10.00311094               99.24802137                0.70245721               -0.01178227               -0.09224208                0.25109812               -0.00266167               -0.10133214               -0.04046277
               8.98135784               10.00421956               99.24872467                0.70175491               -0.05302571               -0.07883513                0.26627790               -0.00147652               -0.05561411               -0.03598557
               9.98065915               10.00526857               99.25005602                0.84820304               -0.06986966               -0.06986594                0.26359415                0.00451115               -0.03311226               -0.03311506
              -0.00961764               -0.00547710              100.20157889                1.00000000               -0.01878432               -0.01878247                0.02248719                0.00432775                0.02318361                0.02317052
               0.99019452               -0.00442829              100.20509766                1.00000000               -0.01189840               -0.03300480                0.08549498               -0.08782999               -0.03217309                0.05735634
               1.99014440               -0.00493840              100.20766122                1.00000000                0.02270926               -0.14059835                0.10188613               -0.04943473               -0.11639141                0.24299134
               2.99064871               -0.00559070              100.20871350                1.00000000                0.03563830               -0.08322152                0.12273256               -0.02884439               -0.06973681                0.08031305
               3.99085716               -0.00566638              100.20927906                1.00000000                0.00484017               -0.06049223                0.14543569               -0.03062024               -0.02089239                0.03938211
               4.99074551               -0.00573573              100.20942764                1.00000000               -0.01467579               -0.07207781                0.14980792               -0.01657627               -0.02388230                0.06617217
               5.99056365               -0.00596495              100.20924765                1.00000000               -0.02405007               -0.07172399                0.14207457               -0.00508954               -0.02613134                0.10531270
               6.99026451               -0.00607847              100.20905997                1.00000000               -0.03921435               -0.06520531                0.13905327                0.00093534               -0.01484396                0.11967789
               7.98977936               -0.00593737              100.20900029                1.00000000               -0.05338955               -0.05703280                0.13921715                0.00400892               -0.00162324                0.11983961
               8.98919672               -0.00554169              100.20912965                1.00000000               -0.05213602               -0.05052013                0.13721445                0.00420648                0.00751396                0.11630847
               9.98873664               -0.00469460              100.20939454                1.00000000               -0.04600781               -0.05304593                0.13546967               -0.04396477                0.01489916                0.13451096
              -0.01062317                0.99433507              100.20503291                1.00000000               -0.03299580               -0.01188793                0.08547810               -0.08775958                0.05737761               -0.03215880
               0.98904687                0.99524166              100.20910187                1.00000000                0.04272136                0.04261566                0.17864907               -0.27328826                0.23409328                0.23400804
               1.99023125                0.99365562              100.21642205                1.00000000                0.08386936                0.19795985                0.42735681               -0.05134853                0.27535143                0.56089240
               2.99072425                0.99357709              100.21767626                1.00000000                0.01961105                0.07056923                0.22348174                0.00641295                0.01313665                0.14248560
               3.99062347                0.99372869              100.21799281                1.00000000                0.00023865               -0.02522266                0.17846435               -0.03008461               -0.02508369                0.07117843
               4.99072903                0.99354350              100.21814819                1.00000000                0.00303249               -0.05588406                0.22157645               -0.02605919               -0.01039017                0.08996849
               5.99068412                0.99331781              100.21831326                1.00000000               -0.02344767               -0.01970074                0.27915894               -0.00623194               -0.00953147                0.12722632
               6.99026007                0.99326947              100.21825772                1.00000000               -0.05665336                0.02945411                0.30633908                0.00675806               -0.02285658                0.14963554
               7.98955106                0.99349230              100.21810538                1.00000000               -0.08213403                0.05655403                0.31268388                0.01323756               -0.02700700                0.15691881
               8.98861739                0.99395311              100.21804332                1.00000000               -0.10505792                0.06697284                0.31382986                0.01893278               -0.02042222                0.15815333
               9.98744990                0.99477495              100.21825257                1.00000000               -0.11674956                0.05328132                0.31470396                0.00111498               -0.02906380                0.17031163
              -0.01318601                1.99428514              100.20753226                1.00000000               -0.14057796                0.02268312                0.10186047               -0.04953221                0.24298039               -0.11637669
               0.98540821                1.99642403              100.21635555                1.00000000                0.19840067                0.08380850                0.42743537               -0.05175238                0.56117332                0.27525127
               1.99078200                1.99902080              100.23292883                1.00000000                0.26478407                0.26472729                0.19381355               -0.26567089                0.62748014                0.62632906
               2.99070389                1.99582069              100.22896080                1.00000000               -0.02464697                0.22334435                0.01166991               -0.40860589               -0.23230730                0.22798366
               3.99028906                1.99382916              100.22759792                1.00000000               -0.00343419                0.00148346                0.07557724               -0.14701559               -0.11527638                0.12172744
               4.99063520                1.99314659              100.22741318                1.00000000                0.02119834               -0.01979279                0.15111191               -0.00492831               -0.00871779                0.11210737
               5.99071303                1.99364104              100.22783249                1.00000000               -0.02050111                0.01823286                0.26069618                0.05492548                0.02543875                0.14190718
               6.99022518                1.99451061              100.22806419                1.00000000               -0.06762768                0.06359994                0.30008089                0.05247027                0.00045755                0.16495984
               7.98936047                1.99519371              100.22790421                1.00000000               -0.09662278                0.08988151                0.28584109                0.02965237               -0.02138977                0.16693290
               8.98829273                1.99579777              100.22768183                1.00000000               -0.11226032                0.09828801                0.26823475                0.01375714               -0.01904595                0.16721663
               9.98711527                1.99637103              100.22773347                1.00000000               -0.11774593                0.09283952                0.24931757                0.01445793               -0.01840696                0.16626180
              -0.01589159                2.99478873              100.20852069                1.00000000               -0.08322486                0.03561982                0.12271386               -0.02881256                0.08035442               -0.06977094
               0.98327616                2.99691783              100.21754746                1.00000000                0.07063829                0.01963629                0.22349921                0.00639000                0.14267627                0.01325742
               1.98552117                2.99895016              100.22889881                1.00000000                0.22338074               -0.02423214                0.01172915               -0.40905676                0.22820361               -0.23238747
               2.98774377                2.99804398              100.23450456                1.00000000                0.24180423                0.24183490               -0.05756428               -0.72457393                0.03327015                0.03337645
               3.99035726                2.99375836              100.23657896                1.00000000                0.15374063                0.22492884                0.02959764               -0.46055717                0.01661720                0.10021498
               4.99081858                2.99314764              100.23627589                1.00000000                0.00306796                0.22072002                0.11492719               -0.10603236               -0.06798210                0.17514700
               5.99041862                2.99368247              100.23556889                1.00000000               -0.05308876                0.16850080                0.17005197                0.00580353               -0.08774267                0.14857587
               6.98975681                2.99454147              100.23478962                1.00000000               -0.07808354                0.12653851                0.18529994                0.02872473               -0.07587370                0.10662290
               7.98885694                2.99528993              100.23411332                1.00000000               -0.10207977                0.10675370                0.18937160                0.01353380               -0.05712821                0.08322786
               8.98771521                2.99591887              100.23368554                1.00000000               -0.11322070                0.09522417                0.19062803               -0.00876701               -0.03577962                0.07740997
               9.98659253                2.99663174              100.23369479                1.00000000               -0.11226833                0.10564916                0.17371950               -0.03660871               -0.02254941                0.09509039
              -0.01802046                3.99499753              100.20902335                1.00000000               -0.06049593                0.00487649                0.14548943               -0.03062092                0.03933785               -0.02088608
               0.98137458                3.99681675              100.21780106                1.00000000               -0.02524059                0.00022792                0.17842703               -0.03004477                0.07112033               -0.02506354
               1.98147472                3.99853616              100.22746980                1.00000000                0.00148173               -0.00340093                0.07553814               -0.14705669                0.12170090               -0.11534720
               2.98140421                4.00065739              100.23651600                1.00000000                0.22497643                0.15373861                0.02956181               -0.46056716                0.10014290                0.01668208
               3.98597425                3.99832774              100.24592102                1.00000000                0.35931192                0.35929922                0.15284150               -0.51498939                0.09902527                0.09908038
               4.98859045                3.99756099              100.24647849                1.00000000                0.17305063                0.36839330                0.13085602               -0.30133399               -0.14856328                0.18940589
               5.98943527                3.99701106              100.24492674                1.00000000                0.03008845                0.31114619                0.14486318               -0.15096418               -0.14716844                0.16369279
               6.98919222                3.99704138              100.24321431                1.00000000               -0.05907560                0.26478351                0.17482186               -0.06637423               -0.11354706                0.12652155
               7.98825375                3.99732878              100.24189737                1.00000000               -0.12083184                0.23506708                0.20967010               -0.04601843               -0.08513655                0.10581977
               8.98677558                3.99770225              100.24116042                1.00000000               -0.16481950                0.21886302                0.22976185               -0.04183175               -0.05145554                0.10240958
               9.98495736                3.99848401              100.24135465                1.00000000               -0.18182186                0.21662667                0.22151100               -0.05630399               -0.05254535                0.13220225
              -0.02014245                4.99488626              100.20910822                1.00000000               -0.07209148               -0.01465146                0.14985214               -0.01657042                0.06610888               -0.02387439
               0.97913664                4.99692239              100.21789253                1.00000000               -0.05590757                0.00304859                0.22150152               -0.02600966                0.08988042               -0.01037536
               1.97873940                4.99888215              100.22722149                1.00000000               -0.01978971                0.02121530                0.15104162               -0.00483540                0.11206897               -0.00867212
               2.97874085                5.00111875              100.23614949                1.00000000                0.22072292                0.00310142                0.11495878               -0.10594497                0.17509992               -0.06802849
               3.98315386                5.00094435              100.24641477                1.00000000                0.36838724                0.17308934                0.13084486               -0.30137059                0.18929791               -0.14857260
               4.98610859                5.00051551              100.24933639                1.00000000                0.23825419                0.23825366                0.09289093               -0.30922064               -0.06327943               -0.06328284
               5.98791895                4.99990540              100.24912087                1.00000000                0.10015039                0.26245225                0.12269008               -0.21568410               -0.10022405               -0.03815086
               6.98811160                4.99983714              100.24774060                1.00000000               -0.03216201                0.26257939                0.14913288               -0.13180434               -0.10357350               -0.02724220
               7.98727570                4.99999127              100.24651441                1.00000000               -0.11941246                0.25388738                0.17935206               -0.09260488               -0.08209664               -0.01779557
               8.98572335                5.00029613              100.24592569                1.00000000               -0.16863890                0.24903243                0.19416156               -0.05933059               -0.04832475               -0.00284567
               9.98390293                5.00096427              100.24636189                1.00000000               -0.18204217                0.24053431                0.18712442               -0.03270308               -0.04839312                0.02311190
              -0.02242413                5.99470450              100.20886456                1.00000000               -0.07173696               -0.02403381                0.14206211               -0.00507643                0.10531050               -0.02609300
               0.97685850                5.99687772              100.21799435                1.00000000               -0.01971047               -0.02339982                0.27916463               -0.00617305                0.12722319               -0.00950549
               1.97718166                5.99896046              100.22757773                1.00000000                0.01823044               -0.02046560                0.26074303                0.05498723                0.14190290                0.02542938
               2.97722311                6.00071941              100.23537769                1.00000000                0.16842104               -0.05304030                0.17008801                0.00582126                0.14855131               -0.08780315
               3.98055008                6.00178953              100.24479871                1.00000000                0.31109399                0.03011337                0.14483457               -0.15097876                0.16360743               -0.14716748
               4.98344499                6.00232607              100.24905754                1.00000000                0.26249319                0.10018266                0.12274638               -0.21574089               -0.03814759               -0.10024905
               5.98579995                6.00226010              100.25003021                1.00000000                0.15126330                0.15127246                0.16811431               -0.20863154               -0.09227156               -0.09227890
               6.98647026                6.00229297              100.24934319                1.00000000                0.00713615                0.17223310                0.19202915               -0.15986398               -0.10672876               -0.08173159
               7.98594267                6.00240653              100.24858041                1.00000000               -0.09271410                0.18084829                0.21244568               -0.11674847               -0.08307113               -0.07152006
               8.98461597                6.00268290              100.24837582                1.00000000               -0.14878217                0.18708669                0.21950446               -0.06653194               -0.04695313               -0.05733099
               9.98296703                6.00329470              100.24907603                1.00000000               -0.16489481                0.18751655                0.20853546               -0.02775115               -0.04418799               -0.03715778
              -0.02459041                6.99440559              100.20861342                1.00000000               -0.06523697               -0.03920100                0.13911091                0.00095324                0.11970559               -0.01482781
               0.97475722                6.99645440              100.21787523                1.00000000                0.02939327               -0.05660111                0.30640123                0.00678176                0.14958233               -0.02287095
               1.97599746                6.99847283              100.22774421                1.00000000                0.06354925               -0.06760846                0.30002734                0.05240257                0.16487243                0.00038262
               2.97602821                7.00005794              100.23453394                1.00000000                0.12650890               -0.07805936                0.18529829                0.02868640                0.10661717               -0.07586039
               3.97852763                7.00154662              100.24302262                1.00000000                0.26474966               -0.05906450                0.17480743               -0.06634042                0.12650307               -0.11351358
               4.98132320                7.00251916              100.24761321                1.00000000                0.26258894               -0.03213838                0.14914439               -0.13180483               -0.02726363               -0.10359559
               5.98377941                7.00293084              100.24927951                1.00000000                0.17223446                0.00716878                0.19205827               -0.15988088               -0.08173727               -0.10675466
               6.98476789                7.00328181              100.24929653                1.00000000                0.03856953                0.03859555                0.22163840               -0.13758470               -0.09621692               -0.09622799
               7.98455080                7.00360824              100.24907876                1.00000000               -0.06316738                0.06295418                0.24379030               -0.10440951               -0.07556295               -0.08692297
               8.98350454                7.00403786              100.24927717                1.00000000               -0.12132493                0.08075949                0.25195229               -0.05892398               -0.04315759               -0.07568370
               9.98212430                7.00471460              100.25020608                1.00000000               -0.13802360                0.09024149                0.24114167               -0.01948881               -0.03633720               -0.06135732
              -0.02650268                7.99392048              100.20848915                1.00000000               -0.05704293               -0.05339022                0.13928176                0.00399880                0.11982447               -0.00167119
               0.97292689                7.99574570              100.21765779                1.00000000                0.05644239               -0.08210705                0.31267463                0.01322929                0.15685155               -0.02706873
               1.97462617                7.99760829              100.22751951                1.00000000                0.08980832               -0.09660427                0.28571554                0.02961473                0.16679483               -0.02139511
               2.97472306                7.99915823              100.23379403                1.00000000                0.10679443               -0.10207871                0.18942642                0.01352040                0.08326154               -0.05711494
               3.97676206                8.00060824              100.24164221                1.00000000                0.23508039               -0.12082787                0.20971129               -0.04603783                0.10580787               -0.08513510
               4.97942466                8.00168330              100.24632308                1.00000000                0.25388131               -0.11941033                0.17937672               -0.09258270               -0.01778718               -0.08212031
               5.98183968                8.00240348              100.24845266                1.00000000                0.18082522               -0.09269447                0.21242987               -0.11675940               -0.07152754               -0.08308748
               6.98304117                8.00306488              100.24901479                1.00000000                0.06293689               -0.06315712                0.24376952               -0.10439762               -0.08691012               -0.07557453
               7.98309842                8.00366561              100.24921873                1.00000000               -0.03550182               -0.03549440                0.26658582               -0.08198662               -0.06955339               -0.06956789
               8.98233113                8.00429809              100.24972661                1.00000000               -0.09373205               -0.01483822                0.27668237               -0.04748618               -0.03952279               -0.06164830
               9.98122378                8.00509953              100.25082566                1.00000000               -0.11073534               -0.00248617                0.26768811               -0.01562183               -0.02845656               -0.05130765
              -0.02816086                8.99333778              100.20855342                1.00000000               -0.05051373               -0.05213057                0.13720011                0.00419152                0.11627103                0.00745374
               0.97133400                8.99481225              100.21753066                1.00000000                0.06690443               -0.10502222                0.31375194                0.01890281                0.15815135               -0.02046225
               1.97317722                8.99654075              100.22723356                1.00000000                0.09823358               -0.11225463                0.26821805                0.01377869                0.16716796               -0.01900093
               2.97329867                8.99801637              100.23330198                1.00000000                0.09522908               -0.11323416                0.19067020               -0.00877094                0.07741762               -0.03580657
               3.97508181                8.99913006              100.24084103                1.00000000                0.21888182               -0.16482121                0.22978766               -0.04185429                0.10238113               -0.05149161
               4.97767631                9.00013095              100.24567043                1.00000000                0.24904195               -0.16863421                0.19417929               -0.05934906               -0.00282181               -0.04835553
               5.98006264                9.00107696              100.24818445                1.00000000                0.18707458               -0.14877555                0.21950168               -0.06654749               -0.05734137               -0.04693645
               6.98141780                9.00201866              100.24914951                1.00000000                0.08076077               -0.12132210                0.25193374               -0.05891576               -0.07566854               -0.04315396
               7.98167786                9.00289835              100.24966284                1.00000000               -0.01484479               -0.09373132                0.27667639               -0.04748631               -0.06164054               -0.03952214
               8.98112090                9.00374110              100.25040604                1.00000000               -0.07344355               -0.07345208                0.29056530               -0.02864603               -0.03424077               -0.03422940
               9.98020899                9.00466488              100.25163906                1.00000000               -0.09119130               -0.06260378                0.28505037               -0.01009973               -0.02210415               -0.02752353
              -0.02936779                9.99287787              100.20875348                1.00000000               -0.05302261               -0.04599099                0.13539556               -0.04395461                0.13444910                0.01486023
               0.97010198                9.99364526              100.21767508                1.00000000                0.05327110               -0.11669987                0.31457138                0.00106463                0.17035112               -0.02906448
               1.97169763                9.99536320              100.22722145                1.00000000                0.09281736               -0.11775480                0.24937336                0.01445486                0.16632006               -0.01837835
               2.97195833                9.99689354              100.23324711                1.00000000                0.10563778               -0.11228233                0.17374584               -0.03660357                0.09508637               -0.02258581
               3.97381038                9.99731181              100.24097103                1.00000000                0.21662290               -0.18182453                0.22149131               -0.05628858                0.13219416               -0.05257692
               4.97629079                9.99831061              100.24604265                1.00000000                0.24053188               -0.18203383                0.18709854               -0.03274441                0.02313160               -0.04841343
               5.97862102                9.99942797              100.24882115                1.00000000                0.18753365               -0.16489900                0.20856228               -0.02777113               -0.03717218               -0.04417358
               6.98004146               10.00063844              100.25001484                1.00000000                0.09026174               -0.13802262                0.24113180               -0.01948274               -0.06134479               -0.03632846
               7.98042626               10.00179099              100.25069831                1.00000000               -0.00248869               -0.11073619                0.26769452               -0.01562973               -0.05130059               -0.02844780
               8.97999168               10.00282905              100.25157563                1.00000000               -0.06260125               -0.09120517                0.28509651               -0.01009837               -0.02753670               -0.02209196
               9.97917423               10.00384745              100.25287989                1.00000000               -0.08174533               -0.08174224                0.28238729               -0.00163514               -0.01806531               -0.01802791
         1          2         13         12        122        123        134        133  
         2          3         14         13        123        124        135        134  
         3          4         15         14        124        125        136        135  
         4          5         16         15        125        126        137        136  
         5          6         17         16        126        127        138        137  
         6          7         18         17        127        128        139        138  
         7          8         19         18        128        129        140        139  
         8          9         20         19        129        130        141        140  
         9         10         21         20        130        131        142        141  
        10         11         22         21        131        132        143        142  
        12         13         24         23        133        134        145        144  
        13         14         25         24        134        135        146        145  
        14         15         26         25        135        136        147        146  
        15         16         27         26        136        137        148        147  
        16         17         28         27        137        138        149        148  
        17         18         29         28        138        139        150        149  
        18         19         30         29        139        140        151        150  
        19         20         31         30        140        141        152        151  
        20         21         32         31        141        142        153        152  
        21         22         33         32        142        143        154        153  
        23         24         35         34        144        145        156        155  
        24         25         36         35        145        146        157        156  
        25         26         37         36        146        147        158        157  
        26         27         38         37        147        148        159        158  
        27         28         39         38        148        149        160        159  
        28         29         40         39        149        150        161        160  
        29         30         41         40        150        151        162        161  
        30         31         42         41        151        152        163        162  
        31         32         43         42        152        153        164        163  
        32         33         44         43        153        154        165        164  
        34         35         46         45        155        156        167        166  
        35         36         47         46        156        157        168        167  
        36         37         48         47        157        158        169        168  
        37         38         49         48        158        159        170        169  
        38         39         50         49        159        160        171        170  
        39         40         51         50        160        161        172        171  
        40         41         52         51        161        162        173        172  
        41         42         53         52        162        163        174        173  
        42         43         54         53        163        164        175        174  
        43         44         55         54        164        165        176        175  
        45         46         57         56        166        167        178        177  
        46         47         58         57        167        168        179        178  
        47         48         59         58        168        169        180        179  
        48         49         60         59        169        170        181        180  
        49         50         61         60        170        171        182        181  
        50         51         62         61        171        172        183        182  
        51         52         63         62        172        173        184        183  
        52         53         64         63        173        174        185        184  
        53         54         65         64        174        175        186        185  
        54         55         66         65        175        176        187        186  
        56         57         68         67        177        178        189        188  
        57         58         69         68        178        179        190        189  
        58         59         70         69        179        180        191        190  
        59         60         71         70        180        181        192        191  
        60         61         72         71        181        182        193        192  
        61         62         73         72        182        183        194        193  
        62         63         74         73        183        184        195        194  
        63         64         75         74        184        185        196        195  
        64         65         76         75        185        186        197        196  
        65         66         77         76        186        187        198        197  
        67         68         79         78        188        189        200        199  
        68         69         80         79        189        190        201        200  
        69         70         81         80        190        191        202        201  
        70         71         82         81        191        192        203        202  
        71         72         83         82        192        193        204        203  
        72         73         84         83        193        194        205        204  
        73         74         85         84        194        195        206        205  
        74         75         86         85        195        196        207        206  
        75         76         87         86        196        197        208        207  
        76         77         88         87        197        198        209        208  
        78         79         90         89        199        200        211        210  
        79         80         91         90        200        201        212        211  
        80         81         92         91        201        202        213        212  
        81         82         93         92        202        203        214        213  
        82         83         94         93        203        204        215        214  
        83         84         95         94        204        205        216        215  
        84         85         96         95        205        206        217        216  
        85         86         97         96        206        207        218        217  
        86         87         98         97        207        208        219        218  
        87         88         99         98        208        209        220        219  
        89         90        101        100        210        211        222        221  
        90         91        102        101        211        212        223        222  
        91         92        103        102        212        213        224        223  
        92         93        104        103        213        214        225        224  
        93         94        105        104        214        215        226        225  
        94         95        106        105        215        216        227        226  
        95         96        107        106        216        217        228        227  
        96         97        108        107        217        218        229        228  
        97         98        109        108        218        219        230        229  
        98         99        110        109        219        220        231        230  
       100        101        112        111        221        222        233        232  
       101        102        113        112        222        223        234        233  
       102        103        114        113        223        224        235        234  
       103        104        115        114        224        225        236        235  
       104        105        116        115        225        226        237        236  
       105        106        117        116        226        227        238        237  
       106        107        118        117        227        228        239        238  
       107        108        119        118        228        229        240        239  
       108        109        120        119        229        230        241        240  
       109        110        121        120        230        231        242        241  
       122        123        134        133        243        244        255        254  
       123        124        135        134        244        245        256        255  
       124        125        136        135        245        246        257        256  
       125        126        137        136        246        247        258        257  
       126        127        138        137        247        248        259        258  
       127        128        139        138        248        249        260        259  
       128        129        140        139        249        250        261        260  
       129        130        141        140        250        251        262        261  
       130        131        142        141        251        252        263        262  
       131        132        143        142        252        253        264        263  
       133        134        145        144        254        255        266        265  
       134        135        146        145        255        256        267        266  
       135        136        147        146        256        257        268        267  
       136        137        148        147        257        258        269        268  
       137        138        149        148        258        259        270        269  
       138        139        150        149        259        260        271        270  
       139        140        151        150        260        261        272        271  
       140        141        152        151        261        262        273        272  
       141        142        153        152        262        263        274        273  
       142        143        154        153        263        264        275        274  
       144        145        156        155        265        266        277        276  
       145        146        157        156        266        267        278        277  
       146        147        158        157        267        268        279        278  
       147        148        159        158        268        269        280        279  
       148        149        160        159        269        270        281        280  
       149        150        161        160        270        271        282        281  
       150        151        162        161        271        272        283        282  
       151        152        163        162        272        273        284        283  
       152        153        164        163        273        274        285        284  
       153        154        165        164        274        275        286        285  
       155        156        167        166        276        277        288        287  
       156        157        168        167        277        278        289        288  
       157        158        169        168        278        279        290        289  
       158        159        170        169        279        280        291        290  
       159        160        171        170        280        281        292        291  
       160        161        172        171        281        282        293        292  
       161        162        173        172        282        283        294        293  
       162        163        174        173        283        284        295        294  
       163        164        175        174        284        285        296        295  
       164        165        176        175        285        286        297        296  
       166        167        178        177        287        288        299        298  
       167        168        179        178        288        289        300        299  
       168        169        180        179        289        290        301        300  
       169        170        181        180        290        291        302        301  
       170        171        182        181        291        292        303        302  
       171        172        183        182        292        293        304        303  
       172        173        184        183        293        294        305        304  
       173        174        185        184        294        295        306        305  
       174        175        186        185        295        296        307        306  
       175        176        187        186        296        297        308        307  
       177        178        189        188        298        299        310        309  
       178        179        190        189        299        300        311        310  
       179        180        191        190        300        301        312        311  
       180        181        192        191        301        302        313        312  
       181        182        193        192        302        303        314        313  
       182        183        194        193        303        304        315        314  
       183        184        195        194        304        305        316        315  
       184        185        196        195        305        306        317        316  
       185        186        197        196        306        307        318        317  
       186        187        198        197        307        308        319        318  
       188        189        200        199        309        310        321        320  
       189        190        201        200        310        311        322        321  
       190        191        202        201        311        312        323        322  
       191        192        203        202        312        313        324        323  
       192        193        204        203        313        314        325        324  
       193        194        205        204        314        315        326        325  
       194        195        206        205        315        316        327        326  
       195        196        207        206        316        317        328        327  
       196        197        208        207        317        318        329        328  
       197        198        209        208        318        319        330        329  
       199        200        211        210        320        321        332        331  
       200        201        212        211        321        322        333        332  
       201        202        213        212        322        323        334        333  
       202        203        214        213        323        324        335        334  
       203        204        215        214        324        325        336        335  
       204        205        216        215        325        326        337        336  
       205        206        217        216        326        327        338        337  
       206        207        218        217        327        328        339        338  
       207        208        219        218        328        329        340        339  
       208        209        220        219        329        330        341        340  
       210        211        222        221        331        332        343        342  
       211        212        223        222        332        333        344        343  
       212        213        224        223        333        334        345        344  
       213        214        225        224        334        335        346        345  
       214        215        226        225        335        336        347        346  
       215        216        227        226        336        337        348        347  
       216        217        228        227        337        338        349        348  
       217        218        229        228        338        339        350        349  
       218        219        230        229        339        340        351        350  
       219        220        231        230        340        341        352        351  
       221        222        233        232        342        343        354        353  
       222        223        234        233        343        344        355        354  
       223        224        235        234        344        345        356        355  
       224        225        236        235        345        346        357        356  
       225        226        237        236        346        347        358        357  
       226        227        238        237        347        348        359        358  
       227        228        239        238        348        349        360        359  
       228        229        240        239        349        350        361        360  
       229        230        241        240        350        351        362        361  
       230        231        242        241        351        352        363        362  
       243        244        255        254        364        365        376        375  
       244        245        256        255        365        366        377        376  
       245        246        257        256        366        367        378        377  
       246        247        258        257        367        368        379        378  
       247        248        259        258        368        369        380        379  
       248        249        260        259        369        370        381        380  
       249        250        261        260        370        371        382        381  
       250        251        262        261        371        372        383        382  
       251        252        263        262        372        373        384        383  
       252        253        264        263        373        374        385        384  
       254        255        266        265        375        376        387        386  
       255        256        267        266        376        377        388        387  
       256        257        268        267        377        378        389        388  
       257        258        269        268        378        379        390        389  
       258        259        270        269        379        380        391        390  
       259        260        271        270        380        381        392        391  
       260        261        272        271        381        382        393        392  
       261        262        273        272        382        383        394        393  
       262        263        274        273        383        384        395        394  
       263        264        275        274        384        385        396        395  
       265        266        277        276        386        387        398        397  
       266        267        278        277        387        388        399        398  
       267        268        279        278        388        389        400        399  
       268        269        280        279        389        390        401        400  
       269        270        281        280        390        391        402        401  
       270        271        282        281        391        392        403        402  
       271        272        283        282        392        393        404        403  
       272        273        284        283        393        394        405        404  
       273        274        285        284        394        395        406        405  
       274        275        286        285        395        396        407        406  
       276        277        288        287        397        398        409        408  
       277        278        289        288        398        399        410        409  
       278        279        290        289        399        400        411        410  
       279        280        291        290        400        401        412        411  
       280        281        292        291        401        402        413        412  
       281        282        293        292        402        403        414        413  
       282        283        294        293        403        404        415        414  
       283        284        295        294        404        405        416        415  
       284        285        296        295        405        406        417        416  
       285        286        297        296        406        407        418        417  
       287        288        299        298        408        409        420        419  
       288        289        300        299        409        410        421        420  
       289        290        301        300        410        411        422        421  
       290        291        302        301        411        412        423        422  
       291        292        303        302        412        413        424        423  
       292        293        304        303        413        414        425        424  
       293        294        305        304        414        415        426        425  
       294        295        306        305        415        416        427        426  
       295        296        307        306        416        417        428        427  
       296        297        308        307        417        418        429        428  
       298        299        310        309        419        420        431        430  
       299        300        311        310        420        421        432        431  
       300        301        312        311        421        422        433        432  
       301        302        313        312        422        423        434        433  
       302        303        314        313        423        424        435        434  
       303        304        315        314        424        425        436        435  
       304        305        316        315        425        426        437        436  
       305        306        317        316        426        427        438        437  
       306        307        318        317        427        428        439        438  
       307        308        319        318        428        429        440        439  
       309        310        321        320        430        431        442        441  
       310        311        322        321        431        432        443        442  
       311        312        323        322        432        433        444        443  
       312        313        324        323        433        434        445        444  
       313        314        325        324        434        435        446        445  
       314        315        326        325        435        436        447        446  
       315        316        327        326        436        437        448        447  
       316        317        328        327        437        438        449        448  
       317        318        329        328        438        439        450        449  
       318        319        330        329        439        440        451        450  
       320        321        332        331        441        442        453        452  
       321        322        333        332        442        443        454        453  
       322        323        334        333        443        444        455        454  
       323        324        335        334        444        445        456        455  
       324        325        336        335        445        446        457        456  
       325        326        337        336        446        447        458        457  
       326        327        338        337        447        448        459        458  
       327        328        339        338        448        449        460        459  
       328        329        340        339        449        450        461        460  
       329        330        341        340        450        451        462        461  
       331        332        343        342        452        453        464        463  
       332        333        344        343        453        454        465        464  
       333        334        345        344        454        455        466        465  
       334        335        346        345        455        456        467        466  
       335        336        347        346        456        457        468        467  
       336        337        348        347        457        458        469        468  
       337        338        349        348        458        459        470        469  
       338        339        350        349        459        460        471        470  
       339        340        351        350        460        461        472        471  
       340        341        352        351        461        462        473        472  
       342        343        354        353        463        464        475        474  
       343        344        355        354        464        465        476        475  
       344        345        356        355        465        466        477        476  
       345        346        357        356        466        467        478        477  
       346        347        358        357        467        468        479        478  
       347        348        359        358        468        469        480        479  
       348        349        360        359        469        470        481        480  
       349        350        361        360        470        471        482        481  
       350        351        362        361        471        472        483        482  
       351        352        363        362        472        473        484        483  
       364        365        376        375        485        486        497        496  
       365        366        377        376        486        487        498        497  
       366        367        378        377        487        488        499        498  
       367        368        379        378        488        489        500        499  
       368        369        380        379        489        490        501        500  
       369        370        381        380        490        491        502        501  
       370        371        382        381        491        492        503        502  
       371        372        383        382        492        493        504        503  
       372        373        384        383        493        494        505        504  
       373        374        385        384        494        495        506        505  
       375        376        387        386        496        497        508        507  
       376        377        388        387        497        498        509        508  
       377        378        389        388        498        499        510        509  
       378        379        390        389        499        500        511        510  
       379        380        391        390        500        501        512        511  
       380        381        392        391        501        502        513        512  
       381        382        393        392        502        503        514        513  
       382        383        394        393        503        504        515        514  
       383        384        395        394        504        505        516        515  
       384        385        396        395        505        506        517        516  
       386        387        398        397        507        508        519        518  
       387        388        399        398        508        509        520        519  
       388        389        400        399        509        510        521        520  
       389        390        401        400        510        511        522        521  
       390        391        402        401        511        512        523        522  
       391        392        403        402        512        513        524        523  
       392        393        404        403        513        514        525        524  
       393        394        405        404        514        515        526        525  
       394        395        406        405        515        516        527        526  
       395        396        407        406        516        517        528        527  
       397        398        409        408        518        519        530        529  
       398        399        410        409        519        520        531        530  
       399        400        411        410        520        521        532        531  
       400        401        412        411        521        522        533        532  
       401        402        413        412        522        523        534        533  
       402        403        414        413        523        524        535        534  
       403        404        415        414        524        525        536        535  
       404        405        416        415        525        526        537        536  
       405        406        417        416        526        527        538        537  
       406        407        418        417        527        528        539        538  
       408        409        420        419        529        530        541        540  
       409        410        421        420        530        531        542        541  
       410        411        422        421        531        532        543        542  
       411        412        423        422        532        533        544        543  
       412        413        424        423        533        534        545        544  
       413        414        425        424        534        535        546        545  
       414        415        426        425        535        536        547        546  
       415        416        427        426        536        537        548        547  
       416        417        428        427        537        538        549        548  
       417        418        429        428        538        539        550        549  
       419        420        431        430        540        541        552        551  
       420        421        432        431        541        542        553        552  
       421        422        433        432        542        543        554        553  
       422        423        434        433        543        544        555        554  
       423        424        435        434        544        545        556        555  
       424        425        436        435        545        546        557        556  
       425        426        437        436        546        547        558        557  
       426        427        438        437        547        548        559        558  
       427        428        439        438        548        549        560        559  
       428        429        440        439        549        550        561        560  
       430        431        442        441        551        552        563        562  
       431        432        443        442        552        553        564        563  
       432        433        444        443        553        554        565        564  
       433        434        445        444        554        555        566        565  
       434        435        446        445        555        556        567        566  
       435        436        447        446        556        557        568        567  
       436        437        448        447        557        558        569        568  
       437        438        449        448        558        559        570        569  
       438        439        450        449        559        560        571        570  
       439        440        451        450        560        561        572        571  
       441        442        453        452        562        563        574        573  
       442        443        454        453        563        564        575        574  
       443        444        455        454        564        565        576        575  
       444        445        456        455        565        566        577        576  
       445        446        457        456        566        567        578        577  
       446        447        458        457        567        568        579        578  
       447        448        459        458        568        569        580        579  
       448        449        460        459        569        570        581        580  
       449        450        461        460        570        571        582        581  
       450        451        462        461        571        572        583        582  
       452        453        464        463        573        574        585        584  
       453        454        465        464        574        575        586        585  
       454        455        466        465        575        576        587        586  
       455        456        467        466        576        577        588        587  
       456        457        468        467        577        578        589        588  
       457        458        469        468        578        579        590        589  
       458        459        470        469        579        580        591        590  
       459        460        471        470        580        581        592        591  
       460        461        472        471        581        582        593        592  
       461        462        473        472        582        583        594        593  
       463        464        475        474        584        585        596        595  
       464        465        476        475        585        586        597        596  
       465        466        477        476        586        587        598        597  
       466        467        478        477        587        588        599        598  
       467        468        479        478        588        589        600        599  
       468        469        480        479        589        590        601        600  
       469        470        481        480        590        591        602        601  
       470        471        482        481        591        592        603        602  
       471        472        483        482        592        593        604        603  
       472        473        484        483        593        594        605        604  
       485        486        497        496        606        607        618        617  
       486        487        498        497        607        608        619        618  
       487        488        499        498        608        609        620        619  
       488        489        500        499        609        610        621        620  
       489        490        501        500        610        611        622        621  
       490        491        502        501        611        612        623        622  
       491        492        503        502        612        613        624        623  
       492        493        504        503        613        614        625        624  
       493        494        505        504        614        615        626        625  
       494        495        506        505        615        616        627        626  
       496        497        508        507        617        618        629        628  
       497        498        509        508        618        619        630        629  
       498        499        510        509        619        620        631        630  
       499        500        511        510        620        621        632        631  
       500        501        512        511        621        622        633        632  
       501        502        513        512        622        623        634        633  
       502        503        514        513        623        624        635        634  
       503        504        515        514        624        625        636        635  
       504        505        516        515        625        626        637        636  
       505        506        517        516        626        627        638        637  
       507        508        519        518        628        629        640        639  
       508        509        520        519        629        630        641        640  
       509        510        521        520        630        631        642        641  
       510        511        522        521        631        632        643        642  
       511        512        523        522        632        633        644        643  
       512        513        524        523        633        634        645        644  
       513        514        525        524        634        635        646        645  
       514        515        526        525        635        636        647        646  
       515        516        527        526        636        637        648        647  
       516        517        528        527        637        638        649        648  
       518        519        530        529        639        640        651        650  
       519        520        531        530        640        641        652        651  
       520        521        532        531        641        642        653        652  
       521        522        533        532        642        643        654        653  
       522        523        534        533        643        644        655        654  
       523        524        535        534        644        645        656        655  
       524        525        536        535        645        646        657        656  
       525        526        537        536        646        647        658        657  
       526        527        538        537        647        648        659        658  
       527        528        539        538        648        649        660        659  
       529        530        541        540        650        651        662        661  
       530        531        542        541        651        652        663        662  
       531        532        543        542        652        653        664        663  
       532        533        544        543        653        654        665        664  
       533        534        545        544        654        655        666        665  
       534        535        546        545        655        656        667        666  
       535        536        547        546        656        657        668        667  
       536        537        548        547        657        658        669        668  
       537        538        549        548        658        659        670        669  
       538        539        550        549        659        660        671        670  
       540        541        552        551        661        662        673        672  
       541        542        553        552        662        663        674        673  
       542        543        554        553        663        664        675        674  
       543        544        555        554        664        665        676        675  
       544        545        556        555        665        666        677        676  
       545        546        557        556        666        667        678        677  
       546        547        558        557        667        668        679        678  
       547        548        559        558        668        669        680        679  
       548        549        560        559        669        670        681        680  
       549        550        561        560        670        671        682        681  
       551        552        563        562        672        673        684        683  
       552        553        564        563        673        674        685        684  
       553        554        565        564        674        675        686        685  
       554        555        566        565        675        676        687        686  
       555        556        567        566        676        677        688        687  
       556        557        568        567        677        678        689        688  
       557        558        569        568        678        679        690        689  
       558        559        570        569        679        680        691        690  
       559        560        571        570        680        681        692        691  
       560        561        572        571        681        682        693        692  
       562        563        574        573        683        684        695        694  
       563        564        575        574        684        685        696        695  
       564        565        576        575        685        686        697        696  
       565        566        577        576        686        687        698        697  
       566        567        578        577        687        688        699        698  
       567        568        579        578        688        689        700        699  
       568        569        580        579        689        690        701        700  
       569        570        581        580        690        691        702        701  
       570        571        582        581        691        692        703        702  
       571        572        583        582        692        693        704        703  
       573        574        585        584        694        695        706        705  
       574        575        586        585        695        696        707        706  
       575        576        587        586        696        697        708        707  
       576        577        588        587        697        698        709        708  
       577        578        589        588        698        699        710        709  
       578        579        590        589        699        700        711        710  
       579        580        591        590        700        701        712        711  
       580        581        592        591        701        702        713        712  
       581        582        593        592        702        703        714        713  
       582        583        594        593        703        704        715        714  
       584        585        596        595        705        706        717        716  
       585        586        597        596        706        707        718        717  
       586        587        598        597        707        708        719        718  
       587        588        599        598        708        709        720        719  
       588        589        600        599        709        710        721        720  
       589        590        601        600        710        711        722        721  
       590        591        602        601        711        712        723        722  
       591        592        603        602        712        713        724        723  
       592        593        604        603        713        714        725        724  
       593        594        605        604        714        715        726        725  
       606        607        618        617        727        728        739        738  
       607        608        619        618        728        729        740        739  
       608        609        620        619        729        730        741        740  
       609        610        621        620        730        731        742        741  
       610        611        622        621        731        732        743        742  
       611        612        623        622        732        733        744        743  
       612        613        624        623        733        734        745        744  
       613        614        625        624        734        735        746        745  
       614        615        626        625        735        736        747        746  
       615        616        627        626        736        737        748        747  
       617        618        629        628        738        739        750        749  
       618        619        630        629        739        740        751        750  
       619        620        631        630        740        741        752        751  
       620        621        632        631        741        742        753        752  
       621        622        633        632        742        743        754        753  
       622        623        634        633        743        744        755        754  
       623        624        635        634        744        745        756        755  
       624        625        636        635        745        746        757        756  
       625        626        637        636        746        747        758        757  
       626        627        638        637        747        748        759        758  
       628        629        640        639        749        750        761        760  
       629        630        641        640        750        751        762        761  
       630        631        642        641        751        752        763        762  
       631        632        643        642        752        753        764        763  
       632        633        644        643        753        754        765        764  
       633        634        645        644        754        755        766        765  
       634        635        646        645        755        756        767        766  
       635        636        647        646        756        757        768        767  
       636        637        648        647        757        758        769        768  
       637        638        649        648        758        759        770        769  
       639        640        651        650        760        761        772        771  
       640        641        652        651        761        762        773        772  
       641        642        653        652        762        763        774        773  
       642        643        654        653        763        764        775        774  
       643        644        655        654        764        765        776        775  
       644        645        656        655        765        766        777        776  
       645        646        657        656        766        767        778        777  
       646        647        658        657        767        768        779        778  
       647        648        659        658        768        769        780        779  
       648        649        660        659        769        770        781        780  
       650        651        662        661        771        772        783        782  
       651        652        663        662        772        773        784        783  
       652        653        664        663        773        774        785        784  
       653        654        665        664        774        775        786        785  
       654        655        666        665        775        776        787        786  
       655        656        667        666        776        777        788        787  
       656        657        668        667        777        778        789        788  
       657        658        669        668        778        779        790        789  
       658        659        670        669        779        780        791        790  
       659        660        671        670        780        781        792        791  
       661        662        673        672        782        783        794        793  
       662        663        674        673        783        784        795        794  
       663        664        675        674        784        785        796        795  
       664        665        676        675        785        786        797        796  
       665        666        677        676        786        787        798        797  
       666        667        678        677        787        788        799        798  
       667        668        679        678        788        789        800        799  
       668        669        680        679        789        790        801        800  
       669        670        681        680        790        791        802        801  
       670        671        682        681        791        792        803        802  
       672        673        684        683        793        794        805        804  
       673        674        685        684        794        795        806        805  
       674        675        686        685        795        796        807        806  
       675        676        687        686        796        797        808        807  
       676        677        688        687        797        798        809        808  
       677        678        689        688        798        799        810        809  
       678        679        690        689        799        800        811        810  
       679        680        691        690        800        801        812        811  
       680        681        692        691        801        802        813        812  
       681        682        693        692        802        803        814        813  
       683        684        695        694        804        805        816        815  
       684        685        696        695        805        806        817        816  
       685        686        697        696        806        807        818        817  
       686        687        698        697        807        808        819        818  
       687        688        699        698        808        809        820        819  
       688        689        700        699        809        810        821        820  
       689        690        701        700        810        811        822        821  
       690        691        702        701        811        812        823        822  
       691        692        703        702        812        813        824        823  
       692        693        704        703        813        814        825        824  
       694        695        706        705        815        816        827        826  
       695        696        707        706        816        817        828        827  
       696        697        708        707        817        818        829        828  
       697        698        709        708        818        819        830        829  
       698        699        710        709        819        820        831        830  
       699        700        711        710        820        821        832        831  
       700        701        712        711        821        822        833        832  
       701        702        713        712        822        823        834        833  
       702        703        714        713        823        824        835        834  
       703        704        715        714        824        825        836        835  
       705        706        717        716        826        827        838        837  
       706        707        718        717        827        828        839        838  
       707        708        719        718        828        829        840        839  
       708        709        720        719        829        830        841        840  
       709        710        721        720        830        831        842        841  
       710        711        722        721        831        832        843        842  
       711        712        723        722        832        833        844        843  
       712        713        724        723        833        834        845        844  
       713        714        725        724        834        835        846        845  
       714        715        726        725        835        836        847        846  
       727        728        739        738        848        849        860        859  
       728        729        740        739        849        850        861        860  
       729        730        741        740        850        851        862        861  
       730        731        742        741        851        852        863        862  
       731        732        743        742        852        853        864        863  
       732        733        744        743        853        854        865        864  
       733        734        745        744        854        855        866        865  
       734        735        746        745        855        856        867        866  
       735        736        747        746        856        857        868        867  
       736        737        748        747        857        858        869        868  
       738        739        750        749        859        860        871        870  
       739        740        751        750        860        861        872        871  
       740        741        752        751        861        862        873        872  
       741        742        753        752        862        863        874        873  
       742        743        754        753        863        864        875        874  
       743        744        755        754        864        865        876        875  
       744        745        756        755        865        866        877        876  
       745        746        757        756        866        867        878        877  
       746        747        758        757        867        868        879        878  
       747        748        759        758        868        869        880        879  
       749        750        761        760        870        871        882        881  
       750        751        762        761        871        872        883        882  
       751        752        763        762        872        873        884        883  
       752        753        764        763        873        874        885        884  
       753        754        765        764        874        875        886        885  
       754        755        766        765        875        876        887        886  
       755        756        767        766        876        877        888        887  
       756        757        768        767        877        878        889        888  
       757        758        769        768        878        879        890        889  
       758        759        770        769        879        880        891        890  
       760        761        772        771        881        882        893        892  
       761        762        773        772        882        883        894        893  
       762        763        774        773        883        884        895        894  
       763        764        775        774        884        885        896        895  
       764        765        776        775        885        886        897        896  
       765        766        777        776        886        887        898        897  
       766        767        778        777        887        888        899        898  
       767        768        779        778        888        889        900        899  
       768        769        780        779        889        890        901        900  
       769        770        781        780        890        891        902        901  
       771        772        783        782        892        893        904        903  
       772        773        784        783        893        894        905        904  
       773        774        785        784        894        895        906        905  
       774        775        786        785        895        896        907        906  
       775        776        787        786        896        897        908        907  
       776        777        788        787        897        898        909        908  
       777        778        789        788        898        899        910        909  
       778        779        790        789        899        900        911        910  
       779        780        791        790        900        901        912        911  
       780        781        792        791        901        902        913        912  
       782        783        794        793        903        904        915        914  
       783        784        795        794        904        905        916        915  
       784        785        796        795        905        906        917        916  
       785        786        797        796        906        907        918        917  
       786        787        798        797        907        908        919        918  
       787        788        799        798        908        909        920        919  
       788        789        800        799        909        910        921        920  
       789        790        801        800        910        911        922        921  
       790        791        802        801        911        912        923        922  
       791        792        803        802        912        913        924        923  
       793        794        805        804        914        915        926        925  
       794        795        806        805        915        916        927        926  
       795        796        807        806        916        917        928        927  
       796        797        808        807        917        918        929        928  
       797        798        809        808        918        919        930        929  
       798        799        810        809        919        920        931        930  
       799        800        811        810        920        921        932        931  
       800        801        812        811        921        922        933        932  
       801        802        813        812        922        923        934        933  
       802        803        814        813        923        924        935        934  
       804        805        816        815        925        926        937        936  
       805        806        817        816        926        927        938        937  
       806        807        818        817        927        928        939        938  
       807        808        819        818        928        929        940        939  
       808        809        820        819        929        930        941        940  
       809        810        821        820        930        931        942        941  
       810        811        822        821        931        932        943        942  
       811        812        823        822        932        933        944        943  
       812        813        824        823        933        934        945        944  
       813        814        825        824        934        935        946        945  
       815        816        827        826        936        937        948        947  
       816        817        828        827        937        938        949        948  
       817        818        829        828        938        939        950        949  
       818        819        830        829        939        940        951        950  
       819        820        831        830        940        941        952        951  
       820        821        832        831        941        942        953        952  
       821        822        833        832        942        943        954        953  
       822        823        834        833        943        944        955        954  
       823        824        835        834        944        945        956        955  
       824        825        836        835        945        946        957        956  
       826        827        838        837        947        948        959        958  
       827        828        839        838        948        949        960        959  
       828        829        840        839        949        950        961        960  
       829        830        841        840        950        951        962        961  
       830        831        842        841        951        952        963        962  
       831        832        843        842        952        953        964        963  
       832        833        844        843        953        954        965        964  
       833        834        845        844        954        955        966        965  
       834        835        846        845        955        956        967        966  
       835        836        847        846        956        957        968        967  
       848        849        860        859        969        970        981        980  
       849        850        861        860        970        971        982        981  
       850        851        862        861        971        972        983        982  
       851        852        863        862        972        973        984        983  
       852        853        864        863        973        974        985        984  
       853        854        865        864        974        975        986        985  
       854        855        866        865        975        976        987        986  
       855        856        867        866        976        977        988        987  
       856        857        868        867        977        978        989        988  
       857        858        869        868        978        979        990        989  
       859        860        871        870        980        981        992        991  
       860        861        872        871        981        982        993        992  
       861        862        873        872        982        983        994        993  
       862        863        874        873        983        984        995        994  
       863        864        875        874        984        985        996        995  
       864        865        876        875        985        986        997        996  
       865        866        877        876        986        987        998        997  
       866        867        878        877        987        988        999        998  
       867        868        879        878        988        989       1000        999  
       868        869        880        879        989        990       1001       1000  
       870        871        882        881        991        992       1003       1002  
       871        872        883        882        992        993       1004       1003  
       872        873        884        883        993        994       1005       1004  
       873        874        885        884        994        995       1006       1005  
       874        875        886        885        995        996       1007       1006  
       875        876        887        886        996        997       1008       1007  
       876        877        888        887        997        998       1009       1008  
       877        878        889        888        998        999       1010       1009  
       878        879        890        889        999       1000       1011       1010  
       879        880        891        890       1000       1001       1012       1011  
       881        882        893        892       1002       1003       1014       1013  
       882        883        894        893       1003       1004       1015       1014  
       883        884        895        894       1004       1005       1016       1015  
       884        885        896        895       1005       1006       1017       1016  
       885        886        897        896       1006       1007       1018       1017  
       886        887        898        897       1007       1008       1019       1018  
       887        888        899        898       1008       1009       1020       1019  
       888        889        900        899       1009       1010       1021       1020  
       889        890        901        900       1010       1011       1022       1021  
       890        891        902        901       1011       1012       1023       1022  
       892        893        904        903       1013       1014       1025       1024  
       893        894        905        904       1014       1015       1026       1025  
       894        895        906        905       1015       1016       1027       1026  
       895        896        907        906       1016       1017       1028       1027  
       896        897        908        907       1017       1018       1029       1028  
       897        898        909        908       1018       1019       1030       1029  
       898        899        910        909       1019       1020       1031       1030  
       899        900        911        910       1020       1021       1032       1031  
       900        901        912        911       1021       1022       1033       1032  
       901        902        913        912       1022       1023       1034       1033  
       903        904        915        914       1024       1025       1036       1035  
       904        905        916        915       1025       1026       1037       1036  
       905        906        917        916       1026       1027       1038       1037  
       906        907        918        917       1027       1028       1039       1038  
       907        908        919        918       1028       1029       1040       1039  
       908        909        920        919       1029       1030       1041       1040  
       909        910        921        920       1030       1031       1042       1041  
       910        911        922        921       1031       1032       1043       1042  
       911        912        923        922       1032       1033       1044       1043  
       912        913        924        923       1033       1034       1045       1044  
       914        915        926        925       1035       1036       1047       1046  
       915        916        927        926       1036       1037       1048       1047  
       916        917        928        927       1037       1038       1049       1048  
       917        918        929        928       1038       1039       1050       1049  
       918        919        930        929       1039       1040       1051       1050  
       919        920        931        930       1040       1041       1052       1051  
       920        921        932        931       1041       1042       1053       1052  
       921        922        933        932       1042       1043       1054       1053  
       922        923        934        933       1043       1044       1055       1054  
       923        924        935        934       1044       1045       1056       1055  
       925        926        937        936       1046       1047       1058       1057  
       926        927        938        937       1047       1048       1059       1058  
       927        928        939        938       1048       1049       1060       1059  
       928        929        940        939       1049       1050       1061       1060  
       929        930        941        940       1050       1051       1062       1061  
       930        931        942        941       1051       1052       1063       1062  
       931        932        943        942       1052       1053       1064       1063  
       932        933        944        943       1053       1054       1065       1064  
       933        934        945        944       1054       1055       1066       1065  
       934        935        946        945       1055       1056       1067       1066  
       936        937        948        947       1057       1058       1069       1068  
       937        938        949        948       1058       1059       1070       1069  
       938        939        950        949       1059       1060       1071       1070  
       939        940        951        950       1060       1061       1072       1071  
       940        941        952        951       1061       1062       1073       1072  
       941        942        953        952       1062       1063       1074       1073  
       942        943        954        953       1063       1064       1075       1074  
       943        944        955        954       1064       1065       1076       1075  
       944        945        956        955       1065       1066       1077       1076  
       945        946        957        956       1066       1067       1078       1077  
       947        948        959        958       1068       1069       1080       1079  
       948        949        960        959       1069       1070       1081       1080  
       949        950        961        960       1070       1071       1082       1081  
       950        951        962        961       1071       1072       1083       1082  
       951        952        963        962       1072       1073       1084       1083  
       952        953        964        963       1073       1074       1085       1084  
       953        954        965        964       1074       1075       1086       1085  
       954        955        966        965       1075       1076       1087       1086  
       955        956        967        966       1076       1077       1088       1087  
       956        957        968        967       1077       1078       1089       1088  
       969        970        981        980       1090       1091       1102       1101  
       970        971        982        981       1091       1092       1103       1102  
       971        972        983        982       1092       1093       1104       1103  
       972        973        984        983       1093       1094       1105       1104  
       973        974        985        984       1094       1095       1106       1105  
       974        975        986        985       1095       1096       1107       1106  
       975        976        987        986       1096       1097       1108       1107  
       976        977        988        987       1097       1098       1109       1108  
       977        978        989        988       1098       1099       1110       1109  
       978        979        990        989       1099       1100       1111       1110  
       980        981        992        991       1101       1102       1113       1112  
       981        982        993        992       1102       1103       1114       1113  
       982        983        994        993       1103       1104       1115       1114  
       983        984        995        994       1104       1105       1116       1115  
       984        985        996        995       1105       1106       1117       1116  
       985        986        997        996       1106       1107       1118       1117  
       986        987        998        997       1107       1108       1119       1118  
       987        988        999        998       1108       1109       1120       1119  
       988        989       1000        999       1109       1110       1121       1120  
       989        990       1001       1000       1110       1111       1122       1121  
       991        992       1003       1002       1112       1113       1124       1123  
       992        993       1004       1003       1113       1114       1125       1124  
       993        994       1005       1004       1114       1115       1126       1125  
       994        995       1006       1005       1115       1116       1127       1126  
       995        996       1007       1006       1116       1117       1128       1127  
       996        997       1008       1007       1117       1118       1129       1128  
       997        998       1009       1008       1118       1119       1130       1129  
       998        999       1010       1009       1119       1120       1131       1130  
       999       1000       1011       1010       1120       1121       1132       1131  
      1000       1001       1012       1011       1121       1122       1133       1132  
      1002       1003       1014       1013       1123       1124       1135       1134  
      1003       1004       1015       1014       1124       1125       1136       1135  
      1004       1005       1016       1015       1125       1126       1137       1136  
      1005       1006       1017       1016       1126       1127       1138       1137  
      1006       1007       1018       1017       1127       1128       1139       1138  
      1007       1008       1019       1018       1128       1129       1140       1139  
      1008       1009       1020       1019       1129       1130       1141       1140  
      1009       1010       1021       1020       1130       1131       1142       1141  
      1010       1011       1022       1021       1131       1132       1143       1142  
      1011       1012       1023       1022       1132       1133       1144       1143  
      1013       1014       1025       1024       1134       1135       1146       1145  
      1014       1015       1026       1025       1135       1136       1147       1146  
      1015       1016       1027       1026       1136       1137       1148       1147  
      1016       1017       1028       1027       1137       1138       1149       1148  
      1017       1018       1029       1028       1138       1139       1150       1149  
      1018       1019       1030       1029       1139       1140       1151       1150  
      1019       1020       1031       1030       1140       1141       1152       1151  
      1020       1021       1032       1031       1141       1142       1153       1152  
      1021       1022       1033       1032       1142       1143       1154       1153  
      1022       1023       1034       1033       1143       1144       1155       1154  
      1024       1025       1036       1035       1145       1146       1157       1156  
      1025       1026       1037       1036       1146       1147       1158       1157  
      1026       1027       1038       1037       1147       1148       1159       1158  
      1027       1028       1039       1038       1148       1149       1160       1159  
      1028       1029       1040       1039       1149       1150       1161       1160  
      1029       1030       1041       1040       1150       1151       1162       1161  
      1030       1031       1042       1041       1151       1152       1163       1162  
      1031       1032       1043       1042       1152       1153       1164       1163  
      1032       1033       1044       1043       1153       1154       1165       1164  
      1033       1034       1045       1044       1154       1155       1166       1165  
      1035       1036       1047       1046       1156       1157       1168       1167  
      1036       1037       1048       1047       1157       1158       1169       1168  
      1037       1038       1049       1048       1158       1159       1170       1169  
      1038       1039       1050       1049       1159       1160       1171       1170  
      1039       1040       1051       1050       1160       1161       1172       1171  
      1040       1041       1052       1051       1161       1162       1173       1172  
      1041       1042       1053       1052       1162       1163       1174       1173  
      1042       1043       1054       1053       1163       1164       1175       1174  
      1043       1044       1055       1054       1164       1165       1176       1175  
      1044       1045       1056       1055       1165       1166       1177       1176  
      1046       1047       1058       1057       1167       1168       1179       1178  
      1047       1048       1059       1058       1168       1169       1180       1179  
      1048       1049       1060       1059       1169       1170       1181       1180  
      1049       1050       1061       1060       1170       1171       1182       1181  
      1050       1051       1062       1061       1171       1172       1183       1182  
      1051       1052       1063       1062       1172       1173       1184       1183  
      1052       1053       1064       1063       1173       1174       1185       1184  
      1053       1054       1065       1064       1174       1175       1186       1185  
      1054       1055       1066       1065       1175       1176       1187       1186  
      1055       1056       1067       1066       1176       1177       1188       1187  
      1057       1058       1069       1068       1178       1179       1190       1189  
      1058       1059       1070       1069       1179       1180       1191       1190  
      1059       1060       1071       1070       1180       1181       1192       1191  
      1060       1061       1072       1071       1181       1182       1193       1192  
      1061       1062       1073       1072       1182       1183       1194       1193  
      1062       1063       1074       1073       1183       1184       1195       1194  
      1063       1064       1075       1074       1184       1185       1196       1195  
      1064       1065       1076       1075       1185       1186       1197       1196  
      1065       1066       1077       1076       1186       1187       1198       1197  
      1066       1067       1078       1077       1187       1188       1199       1198  
      1068       1069       1080       1079       1189       1190       1201       1200  
      1069       1070       1081       1080       1190       1191       1202       1201  
      1070       1071       1082       1081       1191       1192       1203       1202  
      1071       1072       1083       1082       1192       1193       1204       1203  
      1072       1073       1084       1083       1193       1194       1205       1204  
      1073       1074       1085       1084       1194       1195       1206       1205  
      1074       1075       1086       1085       1195       1196       1207       1206  
      1075       1076       1087       1086       1196       1197       1208       1207  
      1076       1077       1088       1087       1197       1198       1209       1208  
      1077       1078       1089       1088       1198       1199       1210       1209  
      1090       1091       1102       1101       1211       1212       1223       1222  
      1091       1092       1103       1102       1212       1213       1224       1223  
      1092       1093       1104       1103       1213       1214       1225       1224  
      1093       1094       1105       1104       1214       1215       1226       1225  
      1094       1095       1106       1105       1215       1216       1227       1226  
      1095       1096       1107       1106       1216       1217       1228       1227  
      1096       1097       1108       1107       1217       1218       1229       1228  
      1097       1098       1109       1108       1218       1219       1230       1229  
      1098       1099       1110       1109       1219       1220       1231       1230  
      1099       1100       1111       1110       1220       1221       1232       1231  
      1101       1102       1113       1112       1222       1223       1234       1233  
      1102       1103       1114       1113       1223       1224       1235       1234  
      1103       1104       1115       1114       1224       1225       1236       1235  
      1104       1105       1116       1115       1225       1226       1237       1236  
      1105       1106       1117       1116       1226       1227       1238       1237  
      1106       1107       1118       1117       1227       1228       1239       1238  
      1107       1108       1119       1118       1228       1229       1240       1239  
      1108       1109       1120       1119       1229       1230       1241       1240  
      1109       1110       1121       1120       1230       1231       1242       1241  
      1110       1111       1122       1121       1231       1232       1243       1242  
      1112       1113       1124       1123       1233       1234       1245       1244  
      1113       1114       1125       1124       1234       1235       1246       1245  
      1114       1115       1126       1125       1235       1236       1247       1246  
      1115       1116       1127       1126       1236       1237       1248       1247  
      1116       1117       1128       1127       1237       1238       1249       1248  
      1117       1118       1129       1128       1238       1239       1250       1249  
      1118       1119       1130       1129       1239       1240       1251       1250  
      1119       1120       1131       1130       1240       1241       1252       1251  
      1120       1121       1132       1131       1241       1242       1253       1252  
      1121       1122       1133       1132       1242       1243       1254       1253  
      1123       1124       1135       1134       1244       1245       1256       1255  
      1124       1125       1136       1135       1245       1246       1257       1256  
      1125       1126       1137       1136       1246       1247       1258       1257  
      1126       1127       1138       1137       1247       1248       1259       1258  
      1127       1128       1139       1138       1248       1249       1260       1259  
      1128       1129       1140       1139       1249       1250       1261       1260  
      1129       1130       1141       1140       1250       1251       1262       1261  
      1130       1131       1142       1141       1251       1252       1263       1262  
      1131       1132       1143       1142       1252       1253       1264       1263  
      1132       1133       1144       1143       1253       1254       1265       1264  
      1134       1135       1146       1145       1255       1256       1267       1266  
      1135       1136       1147       1146       1256       1257       1268       1267  
      1136       1137       1148       1147       1257       1258       1269       1268  
      1137       1138       1149       1148       1258       1259       1270       1269  
      1138       1139       1150       1149       1259       1260       1271       1270  
      1139       1140       1151       1150       1260       1261       1272       1271  
      1140       1141       1152       1151       1261       1262       1273       1272  
      1141       1142       1153       1152       1262       1263       1274       1273  
      1142       1143       1154       1153       1263       1264       1275       1274  
      1143       1144       1155       1154       1264       1265       1276       1275  
      1145       1146       1157       1156       1266       1267       1278       1277  
      1146       1147       1158       1157       1267       1268       1279       1278  
      1147       1148       1159       1158       1268       1269       1280       1279  
      1148       1149       1160       1159       1269       1270       1281       1280  
      1149       1150       1161       1160       1270       1271       1282       1281  
      1150       1151       1162       1161       1271       1272       1283       1282  
      1151       1152       1163       1162       1272       1273       1284       1283  
      1152       1153       1164       1163       1273       1274       1285       1284  
      1153       1154       1165       1164       1274       1275       1286       1285  
      1154       1155       1166       1165       1275       1276       1287       1286  
      1156       1157       1168       1167       1277       1278       1289       1288  
      1157       1158       1169       1168       1278       1279       1290       1289  
      1158       1159       1170       1169       1279       1280       1291       1290  
      1159       1160       1171       1170       1280       1281       1292       1291  
      1160       1161       1172       1171       1281       1282       1293       1292  
      1161       1162       1173       1172       1282       1283       1294       1293  
      1162       1163       1174       1173       1283       1284       1295       1294  
      1163       1164       1175       1174       1284       1285       1296       1295  
      1164       1165       1176       1175       1285       1286       1297       1296  
      1165       1166       1177       1176       1286       1287       1298       1297  
      1167       1168       1179       1178       1288       1289       1300       1299  
      1168       1169       1180       1179       1289       1290       1301       1300  
      1169       1170       1181       1180       1290       1291       1302       1301  
      1170       1171       1182       1181       1291       1292       1303       1302  
      1171       1172       1183       1182       1292       1293       1304       1303  
      1172       1173       1184       1183       1293       1294       1305       1304  
      1173       1174       1185       1184       1294       1295       1306       1305  
      1174       1175       1186       1185       1295       1296       1307       1306  
      1175       1176       1187       1186       1296       1297       1308       1307  
      1176       1177       1188       1187       1297       1298       1309       1308  
      1178       1179       1190       1189       1299       1300       1311       1310  
      1179       1180       1191       1190       1300       1301       1312       1311  
      1180       1181       1192       1191       1301       1302       1313       1312  
      1181       1182       1193       1192       1302       1303       1314       1313  
      1182       1183       1194       1193       1303       1304       1315       1314  
      1183       1184       1195       1194       1304       1305       1316       1315  
      1184       1185       1196       1195       1305       1306       1317       1316  
      1185       1186       1197       1196       1306       1307       1318       1317  
      1186       1187       1198       1197       1307       1308       1319       1318  
      1187       1188       1199       1198       1308       1309       1320       1319  
      1189       1190       1201       1200       1310       1311       1322       1321  
      1190       1191       1202       1201       1311       1312       1323       1322  
      1191       1192       1203       1202       1312       1313       1324       1323  
      1192       1193       1204       1203       1313       1314       1325       1324  
      1193       1194       1205       1204       1314       1315       1326       1325  
      1194       1195       1206       1205       1315       1316       1327       1326  
      1195       1196       1207       1206       1316       1317       1328       1327  
      1196       1197       1208       1207       1317       1318       1329       1328  
      1197       1198       1209       1208       1318       1319       1330       1329  
      1198       1199       1210       1209       1319       1320       1331       1330  
      1211       1212       1223       1222       1332       1333       1344       1343  
      1212       1213       1224       1223       1333       1334       1345       1344  
      1213       1214       1225       1224       1334       1335       1346       1345  
      1214       1215       1226       1225       1335       1336       1347       1346  
      1215       1216       1227       1226       1336       1337       1348       1347  
      1216       1217       1228       1227       1337       1338       1349       1348  
      1217       1218       1229       1228       1338       1339       1350       1349  
      1218       1219       1230       1229       1339       1340       1351       1350  
      1219       1220       1231       1230       1340       1341       1352       1351  
      1220       1221       1232       1231       1341       1342       1353       1352  
      1222       1223       1234       1233       1343       1344       1355       1354  
      1223       1224       1235       1234       1344       1345       1356       1355  
      1224       1225       1236       1235       1345       1346       1357       1356  
      1225       1226       1237       1236       1346       1347       1358       1357  
      1226       1227       1238       1237       1347       1348       1359       1358  
      1227       1228       1239       1238       1348       1349       1360       1359  
      1228       1229       1240       1239       1349       1350       1361       1360  
      1229       1230       1241       1240       1350       1351       1362       1361  
      1230       1231       1242       1241       1351       1352       1363       1362  
      1231       1232       1243       1242       1352       1353       1364       1363  
      1233       1234       1245       1244       1354       1355       1366       1365  
      1234       1235       1246       1245       1355       1356       1367       1366  
      1235       1236       1247       1246       1356       1357       1368       1367  
      1236       1237       1248       1247       1357       1358       1369       1368  
      1237       1238       1249       1248       1358       1359       1370       1369  
      1238       1239       1250       1249       1359       1360       1371       1370  
      1239       1240       1251       1250       1360       1361       1372       1371  
      1240       1241       1252       1251       1361       1362       1373       1372  
      1241       1242       1253       1252       1362       1363       1374       1373  
      1242       1243       1254       1253       1363       1364       1375       1374  
      1244       1245       1256       1255       1365       1366       1377       1376  
      1245       1246       1257       1256       1366       1367       1378       1377  
      1246       1247       1258       1257       1367       1368       1379       1378  
      1247       1248       1259       1258       1368       1369       1380       1379  
      1248       1249       1260       1259       1369       1370       1381       1380  
      1249       1250       1261       1260       1370       1371       1382       1381  
      1250       1251       1262       1261       1371       1372       1383       1382  
      1251       1252       1263       1262       1372       1373       1384       1383  
      1252       1253       1264       1263       1373       1374       1385       1384  
      1253       1254       1265       1264       1374       1375       1386       1385  
      1255       1256       1267       1266       1376       1377       1388       1387  
      1256       1257       1268       1267       1377       1378       1389       1388  
      1257       1258       1269       1268       1378       1379       1390       1389  
      1258       1259       1270       1269       1379       1380       1391       1390  
      1259       1260       1271       1270       1380       1381       1392       1391  
      1260       1261       1272       1271       1381       1382       1393       1392  
      1261       1262       1273       1272       1382       1383       1394       1393  
      1262       1263       1274       1273       1383       1384       1395       1394  
      1263       1264       1275       1274       1384       1385       1396       1395  
      1264       1265       1276       1275       1385       1386       1397       1396  
      1266       1267       1278       1277       1387       1388       1399       1398  
      1267       1268       1279       1278       1388       1389       1400       1399  
      1268       1269       1280       1279       1389       1390       1401       1400  
      1269       1270       1281       1280       1390       1391       1402       1401  
      1270       1271       1282       1281       1391       1392       1403       1402  
      1271       1272       1283       1282       1392       1393       1404       1403  
      1272       1273       1284       1283       1393       1394       1405       1404  
      1273       1274       1285       1284       1394       1395       1406       1405  
      1274       1275       1286       1285       1395       1396       1407       1406  
      1275       1276       1287       1286       1396       1397       1408       1407  
      1277       1278       1289       1288       1398       1399       1410       1409  
      1278       1279       1290       1289       1399       1400       1411       1410  
      1279       1280       1291       1290       1400       1401       1412       1411  
      1280       1281       1292       1291       1401       1402       1413       1412  
      1281       1282       1293       1292       1402       1403       1414       1413  
      1282       1283       1294       1293       1403       1404       1415       1414  
      1283       1284       1295       1294       1404       1405       1416       1415  
      1284       1285       1296       1295       1405       1406       1417       1416  
      1285       1286       1297       1296       1406       1407       1418       1417  
      1286       1287       1298       1297       1407       1408       1419       1418  
      1288       1289       1300       1299       1409       1410       1421       1420  
      1289       1290       1301       1300       1410       1411       1422       1421  
      1290       1291       1302       1301       1411       1412       1423       1422  
      1291       1292       1303       1302       1412       1413       1424       1423  
      1292       1293       1304       1303       1413       1414       1425       1424  
      1293       1294       1305       1304       1414       1415       1426       1425  
      1294       1295       1306       1305       1415       1416       1427       1426  
      1295       1296       1307       1306       1416       1417       1428       1427  
      1296       1297       1308       1307       1417       1418       1429       1428  
      1297       1298       1309       1308       1418       1419       1430       1429  
      1299       1300       1311       1310       1420       1421       1432       1431  
      1300       1301       1312       1311       1421       1422       1433       1432  
      1301       1302       1313       1312       1422       1423       1434       1433  
      1302       1303       1314       1313       1423       1424       1435       1434  
      1303       1304       1315       1314       1424       1425       1436       1435  
      1304       1305       1316       1315       1425       1426       1437       1436  
      1305       1306       1317       1316       1426       1427       1438       1437  
      1306       1307       1318       1317       1427       1428       1439       1438  
      1307       1308       1319       1318       1428       1429       1440       1439  
      1308       1309       1320       1319       1429       1430       1441       1440  
      1310       1311       1322       1321       1431       1432       1443       1442  
      1311       1312       1323       1322       1432       1433       1444       1443  
      1312       1313       1324       1323       1433       1434       1445       1444  
      1313       1314       1325       1324       1434       1435       1446       1445  
      1314       1315       1326       1325       1435       1436       1447       1446  
      1315       1316       1327       1326       1436       1437       1448       1447  
      1316       1317       1328       1327       1437       1438       1449       1448  
      1317       1318       1329       1328       1438       1439       1450       1449  
      1318       1319       1330       1329       1439       1440       1451       1450  
      1319       1320       1331       1330       1440       1441       1452       1451  
      1332       1333       1344       1343       1453       1454       1465       1464  
      1333       1334       1345       1344       1454       1455       1466       1465  
      1334       1335       1346       1345       1455       1456       1467       1466  
      1335       1336       1347       1346       1456       1457       1468       1467  
      1336       1337       1348       1347       1457       1458       1469       1468  
      1337       1338       1349       1348       1458       1459       1470       1469  
      1338       1339       1350       1349       1459       1460       1471       1470  
      1339       1340       1351       1350       1460       1461       1472       1471  
      1340       1341       1352       1351       1461       1462       1473       1472  
      1341       1342       1353       1352       1462       1463       1474       1473  
      1343       1344       1355       1354       1464       1465       1476       1475  
      1344       1345       1356       1355       1465       1466       1477       1476  
      1345       1346       1357       1356       1466       1467       1478       1477  
      1346       1347       1358       1357       1467       1468       1479       1478  
      1347       1348       1359       1358       1468       1469       1480       1479  
      1348       1349       1360       1359       1469       1470       1481       1480  
      1349       1350       1361       1360       1470       1471       1482       1481  
      1350       1351       1362       1361       1471       1472       1483       1482  
      1351       1352       1363       1362       1472       1473       1484       1483  
      1352       1353       1364       1363       1473       1474       1485       1484  
      1354       1355       1366       1365       1475       1476       1487       1486  
      1355       1356       1367       1366       1476       1477       1488       1487  
      1356       1357       1368       1367       1477       1478       1489       1488  
      1357       1358       1369       1368       1478       1479       1490       1489  
      1358       1359       1370       1369       1479       1480       1491       1490  
      1359       1360       1371       1370       1480       1481       1492       1491  
      1360       1361       1372       1371       1481       1482       1493       1492  
      1361       1362       1373       1372       1482       1483       1494       1493  
      1362       1363       1374       1373       1483       1484       1495       1494  
      1363       1364       1375       1374       1484       1485       1496       1495  
      1365       1366       1377       1376       1486       1487       1498       1497  
      1366       1367       1378       1377       1487       1488       1499       1498  
      1367       1368       1379       1378       1488       1489       1500       1499  
      1368       1369       1380       1379       1489       1490       1501       1500  
      1369       1370       1381       1380       1490       1491       1502       1501  
      1370       1371       1382       1381       1491       1492       1503       1502  
      1371       1372       1383       1382       1492       1493       1504       1503  
      1372       1373       1384       1383       1493       1494       1505       1504  
      1373       1374       1385       1384       1494       1495       1506       1505  
      1374       1375       1386       1385       1495       1496       1507       1506  
      1376       1377       1388       1387       1497       1498       1509       1508  
      1377       1378       1389       1388       1498       1499       1510       1509  
      1378       1379       1390       1389       1499       1500       1511       1510  
      1379       1380       1391       1390       1500       1501       1512       1511  
      1380       1381       1392       1391       1501       1502       1513       1512  
      1381       1382       1393       1392       1502       1503       1514       1513  
      1382       1383       1394       1393       1503       1504       1515       1514  
      1383       1384       1395       1394       1504       1505       1516       1515  
      1384       1385       1396       1395       1505       1506       1517       1516  
      1385       1386       1397       1396       1506       1507       1518       1517  
      1387       1388       1399       1398       1508       1509       1520       1519  
      1388       1389       1400       1399       1509       1510       1521       1520  
      1389       1390       1401       1400       1510       1511       1522       1521  
      1390       1391       1402       1401       1511       1512       1523       1522  
      1391       1392       1403       1402       1512       1513       1524       1523  
      1392       1393       1404       1403       1513       1514       1525       1524  
      1393       1394       1405       1404       1514       1515       1526       1525  
      1394       1395       1406       1405       1515       1516       1527       1526  
      1395       1396       1407       1406       1516       1517       1528       1527  
      1396       1397       1408       1407       1517       1518       1529       1528  
      1398       1399       1410       1409       1519       1520       1531       1530  
      1399       1400       1411       1410       1520       1521       1532       1531  
      1400       1401       1412       1411       1521       1522       1533       1532  
      1401       1402       1413       1412       1522       1523       1534       1533  
      1402       1403       1414       1413       1523       1524       1535       1534  
      1403       1404       1415       1414       1524       1525       1536       1535  
      1404       1405       1416       1415       1525       1526       1537       1536  
      1405       1406       1417       1416       1526       1527       1538       1537  
      1406       1407       1418       1417       1527       1528       1539       1538  
      1407       1408       1419       1418       1528       1529       1540       1539  
      1409       1410       1421       1420       1530       1531       1542       1541  
      1410       1411       1422       1421       1531       1532       1543       1542  
      1411       1412       1423       1422       1532       1533       1544       1543  
      1412       1413       1424       1423       1533       1534       1545       1544  
      1413       1414       1425       1424       1534       1535       1546       1545  
      1414       1415       1426       1425       1535       1536       1547       1546  
      1415       1416       1427       1426       1536       1537       1548       1547  
      1416       1417       1428       1427       1537       1538       1549       1548  
      1417       1418       1429       1428       1538       1539       1550       1549  
      1418       1419       1430       1429       1539       1540       1551       1550  
      1420       1421       1432       1431       1541       1542       1553       1552  
      1421       1422       1433       1432       1542       1543       1554       1553  
      1422       1423       1434       1433       1543       1544       1555       1554  
      1423       1424       1435       1434       1544       1545       1556       1555  
      1424       1425       1436       1435       1545       1546       1557       1556  
      1425       1426       1437       1436       1546       1547       1558       1557  
      1426       1427       1438       1437       1547       1548       1559       1558  
      1427       1428       1439       1438       1548       1549       1560       1559  
      1428       1429       1440       1439       1549       1550       1561       1560  
      1429       1430       1441       1440       1550       1551       1562       1561  
      1431       1432       1443       1442       1552       1553       1564       1563  
      1432       1433       1444       1443       1553       1554       1565       1564  
      1433       1434       1445       1444       1554       1555       1566       1565  
      1434       1435       1446       1445       1555       1556       1567       1566  
      1435       1436       1447       1446       1556       1557       1568       1567  
      1436       1437       1448       1447       1557       1558       1569       1568  
      1437       1438       1449       1448       1558       1559       1570       1569  
      1438       1439       1450       1449       1559       1560       1571       1570  
      1439       1440       1451       1450       1560       1561       1572       1571  
      1440       1441       1452       1451       1561       1562       1573       1572  
      1453       1454       1465       1464       1574       1575       1586       1585  
      1454       1455       1466       1465       1575       1576       1587       1586  
      1455       1456       1467       1466       1576       1577       1588       1587  
      1456       1457       1468       1467       1577       1578       1589       1588  
      1457       1458       1469       1468       1578       1579       1590       1589  
      1458       1459       1470       1469       1579       1580       1591       1590  
      1459       1460       1471       1470       1580       1581       1592       1591  
      1460       1461       1472       1471       1581       1582       1593       1592  
      1461       1462       1473       1472       1582       1583       1594       1593  
      1462       1463       1474       1473       1583       1584       1595       1594  
      1464       1465       1476       1475       1585       1586       1597       1596  
      1465       1466       1477       1476       1586       1587       1598       1597  
      1466       1467       1478       1477       1587       1588       1599       1598  
      1467       1468       1479       1478       1588       1589       1600       1599  
      1468       1469       1480       1479       1589       1590       1601       1600  
      1469       1470       1481       1480       1590       1591       1602       1601  
      1470       1471       1482       1481       1591       1592       1603       1602  
      1471       1472       1483       1482       1592       1593       1604       1603  
      1472       1473       1484       1483       1593       1594       1605       1604  
      1473       1474       1485       1484       1594       1595       1606       1605  
      1475       1476       1487       1486       1596       1597       1608       1607  
      1476       1477       1488       1487       1597       1598       1609       1608  
      1477       1478       1489       1488       1598       1599       1610       1609  
      1478       1479       1490       1489       1599       1600       1611       1610  
      1479       1480       1491       1490       1600       1601       1612       1611  
      1480       1481       1492       1491       1601       1602       1613       1612  
      1481       1482       1493       1492       1602       1603       1614       1613  
      1482       1483       1494       1493       1603       1604       1615       1614  
      1483       1484       1495       1494       1604       1605       1616       1615  
      1484       1485       1496       1495       1605       1606       1617       1616  
      1486       1487       1498       1497       1607       1608       1619       1618  
      1487       1488       1499       1498       1608       1609       1620       1619  
      1488       1489       1500       1499       1609       1610       1621       1620  
      1489       1490       1501       1500       1610       1611       1622       1621  
      1490       1491       1502       1501       1611       1612       1623       1622  
      1491       1492       1503       1502       1612       1613       1624       1623  
      1492       1493       1504       1503       1613       1614       1625       1624  
      1493       1494       1505       1504       1614       1615       1626       1625  
      1494       1495       1506       1505       1615       1616       1627       1626  
      1495       1496       1507       1506       1616       1617       1628       1627  
      1497       1498       1509       1508       1618       1619       1630       1629  
      1498       1499       1510       1509       1619       1620       1631       1630  
      1499       1500       1511       1510       1620       1621       1632       1631  
      1500       1501       1512       1511       1621       1622       1633       1632  
      1501       1502       1513       1512       1622       1623       1634       1633  
      1502       1503       1514       1513       1623       1624       1635       1634  
      1503       1504       1515       1514       1624       1625       1636       1635  
      1504       1505       1516       1515       1625       1626       1637       1636  
      1505       1506       1517       1516       1626       1627       1638       1637  
      1506       1507       1518       1517       1627       1628       1639       1638  
      1508       1509       1520       1519       1629       1630       1641       1640  
      1509       1510       1521       1520       1630       1631       1642       1641  
      1510       1511       1522       1521       1631       1632       1643       1642  
      1511       1512       1523       1522       1632       1633       1644       1643  
      1512       1513       1524       1523       1633       1634       1645       1644  
      1513       1514       1525       1524       1634       1635       1646       1645  
      1514       1515       1526       1525       1635       1636       1647       1646  
      1515       1516       1527       1526       1636       1637       1648       1647  
      1516       1517       1528       1527       1637       1638       1649       1648  
      1517       1518       1529       1528       1638       1639       1650       1649  
      1519       1520       1531       1530       1640       1641       1652       1651  
      1520       1521       1532       1531       1641       1642       1653       1652  
      1521       1522       1533       1532       1642       1643       1654       1653  
      1522       1523       1534       1533       1643       1644       1655       1654  
      1523       1524       1535       1534       1644       1645       1656       1655  
      1524       1525       1536       1535       1645       1646       1657       1656  
      1525       1526       1537       1536       1646       1647       1658       1657  
      1526       1527       1538       1537       1647       1648       1659       1658  
      1527       1528       1539       1538       1648       1649       1660       1659  
      1528       1529       1540       1539       1649       1650       1661       1660  
      1530       1531       1542       1541       1651       1652       1663       1662  
      1531       1532       1543       1542       1652       1653       1664       1663  
      1532       1533       1544       1543       1653       1654       1665       1664  
      1533       1534       1545       1544       1654       1655       1666       1665  
      1534       1535       1546       1545       1655       1656       1667       1666  
      1535       1536       1547       1546       1656       1657       1668       1667  
      1536       1537       1548       1547       1657       1658       1669       1668  
      1537       1538       1549       1548       1658       1659       1670       1669  
      1538       1539       1550       1549       1659       1660       1671       1670  
      1539       1540       1551       1550       1660       1661       1672       1671  
      1541       1542       1553       1552       1662       1663       1674       1673  
      1542       1543       1554       1553       1663       1664       1675       1674  
      1543       1544       1555       1554       1664       1665       1676       1675  
      1544       1545       1556       1555       1665       1666       1677       1676  
      1545       1546       1557       1556       1666       1667       1678       1677  
      1546       1547       1558       1557       1667       1668       1679       1678  
      1547       1548       1559       1558       1668       1669       1680       1679  
      1548       1549       1560       1559       1669       1670       1681       1680  
      1549       1550       1561       1560       1670       1671       1682       1681  
      1550       1551       1562       1561       1671       1672       1683       1682  
      1552       1553       1564       1563       1673       1674       1685       1684  
      1553       1554       1565       1564       1674       1675       1686       1685  
      1554       1555       1566       1565       1675       1676       1687       1686  
      1555       1556       1567       1566       1676       1677       1688       1687  
      1556       1557       1568       1567       1677       1678       1689       1688  
      1557       1558       1569       1568       1678       1679       1690       1689  
      1558       1559       1570       1569       1679       1680       1691       1690  
      1559       1560       1571       1570       1680       1681       1692       1691  
      1560       1561       1572       1571       1681       1682       1693       1692  
      1561       1562       1573       1572       1682       1683       1694       1693  
      1574       1575       1586       1585       1695       1696       1707       1706  
      1575       1576       1587       1586       1696       1697       1708       1707  
      1576       1577       1588       1587       1697       1698       1709       1708  
      1577       1578       1589       1588       1698       1699       1710       1709  
      1578       1579       1590       1589       1699       1700       1711       1710  
      1579       1580       1591       1590       1700       1701       1712       1711  
      1580       1581       1592       1591       1701       1702       1713       1712  
      1581       1582       1593       1592       1702       1703       1714       1713  
      1582       1583       1594       1593       1703       1704       1715       1714  
      1583       1584       1595       1594       1704       1705       1716       1715  
      1585       1586       1597       1596       1706       1707       1718       1717  
      1586       1587       1598       1597       1707       1708       1719       1718  
      1587       1588       1599       1598       1708       1709       1720       1719  
      1588       1589       1600       1599       1709       1710       1721       1720  
      1589       1590       1601       1600       1710       1711       1722       1721  
      1590       1591       1602       1601       1711       1712       1723       1722  
      1591       1592       1603       1602       1712       1713       1724       1723  
      1592       1593       1604       1603       1713       1714       1725       1724  
      1593       1594       1605       1604       1714       1715       1726       1725  
      1594       1595       1606       1605       1715       1716       1727       1726  
      1596       1597       1608       1607       1717       1718       1729       1728  
      1597       1598       1609       1608       1718       1719       1730       1729  
      1598       1599       1610       1609       1719       1720       1731       1730  
      1599       1600       1611       1610       1720       1721       1732       1731  
      1600       1601       1612       1611       1721       1722       1733       1732  
      1601       1602       1613       1612       1722       1723       1734       1733  
      1602       1603       1614       1613       1723       1724       1735       1734  
      1603       1604       1615       1614       1724       1725       1736       1735  
      1604       1605       1616       1615       1725       1726       1737       1736  
      1605       1606       1617       1616       1726       1727       1738       1737  
      1607       1608       1619       1618       1728       1729       1740       1739  
      1608       1609       1620       1619       1729       1730       1741       1740  
      1609       1610       1621       1620       1730       1731       1742       1741  
      1610       1611       1622       1621       1731       1732       1743       1742  
      1611       1612       1623       1622       1732       1733       1744       1743  
      1612       1613       1624       1623       1733       1734       1745       1744  
      1613       1614       1625       1624       1734       1735       1746       1745  
      1614       1615       1626       1625       1735       1736       1747       1746  
      1615       1616       1627       1626       1736       1737       1748       1747  
      1616       1617       1628       1627       1737       1738       1749       1748  
      1618       1619       1630       1629       1739       1740       1751       1750  
      1619       1620       1631       1630       1740       1741       1752       1751  
      1620       1621       1632       1631       1741       1742       1753       1752  
      1621       1622       1633       1632       1742       1743       1754       1753  
      1622       1623       1634       1633       1743       1744       1755       1754  
      1623       1624       1635       1634       1744       1745       1756       1755  
      1624       1625       1636       1635       1745       1746       1757       1756  
      1625       1626       1637       1636       1746       1747       1758       1757  
      1626       1627       1638       1637       1747       1748       1759       1758  
      1627       1628       1639       1638       1748       1749       1760       1759  
      1629       1630       1641       1640       1750       1751       1762       1761  
      1630       1631       1642       1641       1751       1752       1763       1762  
      1631       1632       1643       1642       1752       1753       1764       1763  
      1632       1633       1644       1643       1753       1754       1765       1764  
      1633       1634       1645       1644       1754       1755       1766       1765  
      1634       1635       1646       1645       1755       1756       1767       1766  
      1635       1636       1647       1646       1756       1757       1768       1767  
      1636       1637       1648       1647       1757       1758       1769       1768  
      1637       1638       1649       1648       1758       1759       1770       1769  
      1638       1639       1650       1649       1759       1760       1771       1770  
      1640       1641       1652       1651       1761       1762       1773       1772  
      1641       1642       1653       1652       1762       1763       1774       1773  
      1642       1643       1654       1653       1763       1764       1775       1774  
      1643       1644       1655       1654       1764       1765       1776       1775  
      1644       1645       1656       1655       1765       1766       1777       1776  
      1645       1646       1657       1656       1766       1767       1778       1777  
      1646       1647       1658       1657       1767       1768       1779       1778  
      1647       1648       1659       1658       1768       1769       1780       1779  
      1648       1649       1660       1659       1769       1770       1781       1780  
      1649       1650       1661       1660       1770       1771       1782       1781  
      1651       1652       1663       1662       1772       1773       1784       1783  
      1652       1653       1664       1663       1773       1774       1785       1784  
      1653       1654       1665       1664       1774       1775       1786       1785  
      1654       1655       1666       1665       1775       1776       1787       1786  
      1655       1656       1667       1666       1776       1777       1788       1787  
      1656       1657       1668       1667       1777       1778       1789       1788  
      1657       1658       1669       1668       1778       1779       1790       1789  
      1658       1659       1670       1669       1779       1780       1791       1790  
      1659       1660       1671       1670       1780       1781       1792       1791  
      1660       1661       1672       1671       1781       1782       1793       1792  
      1662       1663       1674       1673       1783       1784       1795       1794  
      1663       1664       1675       1674       1784       1785       1796       1795  
      1664       1665       1676       1675       1785       1786       1797       1796  
      1665       1666       1677       1676       1786       1787       1798       1797  
      1666       1667       1678       1677       1787       1788       1799       1798  
      1667       1668       1679       1678       1788       1789       1800       1799  
      1668       1669       1680       1679       1789       1790       1801       1800  
      1669       1670       1681       1680       1790       1791       1802       1801  
      1670       1671       1682       1681       1791       1792       1803       1802  
      1671       1672       1683       1682       1792       1793       1804       1803  
      1673       1674       1685       1684       1794       1795       1806       1805  
      1674       1675       1686       1685       1795       1796       1807       1806  
      1675       1676       1687       1686       1796       1797       1808       1807  
      1676       1677       1688       1687       1797       1798       1809       1808  
      1677       1678       1689       1688       1798       1799       1810       1809  
      1678       1679       1690       1689       1799       1800       1811       1810  
      1679       1680       1691       1690       1800       1801       1812       1811  
      1680       1681       1692       1691       1801       1802       1813       1812  
      1681       1682       1693       1692       1802       1803       1814       1813  
      1682       1683       1694       1693       1803       1804       1815       1814  
      1695       1696       1707       1706       1816       1817       1828       1827  
      1696       1697       1708       1707       1817       1818       1829       1828  
      1697       1698       1709       1708       1818       1819       1830       1829  
      1698       1699       1710       1709       1819       1820       1831       1830  
      1699       1700       1711       1710       1820       1821       1832       1831  
      1700       1701       1712       1711       1821       1822       1833       1832  
      1701       1702       1713       1712       1822       1823       1834       1833  
      1702       1703       1714       1713       1823       1824       1835       1834  
      1703       1704       1715       1714       1824       1825       1836       1835  
      1704       1705       1716       1715       1825       1826       1837       1836  
      1706       1707       1718       1717       1827       1828       1839       1838  
      1707       1708       1719       1718       1828       1829       1840       1839  
      1708       1709       1720       1719       1829       1830       1841       1840  
      1709       1710       1721       1720       1830       1831       1842       1841  
      1710       1711       1722       1721       1831       1832       1843       1842  
      1711       1712       1723       1722       1832       1833       1844       1843  
      1712       1713       1724       1723       1833       1834       1845       1844  
      1713       1714       1725       1724       1834       1835       1846       1845  
      1714       1715       1726       1725       1835       1836       1847       1846  
      1715       1716       1727       1726       1836       1837       1848       1847  
      1717       1718       1729       1728       1838       1839       1850       1849  
      1718       1719       1730       1729       1839       1840       1851       1850  
      1719       1720       1731       1730       1840       1841       1852       1851  
      1720       1721       1732       1731       1841       1842       1853       1852  
      1721       1722       1733       1732       1842       1843       1854       1853  
      1722       1723       1734       1733       1843       1844       1855       1854  
      1723       1724       1735       1734       1844       1845       1856       1855  
      1724       1725       1736       1735       1845       1846       1857       1856  
      1725       1726       1737       1736       1846       1847       1858       1857  
      1726       1727       1738       1737       1847       1848       1859       1858  
      1728       1729       1740       1739       1849       1850       1861       1860  
      1729       1730       1741       1740       1850       1851       1862       1861  
      1730       1731       1742       1741       1851       1852       1863       1862  
      1731       1732       1743       1742       1852       1853       1864       1863  
      1732       1733       1744       1743       1853       1854       1865       1864  
      1733       1734       1745       1744       1854       1855       1866       1865  
      1734       1735       1746       1745       1855       1856       1867       1866  
      1735       1736       1747       1746       1856       1857       1868       1867  
      1736       1737       1748       1747       1857       1858       1869       1868  
      1737       1738       1749       1748       1858       1859       1870       1869  
      1739       1740       1751       1750       1860       1861       1872       1871  
      1740       1741       1752       1751       1861       1862       1873       1872  
      1741       1742       1753       1752       1862       1863       1874       1873  
      1742       1743       1754       1753       1863       1864       1875       1874  
      1743       1744       1755       1754       1864       1865       1876       1875  
      1744       1745       1756       1755       1865       1866       1877       1876  
      1745       1746       1757       1756       1866       1867       1878       1877  
      1746       1747       1758       1757       1867       1868       1879       1878  
      1747       1748       1759       1758       1868       1869       1880       1879  
      1748       1749       1760       1759       1869       1870       1881       1880  
      1750       1751       1762       1761       1871       1872       1883       1882  
      1751       1752       1763       1762       1872       1873       1884       1883  
      1752       1753       1764       1763       1873       1874       1885       1884  
      1753       1754       1765       1764       1874       1875       1886       1885  
      1754       1755       1766       1765       1875       1876       1887       1886  
      1755       1756       1767       1766       1876       1877       1888       1887  
      1756       1757       1768       1767       1877       1878       1889       1888  
      1757       1758       1769       1768       1878       1879       1890       1889  
      1758       1759       1770       1769       1879       1880       1891       1890  
      1759       1760       1771       1770       1880       1881       1892       1891  
      1761       1762       1773       1772       1882       1883       1894       1893  
      1762       1763       1774       1773       1883       1884       1895       1894  
      1763       1764       1775       1774       1884       1885       1896       1895  
      1764       1765       1776       1775       1885       1886       1897       1896  
      1765       1766       1777       1776       1886       1887       1898       1897  
      1766       1767       1778       1777       1887       1888       1899       1898  
      1767       1768       1779       1778       1888       1889       1900       1899  
      1768       1769       1780       1779       1889       1890       1901       1900  
      1769       1770       1781       1780       1890       1891       1902       1901  
      1770       1771       1782       1781       1891       1892       1903       1902  
      1772       1773       1784       1783       1893       1894       1905       1904  
      1773       1774       1785       1784       1894       1895       1906       1905  
      1774       1775       1786       1785       1895       1896       1907       1906  
      1775       1776       1787       1786       1896       1897       1908       1907  
      1776       1777       1788       1787       1897       1898       1909       1908  
      1777       1778       1789       1788       1898       1899       1910       1909  
      1778       1779       1790       1789       1899       1900       1911       1910  
      1779       1780       1791       1790       1900       1901       1912       1911  
      1780       1781       1792       1791       1901       1902       1913       1912  
      1781       1782       1793       1792       1902       1903       1914       1913  
      1783       1784       1795       1794       1904       1905       1916       1915  
      1784       1785       1796       1795       1905       1906       1917       1916  
      1785       1786       1797       1796       1906       1907       1918       1917  
      1786       1787       1798       1797       1907       1908       1919       1918  
      1787       1788       1799       1798       1908       1909       1920       1919  
      1788       1789       1800       1799       1909       1910       1921       1920  
      1789       1790       1801       1800       1910       1911       1922       1921  
      1790       1791       1802       1801       1911       1912       1923       1922  
      1791       1792       1803       1802       1912       1913       1924       1923  
      1792       1793       1804       1803       1913       1914       1925       1924  
      1794       1795       1806       1805       1915       1916       1927       1926  
      1795       1796       1807       1806       1916       1917       1928       1927  
      1796       1797       1808       1807       1917       1918       1929       1928  
      1797       1798       1809       1808       1918       1919       1930       1929  
      1798       1799       1810       1809       1919       1920       1931       1930  
      1799       1800       1811       1810       1920       1921       1932       1931  
      1800       1801       1812       1811       1921       1922       1933       1932  
      1801       1802       1813       1812       1922       1923       1934       1933  
      1802       1803       1814       1813       1923       1924       1935       1934  
      1803       1804       1815       1814       1924       1925       1936       1935  
      1816       1817       1828       1827       1937       1938       1949       1948  
      1817       1818       1829       1828       1938       1939       1950       1949  
      1818       1819       1830       1829       1939       1940       1951       1950  
      1819       1820       1831       1830       1940       1941       1952       1951  
      1820       1821       1832       1831       1941       1942       1953       1952  
      1821       1822       1833       1832       1942       1943       1954       1953  
      1822       1823       1834       1833       1943       1944       1955       1954  
      1823       1824       1835       1834       1944       1945       1956       1955  
      1824       1825       1836       1835       1945       1946       1957       1956  
      1825       1826       1837       1836       1946       1947       1958       1957  
      1827       1828       1839       1838       1948       1949       1960       1959  
      1828       1829       1840       1839       1949       1950       1961       1960  
      1829       1830       1841       1840       1950       1951       1962       1961  
      1830       1831       1842       1841       1951       1952       1963       1962  
      1831       1832       1843       1842       1952       1953       1964       1963  
      1832       1833       1844       1843       1953       1954       1965       1964  
      1833       1834       1845       1844       1954       1955       1966       1965  
      1834       1835       1846       1845       1955       1956       1967       1966  
      1835       1836       1847       1846       1956       1957       1968       1967  
      1836       1837       1848       1847       1957       1958       1969       1968  
      1838       1839       1850       1849       1959       1960       1971       1970  
      1839       1840       1851       1850       1960       1961       1972       1971  
      1840       1841       1852       1851       1961       1962       1973       1972  
      1841       1842       1853       1852       1962       1963       1974       1973  
      1842       1843       1854       1853       1963       1964       1975       1974  
      1843       1844       1855       1854       1964       1965       1976       1975  
      1844       1845       1856       1855       1965       1966       1977       1976  
      1845       1846       1857       1856       1966       1967       1978       1977  
      1846       1847       1858       1857       1967       1968       1979       1978  
      1847       1848       1859       1858       1968       1969       1980       1979  
      1849       1850       1861       1860       1970       1971       1982       1981  
      1850       1851       1862       1861       1971       1972       1983       1982  
      1851       1852       1863       1862       1972       1973       1984       1983  
      1852       1853       1864       1863       1973       1974       1985       1984  
      1853       1854       1865       1864       1974       1975       1986       1985  
      1854       1855       1866       1865       1975       1976       1987       1986  
      1855       1856       1867       1866       1976       1977       1988       1987  
      1856       1857       1868       1867       1977       1978       1989       1988  
      1857       1858       1869       1868       1978       1979       1990       1989  
      1858       1859       1870       1869       1979       1980       1991       1990  
      1860       1861       1872       1871       1981       1982       1993       1992  
      1861       1862       1873       1872       1982       1983       1994       1993  
      1862       1863       1874       1873       1983       1984       1995       1994  
      1863       1864       1875       1874       1984       1985       1996       1995  
      1864       1865       1876       1875       1985       1986       1997       1996  
      1865       1866       1877       1876       1986       1987       1998       1997  
      1866       1867       1878       1877       1987       1988       1999       1998  
      1867       1868       1879       1878       1988       1989       2000       1999  
      1868       1869       1880       1879       1989       1990       2001       2000  
      1869       1870       1881       1880       1990       1991       2002       2001  
      1871       1872       1883       1882       1992       1993       2004       2003  
      1872       1873       1884       1883       1993       1994       2005       2004  
      1873       1874       1885       1884       1994       1995       2006       2005  
      1874       1875       1886       1885       1995       1996       2007       2006  
      1875       1876       1887       1886       1996       1997       2008       2007  
      1876       1877       1888       1887       1997       1998       2009       2008  
      1877       1878       1889       1888       1998       1999       2010       2009  
      1878       1879       1890       1889       1999       2000       2011       2010  
      1879       1880       1891       1890       2000       2001       2012       2011  
      1880       1881       1892       1891       2001       2002       2013       2012  
      1882       1883       1894       1893       2003       2004       2015       2014  
      1883       1884       1895       1894       2004       2005       2016       2015  
      1884       1885       1896       1895       2005       2006       2017       2016  
      1885       1886       1897       1896       2006       2007       2018       2017  
      1886       1887       1898       1897       2007       2008       2019       2018  
      1887       1888       1899       1898       2008       2009       2020       2019  
      1888       1889       1900       1899       2009       2010       2021       2020  
      1889       1890       1901       1900       2010       2011       2022       2021  
      1890       1891       1902       1901       2011       2012       2023       2022  
      1891       1892       1903       1902       2012       2013       2024       2023  
      1893       1894       1905       1904       2014       2015       2026       2025  
      1894       1895       1906       1905       2015       2016       2027       2026  
      1895       1896       1907       1906       2016       2017       2028       2027  
      1896       1897       1908       1907       2017       2018       2029       2028  
      1897       1898       1909       1908       2018       2019       2030       2029  
      1898       1899       1910       1909       2019       2020       2031       2030  
      1899       1900       1911       1910       2020       2021       2032       2031  
      1900       1901       1912       1911       2021       2022       2033       2032  
      1901       1902       1913       1912       2022       2023       2034       2033  
      1902       1903       1914       1913       2023       2024       2035       2034  
      1904       1905       1916       1915       2025       2026       2037       2036  
      1905       1906       1917       1916       2026       2027       2038       2037  
      1906       1907       1918       1917       2027       2028       2039       2038  
      1907       1908       1919       1918       2028       2029       2040       2039  
      1908       1909       1920       1919       2029       2030       2041       2040  
      1909       1910       1921       1920       2030       2031       2042       2041  
      1910       1911       1922       1921       2031       2032       2043       2042  
      1911       1912       1923       1922       2032       2033       2044       2043  
      1912       1913       1924       1923       2033       2034       2045       2044  
      1913       1914       1925       1924       2034       2035       2046       2045  
      1915       1916       1927       1926       2036       2037       2048       2047  
      1916       1917       1928       1927       2037       2038       2049       2048  
      1917       1918       1929       1928       2038       2039       2050       2049  
      1918       1919       1930       1929       2039       2040       2051       2050  
      1919       1920       1931       1930       2040       2041       2052       2051  
      1920       1921       1932       1931       2041       2042       2053       2052  
      1921       1922       1933       1932       2042       2043       2054       2053  
      1922       1923       1934       1933       2043       2044       2055       2054  
      1923       1924       1935       1934       2044       2045       2056       2055  
      1924       1925       1936       1935       2045       2046       2057       2056  
      1937       1938       1949       1948       2058       2059       2070       2069  
      1938       1939       1950       1949       2059       2060       2071       2070  
      1939       1940       1951       1950       2060       2061       2072       2071  
      1940       1941       1952       1951       2061       2062       2073       2072  
      1941       1942       1953       1952       2062       2063       2074       2073  
      1942       1943       1954       1953       2063       2064       2075       2074  
      1943       1944       1955       1954       2064       2065       2076       2075  
      1944       1945       1956       1955       2065       2066       2077       2076  
      1945       1946       1957       1956       2066       2067       2078       2077  
      1946       1947       1958       1957       2067       2068       2079       2078  
      1948       1949       1960       1959       2069       2070       2081       2080  
      1949       1950       1961       1960       2070       2071       2082       2081  
      1950       1951       1962       1961       2071       2072       2083       2082  
      1951       1952       1963       1962       2072       2073       2084       2083  
      1952       1953       1964       1963       2073       2074       2085       2084  
      1953       1954       1965       1964       2074       2075       2086       2085  
      1954       1955       1966       1965       2075       2076       2087       2086  
      1955       1956       1967       1966       2076       2077       2088       2087  
      1956       1957       1968       1967       2077       2078       2089       2088  
      1957       1958       1969       1968       2078       2079       2090       2089  
      1959       1960       1971       1970       2080       2081       2092       2091  
      1960       1961       1972       1971       2081       2082       2093       2092  
      1961       1962       1973       1972       2082       2083       2094       2093  
      1962       1963       1974       1973       2083       2084       2095       2094  
      1963       1964       1975       1974       2084       2085       2096       2095  
      1964       1965       1976       1975       2085       2086       2097       2096  
      1965       1966       1977       1976       2086       2087       2098       2097  
      1966       1967       1978       1977       2087       2088       2099       2098  
      1967       1968       1979       1978       2088       2089       2100       2099  
      1968       1969       1980       1979       2089       2090       2101       2100  
      1970       1971       1982       1981       2091       2092       2103       2102  
      1971       1972       1983       1982       2092       2093       2104       2103  
      1972       1973       1984       1983       2093       2094       2105       2104  
      1973       1974       1985       1984       2094       2095       2106       2105  
      1974       1975       1986       1985       2095       2096       2107       2106  
      1975       1976       1987       1986       2096       2097       2108       2107  
      1976       1977       1988       1987       2097       2098       2109       2108  
      1977       1978       1989       1988       2098       2099       2110       2109  
      1978       1979       1990       1989       2099       2100       2111       2110  
      1979       1980       1991       1990       2100       2101       2112       2111  
      1981       1982       1993       1992       2102       2103       2114       2113  
      1982       1983       1994       1993       2103       2104       2115       2114  
      1983       1984       1995       1994       2104       2105       2116       2115  
      1984       1985       1996       1995       2105       2106       2117       2116  
      1985       1986       1997       1996       2106       2107       2118       2117  
      1986       1987       1998       1997       2107       2108       2119       2118  
      1987       1988       1999       1998       2108       2109       2120       2119  
      1988       1989       2000       1999       2109       2110       2121       2120  
      1989       1990       2001       2000       2110       2111       2122       2121  
      1990       1991       2002       2001       2111       2112       2123       2122  
      1992       1993       2004       2003       2113       2114       2125       2124  
      1993       1994       2005       2004       2114       2115       2126       2125  
      1994       1995       2006       2005       2115       2116       2127       2126  
      1995       1996       2007       2006       2116       2117       2128       2127  
      1996       1997       2008       2007       2117       2118       2129       2128  
      1997       1998       2009       2008       2118       2119       2130       2129  
      1998       1999       2010       2009       2119       2120       2131       2130  
      1999       2000       2011       2010       2120       2121       2132       2131  
      2000       2001       2012       2011       2121       2122       2133       2132  
      2001       2002       2013       2012       2122       2123       2134       2133  
      2003       2004       2015       2014       2124       2125       2136       2135  
      2004       2005       2016       2015       2125       2126       2137       2136  
      2005       2006       2017       2016       2126       2127       2138       2137  
      2006       2007       2018       2017       2127       2128       2139       2138  
      2007       2008       2019       2018       2128       2129       2140       2139  
      2008       2009       2020       2019       2129       2130       2141       2140  
      2009       2010       2021       2020       2130       2131       2142       2141  
      2010       2011       2022       2021       2131       2132       2143       2142  
      2011       2012       2023       2022       2132       2133       2144       2143  
      2012       2013       2024       2023       2133       2134       2145       2144  
      2014       2015       2026       2025       2135       2136       2147       2146  
      2015       2016       2027       2026       2136       2137       2148       2147  
      2016       2017       2028       2027       2137       2138       2149       2148  
      2017       2018       2029       2028       2138       2139       2150       2149  
      2018       2019       2030       2029       2139       2140       2151       2150  
      2019       2020       2031       2030       2140       2141       2152       2151  
      2020       2021       2032       2031       2141       2142       2153       2152  
      2021       2022       2033       2032       2142       2143       2154       2153  
      2022       2023       2034       2033       2143       2144       2155       2154  
      2023       2024       2035       2034       2144       2145       2156       2155  
      2025       2026       2037       2036       2146       2147       2158       2157  
      2026       2027       2038       2037       2147       2148       2159       2158  
      2027       2028       2039       2038       2148       2149       2160       2159  
      2028       2029       2040       2039       2149       2150       2161       2160  
      2029       2030       2041       2040       2150       2151       2162       2161  
      2030       2031       2042       2041       2151       2152       2163       2162  
      2031       2032       2043       2042       2152       2153       2164       2163  
      2032       2033       2044       2043       2153       2154       2165       2164  
      2033       2034       2045       2044       2154       2155       2166       2165  
      2034       2035       2046       2045       2155       2156       2167       2166  
      2036       2037       2048       2047       2157       2158       2169       2168  
      2037       2038       2049       2048       2158       2159       2170       2169  
      2038       2039       2050       2049       2159       2160       2171       2170  
      2039       2040       2051       2050       2160       2161       2172       2171  
      2040       2041       2052       2051       2161       2162       2173       2172  
      2041       2042       2053       2052       2162       2163       2174       2173  
      2042       2043       2054       2053       2163       2164       2175       2174  
      2043       2044       2055       2054       2164       2165       2176       2175  
      2044       2045       2056       2055       2165       2166       2177       2176  
      2045       2046       2057       2056       2166       2167       2178       2177  
      2058       2059       2070       2069       2179       2180       2191       2190  
      2059       2060       2071       2070       2180       2181       2192       2191  
      2060       2061       2072       2071       2181       2182       2193       2192  
      2061       2062       2073       2072       2182       2183       2194       2193  
      2062       2063       2074       2073       2183       2184       2195       2194  
      2063       2064       2075       2074       2184       2185       2196       2195  
      2064       2065       2076       2075       2185       2186       2197       2196  
      2065       2066       2077       2076       2186       2187       2198       2197  
      2066       2067       2078       2077       2187       2188       2199       2198  
      2067       2068       2079       2078       2188       2189       2200       2199  
      2069       2070       2081       2080       2190       2191       2202       2201  
      2070       2071       2082       2081       2191       2192       2203       2202  
      2071       2072       2083       2082       2192       2193       2204       2203  
      2072       2073       2084       2083       2193       2194       2205       2204  
      2073       2074       2085       2084       2194       2195       2206       2205  
      2074       2075       2086       2085       2195       2196       2207       2206  
      2075       2076       2087       2086       2196       2197       2208       2207  
      2076       2077       2088       2087       2197       2198       2209       2208  
      2077       2078       2089       2088       2198       2199       2210       2209  
      2078       2079       2090       2089       2199       2200       2211       2210  
      2080       2081       2092       2091       2201       2202       2213       2212  
      2081       2082       2093       2092       2202       2203       2214       2213  
      2082       2083       2094       2093       2203       2204       2215       2214  
      2083       2084       2095       2094       2204       2205       2216       2215  
      2084       2085       2096       2095       2205       2206       2217       2216  
      2085       2086       2097       2096       2206       2207       2218       2217  
      2086       2087       2098       2097       2207       2208       2219       2218  
      2087       2088       2099       2098       2208       2209       2220       2219  
      2088       2089       2100       2099       2209       2210       2221       2220  
      2089       2090       2101       2100       2210       2211       2222       2221  
      2091       2092       2103       2102       2212       2213       2224       2223  
      2092       2093       2104       2103       2213       2214       2225       2224  
      2093       2094       2105       2104       2214       2215       2226       2225  
      2094       2095       2106       2105       2215       2216       2227       2226  
      2095       2096       2107       2106       2216       2217       2228       2227  
      2096       2097       2108       2107       2217       2218       2229       2228  
      2097       2098       2109       2108       2218       2219       2230       2229  
      2098       2099       2110       2109       2219       2220       2231       2230  
      2099       2100       2111       2110       2220       2221       2232       2231  
      2100       2101       2112       2111       2221       2222       2233       2232  
      2102       2103       2114       2113       2223       2224       2235       2234  
      2103       2104       2115       2114       2224       2225       2236       2235  
      2104       2105       2116       2115       2225       2226       2237       2236  
      2105       2106       2117       2116       2226       2227       2238       2237  
      2106       2107       2118       2117       2227       2228       2239       2238  
      2107       2108       2119       2118       2228       2229       2240       2239  
      2108       2109       2120       2119       2229       2230       2241       2240  
      2109       2110       2121       2120       2230       2231       2242       2241  
      2110       2111       2122       2121       2231       2232       2243       2242  
      2111       2112       2123       2122       2232       2233       2244       2243  
      2113       2114       2125       2124       2234       2235       2246       2245  
      2114       2115       2126       2125       2235       2236       2247       2246  
      2115       2116       2127       2126       2236       2237       2248       2247  
      2116       2117       2128       2127       2237       2238       2249       2248  
      2117       2118       2129       2128       2238       2239       2250       2249  
      2118       2119       2130       2129       2239       2240       2251       2250  
      2119       2120       2131       2130       2240       2241       2252       2251  
      2120       2121       2132       2131       2241       2242       2253       2252  
      2121       2122       2133       2132       2242       2243       2254       2253  
      2122       2123       2134       2133       2243       2244       2255       2254  
      2124       2125       2136       2135       2245       2246       2257       2256  
      2125       2126       2137       2136       2246       2247       2258       2257  
      2126       2127       2138       2137       2247       2248       2259       2258  
      2127       2128       2139       2138       2248       2249       2260       2259  
      2128       2129       2140       2139       2249       2250       2261       2260  
      2129       2130       2141       2140       2250       2251       2262       2261  
      2130       2131       2142       2141       2251       2252       2263       2262  
      2131       2132       2143       2142       2252       2253       2264       2263  
      2132       2133       2144       2143       2253       2254       2265       2264  
      2133       2134       2145       2144       2254       2255       2266       2265  
      2135       2136       2147       2146       2256       2257       2268       2267  
      2136       2137       2148       2147       2257       2258       2269       2268  
      2137       2138       2149       2148       2258       2259       2270       2269  
      2138       2139       2150       2149       2259       2260       2271       2270  
      2139       2140       2151       2150       2260       2261       2272       2271  
      2140       2141       2152       2151       2261       2262       2273       2272  
      2141       2142       2153       2152       2262       2263       2274       2273  
      2142       2143       2154       2153       2263       2264       2275       2274  
      2143       2144       2155       2154       2264       2265       2276       2275  
      2144       2145       2156       2155       2265       2266       2277       2276  
      2146       2147       2158       2157       2267       2268       2279       2278  
      2147       2148       2159       2158       2268       2269       2280       2279  
      2148       2149       2160       2159       2269       2270       2281       2280  
      2149       2150       2161       2160       2270       2271       2282       2281  
      2150       2151       2162       2161       2271       2272       2283       2282  
      2151       2152       2163       2162       2272       2273       2284       2283  
      2152       2153       2164       2163       2273       2274       2285       2284  
      2153       2154       2165       2164       2274       2275       2286       2285  
      2154       2155       2166       2165       2275       2276       2287       2286  
      2155       2156       2167       2166       2276       2277       2288       2287  
      2157       2158       2169       2168       2278       2279       2290       2289  
      2158       2159       2170       2169       2279       2280       2291       2290  
      2159       2160       2171       2170       2280       2281       2292       2291  
      2160       2161       2172       2171       2281       2282       2293       2292  
      2161       2162       2173       2172       2282       2283       2294       2293  
      2162       2163       2174       2173       2283       2284       2295       2294  
      2163       2164       2175       2174       2284       2285       2296       2295  
      2164       2165       2176       2175       2285       2286       2297       2296  
      2165       2166       2177       2176       2286       2287       2298       2297  
      2166       2167       2178       2177       2287       2288       2299       2298  
      2179       2180       2191       2190       2300       2301       2312       2311  
      2180       2181       2192       2191       2301       2302       2313       2312  
      2181       2182       2193       2192       2302       2303       2314       2313  
      2182       2183       2194       2193       2303       2304       2315       2314  
      2183       2184       2195       2194       2304       2305       2316       2315  
      2184       2185       2196       2195       2305       2306       2317       2316  
      2185       2186       2197       2196       2306       2307       2318       2317  
      2186       2187       2198       2197       2307       2308       2319       2318  
      2187       2188       2199       2198       2308       2309       2320       2319  
      2188       2189       2200       2199       2309       2310       2321       2320  
      2190       2191       2202       2201       2311       2312       2323       2322  
      2191       2192       2203       2202       2312       2313       2324       2323  
      2192       2193       2204       2203       2313       2314       2325       2324  
      2193       2194       2205       2204       2314       2315       2326       2325  
      2194       2195       2206       2205       2315       2316       2327       2326  
      2195       2196       2207       2206       2316       2317       2328       2327  
      2196       2197       2208       2207       2317       2318       2329       2328  
      2197       2198       2209       2208       2318       2319       2330       2329  
      2198       2199       2210       2209       2319       2320       2331       2330  
      2199       2200       2211       2210       2320       2321       2332       2331  
      2201       2202       2213       2212       2322       2323       2334       2333  
      2202       2203       2214       2213       2323       2324       2335       2334  
      2203       2204       2215       2214       2324       2325       2336       2335  
      2204       2205       2216       2215       2325       2326       2337       2336  
      2205       2206       2217       2216       2326       2327       2338       2337  
      2206       2207       2218       2217       2327       2328       2339       2338  
      2207       2208       2219       2218       2328       2329       2340       2339  
      2208       2209       2220       2219       2329       2330       2341       2340  
      2209       2210       2221       2220       2330       2331       2342       2341  
      2210       2211       2222       2221       2331       2332       2343       2342  
      2212       2213       2224       2223       2333       2334       2345       2344  
      2213       2214       2225       2224       2334       2335       2346       2345  
      2214       2215       2226       2225       2335       2336       2347       2346  
      2215       2216       2227       2226       2336       2337       2348       2347  
      2216       2217       2228       2227       2337       2338       2349       2348  
      2217       2218       2229       2228       2338       2339       2350       2349  
      2218       2219       2230       2229       2339       2340       2351       2350  
      2219       2220       2231       2230       2340       2341       2352       2351  
      2220       2221       2232       2231       2341       2342       2353       2352  
      2221       2222       2233       2232       2342       2343       2354       2353  
      2223       2224       2235       2234       2344       2345       2356       2355  
      2224       2225       2236       2235       2345       2346       2357       2356  
      2225       2226       2237       2236       2346       2347       2358       2357  
      2226       2227       2238       2237       2347       2348       2359       2358  
      2227       2228       2239       2238       2348       2349       2360       2359  
      2228       2229       2240       2239       2349       2350       2361       2360  
      2229       2230       2241       2240       2350       2351       2362       2361  
      2230       2231       2242       2241       2351       2352       2363       2362  
      2231       2232       2243       2242       2352       2353       2364       2363  
      2232       2233       2244       2243       2353       2354       2365       2364  
      2234       2235       2246       2245       2355       2356       2367       2366  
      2235       2236       2247       2246       2356       2357       2368       2367  
      2236       2237       2248       2247       2357       2358       2369       2368  
      2237       2238       2249       2248       2358       2359       2370       2369  
      2238       2239       2250       2249       2359       2360       2371       2370  
      2239       2240       2251       2250       2360       2361       2372       2371  
      2240       2241       2252       2251       2361       2362       2373       2372  
      2241       2242       2253       2252       2362       2363       2374       2373  
      2242       2243       2254       2253       2363       2364       2375       2374  
      2243       2244       2255       2254       2364       2365       2376       2375  
      2245       2246       2257       2256       2366       2367       2378       2377  
      2246       2247       2258       2257       2367       2368       2379       2378  
      2247       2248       2259       2258       2368       2369       2380       2379  
      2248       2249       2260       2259       2369       2370       2381       2380  
      2249       2250       2261       2260       2370       2371       2382       2381  
      2250       2251       2262       2261       2371       2372       2383       2382  
      2251       2252       2263       2262       2372       2373       2384       2383  
      2252       2253       2264       2263       2373       2374       2385       2384  
      2253       2254       2265       2264       2374       2375       2386       2385  
      2254       2255       2266       2265       2375       2376       2387       2386  
      2256       2257       2268       2267       2377       2378       2389       2388  
      2257       2258       2269       2268       2378       2379       2390       2389  
      2258       2259       2270       2269       2379       2380       2391       2390  
      2259       2260       2271       2270       2380       2381       2392       2391  
      2260       2261       2272       2271       2381       2382       2393       2392  
      2261       2262       2273       2272       2382       2383       2394       2393  
      2262       2263       2274       2273       2383       2384       2395       2394  
      2263       2264       2275       2274       2384       2385       2396       2395  
      2264       2265       2276       2275       2385       2386       2397       2396  
      2265       2266       2277       2276       2386       2387       2398       2397  
      2267       2268       2279       2278       2388       2389       2400       2399  
      2268       2269       2280       2279       2389       2390       2401       2400  
      2269       2270       2281       2280       2390       2391       2402       2401  
      2270       2271       2282       2281       2391       2392       2403       2402  
      2271       2272       2283       2282       2392       2393       2404       2403  
      2272       2273       2284       2283       2393       2394       2405       2404  
      2273       2274       2285       2284       2394       2395       2406       2405  
      2274       2275       2286       2285       2395       2396       2407       2406  
      2275       2276       2287       2286       2396       2397       2408       2407  
      2276       2277       2288       2287       2397       2398       2409       2408  
      2278       2279       2290       2289       2399       2400       2411       2410  
      2279       2280       2291       2290       2400       2401       2412       2411  
      2280       2281       2292       2291       2401       2402       2413       2412  
      2281       2282       2293       2292       2402       2403       2414       2413  
      2282       2283       2294       2293       2403       2404       2415       2414  
      2283       2284       2295       2294       2404       2405       2416       2415  
      2284       2285       2296       2295       2405       2406       2417       2416  
      2285       2286       2297       2296       2406       2407       2418       2417  
      2286       2287       2298       2297       2407       2408       2419       2418  
      2287       2288       2299       2298       2408       2409       2420       2419  
      2300       2301       2312       2311       2421       2422       2433       2432  
      2301       2302       2313       2312       2422       2423       2434       2433  
      2302       2303       2314       2313       2423       2424       2435       2434  
      2303       2304       2315       2314       2424       2425       2436       2435  
      2304       2305       2316       2315       2425       2426       2437       2436  
      2305       2306       2317       2316       2426       2427       2438       2437  
      2306       2307       2318       2317       2427       2428       2439       2438  
      2307       2308       2319       2318       2428       2429       2440       2439  
      2308       2309       2320       2319       2429       2430       2441       2440  
      2309       2310       2321       2320       2430       2431       2442       2441  
      2311       2312       2323       2322       2432       2433       2444       2443  
      2312       2313       2324       2323       2433       2434       2445       2444  
      2313       2314       2325       2324       2434       2435       2446       2445  
      2314       2315       2326       2325       2435       2436       2447       2446  
      2315       2316       2327       2326       2436       2437       2448       2447  
      2316       2317       2328       2327       2437       2438       2449       2448  
      2317       2318       2329       2328       2438       2439       2450       2449  
      2318       2319       2330       2329       2439       2440       2451       2450  
      2319       2320       2331       2330       2440       2441       2452       2451  
      2320       2321       2332       2331       2441       2442       2453       2452  
      2322       2323       2334       2333       2443       2444       2455       2454  
      2323       2324       2335       2334       2444       2445       2456       2455  
      2324       2325       2336       2335       2445       2446       2457       2456  
      2325       2326       2337       2336       2446       2447       2458       2457  
      2326       2327       2338       2337       2447       2448       2459       2458  
      2327       2328       2339       2338       2448       2449       2460       2459  
      2328       2329       2340       2339       2449       2450       2461       2460  
      2329       2330       2341       2340       2450       2451       2462       2461  
      2330       2331       2342       2341       2451       2452       2463       2462  
      2331       2332       2343       2342       2452       2453       2464       2463  
      2333       2334       2345       2344       2454       2455       2466       2465  
      2334       2335       2346       2345       2455       2456       2467       2466  
      2335       2336       2347       2346       2456       2457       2468       2467  
      2336       2337       2348       2347       2457       2458       2469       2468  
      2337       2338       2349       2348       2458       2459       2470       2469  
      2338       2339       2350       2349       2459       2460       2471       2470  
      2339       2340       2351       2350       2460       2461       2472       2471  
      2340       2341       2352       2351       2461       2462       2473       2472  
      2341       2342       2353       2352       2462       2463       2474       2473  
      2342       2343       2354       2353       2463       2464       2475       2474  
      2344       2345       2356       2355       2465       2466       2477       2476  
      2345       2346       2357       2356       2466       2467       2478       2477  
      2346       2347       2358       2357       2467       2468       2479       2478  
      2347       2348       2359       2358       2468       2469       2480       2479  
      2348       2349       2360       2359       2469       2470       2481       2480  
      2349       2350       2361       2360       2470       2471       2482       2481  
      2350       2351       2362       2361       2471       2472       2483       2482  
      2351       2352       2363       2362       2472       2473       2484       2483  
      2352       2353       2364       2363       2473       2474       2485       2484  
      2353       2354       2365       2364       2474       2475       2486       2485  
      2355       2356       2367       2366       2476       2477       2488       2487  
      2356       2357       2368       2367       2477       2478       2489       2488  
      2357       2358       2369       2368       2478       2479       2490       2489  
      2358       2359       2370       2369       2479       2480       2491       2490  
      2359       2360       2371       2370       2480       2481       2492       2491  
      2360       2361       2372       2371       2481       2482       2493       2492  
      2361       2362       2373       2372       2482       2483       2494       2493  
      2362       2363       2374       2373       2483       2484       2495       2494  
      2363       2364       2375       2374       2484       2485       2496       2495  
      2364       2365       2376       2375       2485       2486       2497       2496  
      2366       2367       2378       2377       2487       2488       2499       2498  
      2367       2368       2379       2378       2488       2489       2500       2499  
      2368       2369       2380       2379       2489       2490       2501       2500  
      2369       2370       2381       2380       2490       2491       2502       2501  
      2370       2371       2382       2381       2491       2492       2503       2502  
      2371       2372       2383       2382       2492       2493       2504       2503  
      2372       2373       2384       2383       2493       2494       2505       2504  
      2373       2374       2385       2384       2494       2495       2506       2505  
      2374       2375       2386       2385       2495       2496       2507       2506  
      2375       2376       2387       2386       2496       2497       2508       2507  
      2377       2378       2389       2388       2498       2499       2510       2509  
      2378       2379       2390       2389       2499       2500       2511       2510  
      2379       2380       2391       2390       2500       2501       2512       2511  
      2380       2381       2392       2391       2501       2502       2513       2512  
      2381       2382       2393       2392       2502       2503       2514       2513  
      2382       2383       2394       2393       2503       2504       2515       2514  
      2383       2384       2395       2394       2504       2505       2516       2515  
      2384       2385       2396       2395       2505       2506       2517       2516  
      2385       2386       2397       2396       2506       2507       2518       2517  
      2386       2387       2398       2397       2507       2508       2519       2518  
      2388       2389       2400       2399       2509       2510       2521       2520  
      2389       2390       2401       2400       2510       2511       2522       2521  
      2390       2391       2402       2401       2511       2512       2523       2522  
      2391       2392       2403       2402       2512       2513       2524       2523  
      2392       2393       2404       2403       2513       2514       2525       2524  
      2393       2394       2405       2404       2514       2515       2526       2525  
      2394       2395       2406       2405       2515       2516       2527       2526  
      2395       2396       2407       2406       2516       2517       2528       2527  
      2396       2397       2408       2407       2517       2518       2529       2528  
      2397       2398       2409       2408       2518       2519       2530       2529  
      2399       2400       2411       2410       2520       2521       2532       2531  
      2400       2401       2412       2411       2521       2522       2533       2532  
      2401       2402       2413       2412       2522       2523       2534       2533  
      2402       2403       2414       2413       2523       2524       2535       2534  
      2403       2404       2415       2414       2524       2525       2536       2535  
      2404       2405       2416       2415       2525       2526       2537       2536  
      2405       2406       2417       2416       2526       2527       2538       2537  
      2406       2407       2418       2417       2527       2528       2539       2538  
      2407       2408       2419       2418       2528       2529       2540       2539  
      2408       2409       2420       2419       2529       2530       2541       2540  
      2421       2422       2433       2432       2542       2543       2554       2553  
      2422       2423       2434       2433       2543       2544       2555       2554  
      2423       2424       2435       2434       2544       2545       2556       2555  
      2424       2425       2436       2435       2545       2546       2557       2556  
      2425       2426       2437       2436       2546       2547       2558       2557  
      2426       2427       2438       2437       2547       2548       2559       2558  
      2427       2428       2439       2438       2548       2549       2560       2559  
      2428       2429       2440       2439       2549       2550       2561       2560  
      2429       2430       2441       2440       2550       2551       2562       2561  
      2430       2431       2442       2441       2551       2552       2563       2562  
      2432       2433       2444       2443       2553       2554       2565       2564  
      2433       2434       2445       2444       2554       2555       2566       2565  
      2434       2435       2446       2445       2555       2556       2567       2566  
      2435       2436       2447       2446       2556       2557       2568       2567  
      2436       2437       2448       2447       2557       2558       2569       2568  
      2437       2438       2449       2448       2558       2559       2570       2569  
      2438       2439       2450       2449       2559       2560       2571       2570  
      2439       2440       2451       2450       2560       2561       2572       2571  
      2440       2441       2452       2451       2561       2562       2573       2572  
      2441       2442       2453       2452       2562       2563       2574       2573  
      2443       2444       2455       2454       2564       2565       2576       2575  
      2444       2445       2456       2455       2565       2566       2577       2576  
      2445       2446       2457       2456       2566       2567       2578       2577  
      2446       2447       2458       2457       2567       2568       2579       2578  
      2447       2448       2459       2458       2568       2569       2580       2579  
      2448       2449       2460       2459       2569       2570       2581       2580  
      2449       2450       2461       2460       2570       2571       2582       2581  
      2450       2451       2462       2461       2571       2572       2583       2582  
      2451       2452       2463       2462       2572       2573       2584       2583  
      2452       2453       2464       2463       2573       2574       2585       2584  
      2454       2455       2466       2465       2575       2576       2587       2586  
      2455       2456       2467       2466       2576       2577       2588       2587  
      2456       2457       2468       2467       2577       2578       2589       2588  
      2457       2458       2469       2468       2578       2579       2590       2589  
      2458       2459       2470       2469       2579       2580       2591       2590  
      2459       2460       2471       2470       2580       2581       2592       2591  
      2460       2461       2472       2471       2581       2582       2593       2592  
      2461       2462       2473       2472       2582       2583       2594       2593  
      2462       2463       2474       2473       2583       2584       2595       2594  
      2463       2464       2475       2474       2584       2585       2596       2595  
      2465       2466       2477       2476       2586       2587       2598       2597  
      2466       2467       2478       2477       2587       2588       2599       2598  
      2467       2468       2479       2478       2588       2589       2600       2599  
      2468       2469       2480       2479       2589       2590       2601       2600  
      2469       2470       2481       2480       2590       2591       2602       2601  
      2470       2471       2482       2481       2591       2592       2603       2602  
      2471       2472       2483       2482       2592       2593       2604       2603  
      2472       2473       2484       2483       2593       2594       2605       2604  
      2473       2474       2485       2484       2594       2595       2606       2605  
      2474       2475       2486       2485       2595       2596       2607       2606  
      2476       2477       2488       2487       2597       2598       2609       2608  
      2477       2478       2489       2488       2598       2599       2610       2609  
      2478       2479       2490       2489       2599       2600       2611       2610  
      2479       2480       2491       2490       2600       2601       2612       2611  
      2480       2481       2492       2491       2601       2602       2613       2612  
      2481       2482       2493       2492       2602       2603       2614       2613  
      2482       2483       2494       2493       2603       2604       2615       2614  
      2483       2484       2495       2494       2604       2605       2616       2615  
      2484       2485       2496       2495       2605       2606       2617       2616  
      2485       2486       2497       2496       2606       2607       2618       2617  
      2487       2488       2499       2498       2608       2609       2620       2619  
      2488       2489       2500       2499       2609       2610       2621       2620  
      2489       2490       2501       2500       2610       2611       2622       2621  
      2490       2491       2502       2501       2611       2612       2623       2622  
      2491       2492       2503       2502       2612       2613       2624       2623  
      2492       2493       2504       2503       2613       2614       2625       2624  
      2493       2494       2505       2504       2614       2615       2626       2625  
      2494       2495       2506       2505       2615       2616       2627       2626  
      2495       2496       2507       2506       2616       2617       2628       2627  
      2496       2497       2508       2507       2617       2618       2629       2628  
      2498       2499       2510       2509       2619       2620       2631       2630  
      2499       2500       2511       2510       2620       2621       2632       2631  
      2500       2501       2512       2511       2621       2622       2633       2632  
      2501       2502       2513       2512       2622       2623       2634       2633  
      2502       2503       2514       2513       2623       2624       2635       2634  
      2503       2504       2515       2514       2624       2625       2636       2635  
      2504       2505       2516       2515       2625       2626       2637       2636  
      2505       2506       2517       2516       2626       2627       2638       2637  
      2506       2507       2518       2517       2627       2628       2639       2638  
      2507       2508       2519       2518       2628       2629       2640       2639  
      2509       2510       2521       2520       2630       2631       2642       2641  
      2510       2511       2522       2521       2631       2632       2643       2642  
      2511       2512       2523       2522       2632       2633       2644       2643  
      2512       2513       2524       2523       2633       2634       2645       2644  
      2513       2514       2525       2524       2634       2635       2646       2645  
      2514       2515       2526       2525       2635       2636       2647       2646  
      2515       2516       2527       2526       2636       2637       2648       2647  
      2516       2517       2528       2527       2637       2638       2649       2648  
      2517       2518       2529       2528       2638       2639       2650       2649  
      2518       2519       2530       2529       2639       2640       2651       2650  
      2520       2521       2532       2531       2641       2642       2653       2652  
      2521       2522       2533       2532       2642       2643       2654       2653  
      2522       2523       2534       2533       2643       2644       2655       2654  
      2523       2524       2535       2534       2644       2645       2656       2655  
      2524       2525       2536       2535       2645       2646       2657       2656  
      2525       2526       2537       2536       2646       2647       2658       2657  
      2526       2527       2538       2537       2647       2648       2659       2658  
      2527       2528       2539       2538       2648       2649       2660       2659  
      2528       2529       2540       2539       2649       2650       2661       2660  
      2529       2530       2541       2540       2650       2651       2662       2661  
      2542       2543       2554       2553       2663       2664       2675       2674  
      2543       2544       2555       2554       2664       2665       2676       2675  
      2544       2545       2556       2555       2665       2666       2677       2676  
      2545       2546       2557       2556       2666       2667       2678       2677  
      2546       2547       2558       2557       2667       2668       2679       2678  
      2547       2548       2559       2558       2668       2669       2680       2679  
      2548       2549       2560       2559       2669       2670       2681       2680  
      2549       2550       2561       2560       2670       2671       2682       2681  
      2550       2551       2562       2561       2671       2672       2683       2682  
      2551       2552       2563       2562       2672       2673       2684       2683  
      2553       2554       2565       2564       2674       2675       2686       2685  
      2554       2555       2566       2565       2675       2676       2687       2686  
      2555       2556       2567       2566       2676       2677       2688       2687  
      2556       2557       2568       2567       2677       2678       2689       2688  
      2557       2558       2569       2568       2678       2679       2690       2689  
      2558       2559       2570       2569       2679       2680       2691       2690  
      2559       2560       2571       2570       2680       2681       2692       2691  
      2560       2561       2572       2571       2681       2682       2693       2692  
      2561       2562       2573       2572       2682       2683       2694       2693  
      2562       2563       2574       2573       2683       2684       2695       2694  
      2564       2565       2576       2575       2685       2686       2697       2696  
      2565       2566       2577       2576       2686       2687       2698       2697  
      2566       2567       2578       2577       2687       2688       2699       2698  
      2567       2568       2579       2578       2688       2689       2700       2699  
      2568       2569       2580       2579       2689       2690       2701       2700  
      2569       2570       2581       2580       2690       2691       2702       2701  
      2570       2571       2582       2581       2691       2692       2703       2702  
      2571       2572       2583       2582       2692       2693       2704       2703  
      2572       2573       2584       2583       2693       2694       2705       2704  
      2573       2574       2585       2584       2694       2695       2706       2705  
      2575       2576       2587       2586       2696       2697       2708       2707  
      2576       2577       2588       2587       2697       2698       2709       2708  
      2577       2578       2589       2588       2698       2699       2710       2709  
      2578       2579       2590       2589       2699       2700       2711       2710  
      2579       2580       2591       2590       2700       2701       2712       2711  
      2580       2581       2592       2591       2701       2702       2713       2712  
      2581       2582       2593       2592       2702       2703       2714       2713  
      2582       2583       2594       2593       2703       2704       2715       2714  
      2583       2584       2595       2594       2704       2705       2716       2715  
      2584       2585       2596       2595       2705       2706       2717       2716  
      2586       2587       2598       2597       2707       2708       2719       2718  
      2587       2588       2599       2598       2708       2709       2720       2719  
      2588       2589       2600       2599       2709       2710       2721       2720  
      2589       2590       2601       2600       2710       2711       2722       2721  
      2590       2591       2602       2601       2711       2712       2723       2722  
      2591       2592       2603       2602       2712       2713       2724       2723  
      2592       2593       2604       2603       2713       2714       2725       2724  
      2593       2594       2605       2604       2714       2715       2726       2725  
      2594       2595       2606       2605       2715       2716       2727       2726  
      2595       2596       2607       2606       2716       2717       2728       2727  
      2597       2598       2609       2608       2718       2719       2730       2729  
      2598       2599       2610       2609       2719       2720       2731       2730  
      2599       2600       2611       2610       2720       2721       2732       2731  
      2600       2601       2612       2611       2721       2722       2733       2732  
      2601       2602       2613       2612       2722       2723       2734       2733  
      2602       2603       2614       2613       2723       2724       2735       2734  
      2603       2604       2615       2614       2724       2725       2736       2735  
      2604       2605       2616       2615       2725       2726       2737       2736  
      2605       2606       2617       2616       2726       2727       2738       2737  
      2606       2607       2618       2617       2727       2728       2739       2738  
      2608       2609       2620       2619       2729       2730       2741       2740  
      2609       2610       2621       2620       2730       2731       2742       2741  
      2610       2611       2622       2621       2731       2732       2743       2742  
      2611       2612       2623       2622       2732       2733       2744       2743  
      2612       2613       2624       2623       2733       2734       2745       2744  
      2613       2614       2625       2624       2734       2735       2746       2745  
      2614       2615       2626       2625       2735       2736       2747       2746  
      2615       2616       2627       2626       2736       2737       2748       2747  
      2616       2617       2628       2627       2737       2738       2749       2748  
      2617       2618       2629       2628       2738       2739       2750       2749  
      2619       2620       2631       2630       2740       2741       2752       2751  
      2620       2621       2632       2631       2741       2742       2753       2752  
      2621       2622       2633       2632       2742       2743       2754       2753  
      2622       2623       2634       2633       2743       2744       2755       2754  
      2623       2624       2635       2634       2744       2745       2756       2755  
      2624       2625       2636       2635       2745       2746       2757       2756  
      2625       2626       2637       2636       2746       2747       2758       2757  
      2626       2627       2638       2637       2747       2748       2759       2758  
      2627       2628       2639       2638       2748       2749       2760       2759  
      2628       2629       2640       2639       2749       2750       2761       2760  
      2630       2631       2642       2641       2751       2752       2763       2762  
      2631       2632       2643       2642       2752       2753       2764       2763  
      2632       2633       2644       2643       2753       2754       2765       2764  
      2633       2634       2645       2644       2754       2755       2766       2765  
      2634       2635       2646       2645       2755       2756       2767       2766  
      2635       2636       2647       2646       2756       2757       2768       2767  
      2636       2637       2648       2647       2757       2758       2769       2768  
      2637       2638       2649       2648       2758       2759       2770       2769  
      2638       2639       2650       2649       2759       2760       2771       2770  
      2639       2640       2651       2650       2760       2761       2772       2771  
      2641       2642       2653       2652       2762       2763       2774       2773  
      2642       2643       2654       2653       2763       2764       2775       2774  
      2643       2644       2655       2654       2764       2765       2776       2775  
      2644       2645       2656       2655       2765       2766       2777       2776  
      2645       2646       2657       2656       2766       2767       2778       2777  
      2646       2647       2658       2657       2767       2768       2779       2778  
      2647       2648       2659       2658       2768       2769       2780       2779  
      2648       2649       2660       2659       2769       2770       2781       2780  
      2649       2650       2661       2660       2770       2771       2782       2781  
      2650       2651       2662       2661       2771       2772       2783       2782  
      2663       2664       2675       2674       2784       2785       2796       2795  
      2664       2665       2676       2675       2785       2786       2797       2796  
      2665       2666       2677       2676       2786       2787       2798       2797  
      2666       2667       2678       2677       2787       2788       2799       2798  
      2667       2668       2679       2678       2788       2789       2800       2799  
      2668       2669       2680       2679       2789       2790       2801       2800  
      2669       2670       2681       2680       2790       2791       2802       2801  
      2670       2671       2682       2681       2791       2792       2803       2802  
      2671       2672       2683       2682       2792       2793       2804       2803  
      2672       2673       2684       2683       2793       2794       2805       2804  
      2674       2675       2686       2685       2795       2796       2807       2806  
      2675       2676       2687       2686       2796       2797       2808       2807  
      2676       2677       2688       2687       2797       2798       2809       2808  
      2677       2678       2689       2688       2798       2799       2810       2809  
      2678       2679       2690       2689       2799       2800       2811       2810  
      2679       2680       2691       2690       2800       2801       2812       2811  
      2680       2681       2692       2691       2801       2802       2813       2812  
      2681       2682       2693       2692       2802       2803       2814       2813  
      2682       2683       2694       2693       2803       2804       2815       2814  
      2683       2684       2695       2694       2804       2805       2816       2815  
      2685       2686       2697       2696       2806       2807       2818       2817  
      2686       2687       2698       2697       2807       2808       2819       2818  
      2687       2688       2699       2698       2808       2809       2820       2819  
      2688       2689       2700       2699       2809       2810       2821       2820  
      2689       2690       2701       2700       2810       2811       2822       2821  
      2690       2691       2702       2701       2811       2812       2823       2822  
      2691       2692       2703       2702       2812       2813       2824       2823  
      2692       2693       2704       2703       2813       2814       2825       2824  
      2693       2694       2705       2704       2814       2815       2826       2825  
      2694       2695       2706       2705       2815       2816       2827       2826  
      2696       2697       2708       2707       2817       2818       2829       2828  
      2697       2698       2709       2708       2818       2819       2830       2829  
      2698       2699       2710       2709       2819       2820       2831       2830  
      2699       2700       2711       2710       2820       2821       2832       2831  
      2700       2701       2712       2711       2821       2822       2833       2832  
      2701       2702       2713       2712       2822       2823       2834       2833  
      2702       2703       2714       2713       2823       2824       2835       2834  
      2703       2704       2715       2714       2824       2825       2836       2835  
      2704       2705       2716       2715       2825       2826       2837       2836  
      2705       2706       2717       2716       2826       2827       2838       2837  
      2707       2708       2719       2718       2828       2829       2840       2839  
      2708       2709       2720       2719       2829       2830       2841       2840  
      2709       2710       2721       2720       2830       2831       2842       2841  
      2710       2711       2722       2721       2831       2832       2843       2842  
      2711       2712       2723       2722       2832       2833       2844       2843  
      2712       2713       2724       2723       2833       2834       2845       2844  
      2713       2714       2725       2724       2834       2835       2846       2845  
      2714       2715       2726       2725       2835       2836       2847       2846  
      2715       2716       2727       2726       2836       2837       2848       2847  
      2716       2717       2728       2727       2837       2838       2849       2848  
      2718       2719       2730       2729       2839       2840       2851       2850  
      2719       2720       2731       2730       2840       2841       2852       2851  
      2720       2721       2732       2731       2841       2842       2853       2852  
      2721       2722       2733       2732       2842       2843       2854       2853  
      2722       2723       2734       2733       2843       2844       2855       2854  
      2723       2724       2735       2734       2844       2845       2856       2855  
      2724       2725       2736       2735       2845       2846       2857       2856  
      2725       2726       2737       2736       2846       2847       2858       2857  
      2726       2727       2738       2737       2847       2848       2859       2858  
      2727       2728       2739       2738       2848       2849       2860       2859  
      2729       2730       2741       2740       2850       2851       2862       2861  
      2730       2731       2742       2741       2851       2852       2863       2862  
      2731       2732       2743       2742       2852       2853       2864       2863  
      2732       2733       2744       2743       2853       2854       2865       2864  
      2733       2734       2745       2744       2854       2855       2866       2865  
      2734       2735       2746       2745       2855       2856       2867       2866  
      2735       2736       2747       2746       2856       2857       2868       2867  
      2736       2737       2748       2747       2857       2858       2869       2868  
      2737       2738       2749       2748       2858       2859       2870       2869  
      2738       2739       2750       2749       2859       2860       2871       2870  
      2740       2741       2752       2751       2861       2862       2873       2872  
      2741       2742       2753       2752       2862       2863       2874       2873  
      2742       2743       2754       2753       2863       2864       2875       2874  
      2743       2744       2755       2754       2864       2865       2876       2875  
      2744       2745       2756       2755       2865       2866       2877       2876  
      2745       2746       2757       2756       2866       2867       2878       2877  
      2746       2747       2758       2757       2867       2868       2879       2878  
      2747       2748       2759       2758       2868       2869       2880       2879  
      2748       2749       2760       2759       2869       2870       2881       2880  
      2749       2750       2761       2760       2870       2871       2882       2881  
      2751       2752       2763       2762       2872       2873       2884       2883  
      2752       2753       2764       2763       2873       2874       2885       2884  
      2753       2754       2765       2764       2874       2875       2886       2885  
      2754       2755       2766       2765       2875       2876       2887       2886  
      2755       2756       2767       2766       2876       2877       2888       2887  
      2756       2757       2768       2767       2877       2878       2889       2888  
      2757       2758       2769       2768       2878       2879       2890       2889  
      2758       2759       2770       2769       2879       2880       2891       2890  
      2759       2760       2771       2770       2880       2881       2892       2891  
      2760       2761       2772       2771       2881       2882       2893       2892  
      2762       2763       2774       2773       2883       2884       2895       2894  
      2763       2764       2775       2774       2884       2885       2896       2895  
      2764       2765       2776       2775       2885       2886       2897       2896  
      2765       2766       2777       2776       2886       2887       2898       2897  
      2766       2767       2778       2777       2887       2888       2899       2898  
      2767       2768       2779       2778       2888       2889       2900       2899  
      2768       2769       2780       2779       2889       2890       2901       2900  
      2769       2770       2781       2780       2890       2891       2902       2901  
      2770       2771       2782       2781       2891       2892       2903       2902  
      2771       2772       2783       2782       2892       2893       2904       2903  
      2784       2785       2796       2795       2905       2906       2917       2916  
      2785       2786       2797       2796       2906       2907       2918       2917  
      2786       2787       2798       2797       2907       2908       2919       2918  
      2787       2788       2799       2798       2908       2909       2920       2919  
      2788       2789       2800       2799       2909       2910       2921       2920  
      2789       2790       2801       2800       2910       2911       2922       2921  
      2790       2791       2802       2801       2911       2912       2923       2922  
      2791       2792       2803       2802       2912       2913       2924       2923  
      2792       2793       2804       2803       2913       2914       2925       2924  
      2793       2794       2805       2804       2914       2915       2926       2925  
      2795       2796       2807       2806       2916       2917       2928       2927  
      2796       2797       2808       2807       2917       2918       2929       2928  
      2797       2798       2809       2808       2918       2919       2930       2929  
      2798       2799       2810       2809       2919       2920       2931       2930  
      2799       2800       2811       2810       2920       2921       2932       2931  
      2800       2801       2812       2811       2921       2922       2933       2932  
      2801       2802       2813       2812       2922       2923       2934       2933  
      2802       2803       2814       2813       2923       2924       2935       2934  
      2803       2804       2815       2814       2924       2925       2936       2935  
      2804       2805       2816       2815       2925       2926       2937       2936  
      2806       2807       2818       2817       2927       2928       2939       2938  
      2807       2808       2819       2818       2928       2929       2940       2939  
      2808       2809       2820       2819       2929       2930       2941       2940  
      2809       2810       2821       2820       2930       2931       2942       2941  
      2810       2811       2822       2821       2931       2932       2943       2942  
      2811       2812       2823       2822       2932       2933       2944       2943  
      2812       2813       2824       2823       2933       2934       2945       2944  
      2813       2814       2825       2824       2934       2935       2946       2945  
      2814       2815       2826       2825       2935       2936       2947       2946  
      2815       2816       2827       2826       2936       2937       2948       2947  
      2817       2818       2829       2828       2938       2939       2950       2949  
      2818       2819       2830       2829       2939       2940       2951       2950  
      2819       2820       2831       2830       2940       2941       2952       2951  
      2820       2821       2832       2831       2941       2942       2953       2952  
      2821       2822       2833       2832       2942       2943       2954       2953  
      2822       2823       2834       2833       2943       2944       2955       2954  
      2823       2824       2835       2834       2944       2945       2956       2955  
      2824       2825       2836       2835       2945       2946       2957       2956  
      2825       2826       2837       2836       2946       2947       2958       2957  
      2826       2827       2838       2837       2947       2948       2959       2958  
      2828       2829       2840       2839       2949       2950       2961       2960  
      2829       2830       2841       2840       2950       2951       2962       2961  
      2830       2831       2842       2841       2951       2952       2963       2962  
      2831       2832       2843       2842       2952       2953       2964       2963  
      2832       2833       2844       2843       2953       2954       2965       2964  
      2833       2834       2845       2844       2954       2955       2966       2965  
      2834       2835       2846       2845       2955       2956       2967       2966  
      2835       2836       2847       2846       2956       2957       2968       2967  
      2836       2837       2848       2847       2957       2958       2969       2968  
      2837       2838       2849       2848       2958       2959       2970       2969  
      2839       2840       2851       2850       2960       2961       2972       2971  
      2840       2841       2852       2851       2961       2962       2973       2972  
      2841       2842       2853       2852       2962       2963       2974       2973  
      2842       2843       2854       2853       2963       2964       2975       2974  
      2843       2844       2855       2854       2964       2965       2976       2975  
      2844       2845       2856       2855       2965       2966       2977       2976  
      2845       2846       2857       2856       2966       2967       2978       2977  
      2846       2847       2858       2857       2967       2968       2979       2978  
      2847       2848       2859       2858       2968       2969       2980       2979  
      2848       2849       2860       2859       2969       2970       2981       2980  
      2850       2851       2862       2861       2971       2972       2983       2982  
      2851       2852       2863       2862       2972       2973       2984       2983  
      2852       2853       2864       2863       2973       2974       2985       2984  
      2853       2854       2865       2864       2974       2975       2986       2985  
      2854       2855       2866       2865       2975       2976       2987       2986  
      2855       2856       2867       2866       2976       2977       2988       2987  
      2856       2857       2868       2867       2977       2978       2989       2988  
      2857       2858       2869       2868       2978       2979       2990       2989  
      2858       2859       2870       2869       2979       2980       2991       2990  
      2859       2860       2871       2870       2980       2981       2992       2991  
      2861       2862       2873       2872       2982       2983       2994       2993  
      2862       2863       2874       2873       2983       2984       2995       2994  
      2863       2864       2875       2874       2984       2985       2996       2995  
      2864       2865       2876       2875       2985       2986       2997       2996  
      2865       2866       2877       2876       2986       2987       2998       2997  
      2866       2867       2878       2877       2987       2988       2999       2998  
      2867       2868       2879       2878       2988       2989       3000       2999  
      2868       2869       2880       2879       2989       2990       3001       3000  
      2869       2870       2881       2880       2990       2991       3002       3001  
      2870       2871       2882       2881       2991       2992       3003       3002  
      2872       2873       2884       2883       2993       2994       3005       3004  
      2873       2874       2885       2884       2994       2995       3006       3005  
      2874       2875       2886       2885       2995       2996       3007       3006  
      2875       2876       2887       2886       2996       2997       3008       3007  
      2876       2877       2888       2887       2997       2998       3009       3008  
      2877       2878       2889       2888       2998       2999       3010       3009  
      2878       2879       2890       2889       2999       3000       3011       3010  
      2879       2880       2891       2890       3000       3001       3012       3011  
      2880       2881       2892       2891       3001       3002       3013       3012  
      2881       2882       2893       2892       3002       3003       3014       3013  
      2883       2884       2895       2894       3004       3005       3016       3015  
      2884       2885       2896       2895       3005       3006       3017       3016  
      2885       2886       2897       2896       3006       3007       3018       3017  
      2886       2887       2898       2897       3007       3008       3019       3018  
      2887       2888       2899       2898       3008       3009       3020       3019  
      2888       2889       2900       2899       3009       3010       3021       3020  
      2889       2890       2901       2900       3010       3011       3022       3021  
      2890       2891       2902       2901       3011       3012       3023       3022  
      2891       2892       2903       2902       3012       3013       3024       3023  
      2892       2893       2904       2903       3013       3014       3025       3024  
      2905       2906       2917       2916       3026       3027       3038       3037  
      2906       2907       2918       2917       3027       3028       3039       3038  
      2907       2908       2919       2918       3028       3029       3040       3039  
      2908       2909       2920       2919       3029       3030       3041       3040  
      2909       2910       2921       2920       3030       3031       3042       3041  
      2910       2911       2922       2921       3031       3032       3043       3042  
      2911       2912       2923       2922       3032       3033       3044       3043  
      2912       2913       2924       2923       3033       3034       3045       3044  
      2913       2914       2925       2924       3034       3035       3046       3045  
      2914       2915       2926       2925       3035       3036       3047       3046  
      2916       2917       2928       2927       3037       3038       3049       3048  
      2917       2918       2929       2928       3038       3039       3050       3049  
      2918       2919       2930       2929       3039       3040       3051       3050  
      2919       2920       2931       2930       3040       3041       3052       3051  
      2920       2921       2932       2931       3041       3042       3053       3052  
      2921       2922       2933       2932       3042       3043       3054       3053  
      2922       2923       2934       2933       3043       3044       3055       3054  
      2923       2924       2935       2934       3044       3045       3056       3055  
      2924       2925       2936       2935       3045       3046       3057       3056  
      2925       2926       2937       2936       3046       3047       3058       3057  
      2927       2928       2939       2938       3048       3049       3060       3059  
      2928       2929       2940       2939       3049       3050       3061       3060  
      2929       2930       2941       2940       3050       3051       3062       3061  
      2930       2931       2942       2941       3051       3052       3063       3062  
      2931       2932       2943       2942       3052       3053       3064       3063  
      2932       2933       2944       2943       3053       3054       3065       3064  
      2933       2934       2945       2944       3054       3055       3066       3065  
      2934       2935       2946       2945       3055       3056       3067       3066  
      2935       2936       2947       2946       3056       3057       3068       3067  
      2936       2937       2948       2947       3057       3058       3069       3068  
      2938       2939       2950       2949       3059       3060       3071       3070  
      2939       2940       2951       2950       3060       3061       3072       3071  
      2940       2941       2952       2951       3061       3062       3073       3072  
      2941       2942       2953       2952       3062       3063       3074       3073  
      2942       2943       2954       2953       3063       3064       3075       3074  
      2943       2944       2955       2954       3064       3065       3076       3075  
      2944       2945       2956       2955       3065       3066       3077       3076  
      2945       2946       2957       2956       3066       3067       3078       3077  
      2946       2947       2958       2957       3067       3068       3079       3078  
      2947       2948       2959       2958       3068       3069       3080       3079  
      2949       2950       2961       2960       3070       3071       3082       3081  
      2950       2951       2962       2961       3071       3072       3083       3082  
      2951       2952       2963       2962       3072       3073       3084       3083  
      2952       2953       2964       2963       3073       3074       3085       3084  
      2953       2954       2965       2964       3074       3075       3086       3085  
      2954       2955       2966       2965       3075       3076       3087       3086  
      2955       2956       2967       2966       3076       3077       3088       3087  
      2956       2957       2968       2967       3077       3078       3089       3088  
      2957       2958       2969       2968       3078       3079       3090       3089  
      2958       2959       2970       2969       3079       3080       3091       3090  
      2960       2961       2972       2971       3081       3082       3093       3092  
      2961       2962       2973       2972       3082       3083       3094       3093  
      2962       2963       2974       2973       3083       3084       3095       3094  
      2963       2964       2975       2974       3084       3085       3096       3095  
      2964       2965       2976       2975       3085       3086       3097       3096  
      2965       2966       2977       2976       3086       3087       3098       3097  
      2966       2967       2978       2977       3087       3088       3099       3098  
      2967       2968       2979       2978       3088       3089       3100       3099  
      2968       2969       2980       2979       3089       3090       3101       3100  
      2969       2970       2981       2980       3090       3091       3102       3101  
      2971       2972       2983       2982       3092       3093       3104       3103  
      2972       2973       2984       2983       3093       3094       3105       3104  
      2973       2974       2985       2984       3094       3095       3106       3105  
      2974       2975       2986       2985       3095       3096       3107       3106  
      2975       2976       2987       2986       3096       3097       3108       3107  
      2976       2977       2988       2987       3097       3098       3109       3108  
      2977       2978       2989       2988       3098       3099       3110       3109  
      2978       2979       2990       2989       3099       3100       3111       3110  
      2979       2980       2991       2990       3100       3101       3112       3111  
      2980       2981       2992       2991       3101       3102       3113       3112  
      2982       2983       2994       2993       3103       3104       3115       3114  
      2983       2984       2995       2994       3104       3105       3116       3115  
      2984       2985       2996       2995       3105       3106       3117       3116  
      2985       2986       2997       2996       3106       3107       3118       3117  
      2986       2987       2998       2997       3107       3108       3119       3118  
      2987       2988       2999       2998       3108       3109       3120       3119  
      2988       2989       3000       2999       3109       3110       3121       3120  
      2989       2990       3001       3000       3110       3111       3122       3121  
      2990       2991       3002       3001       3111       3112       3123       3122  
      2991       2992       3003       3002       3112       3113       3124       3123  
      2993       2994       3005       3004       3114       3115       3126       3125  
      2994       2995       3006       3005       3115       3116       3127       3126  
      2995       2996       3007       3006       3116       3117       3128       3127  
      2996       2997       3008       3007       3117       3118       3129       3128  
      2997       2998       3009       3008       3118       3119       3130       3129  
      2998       2999       3010       3009       3119       3120       3131       3130  
      2999       3000       3011       3010       3120       3121       3132       3131  
      3000       3001       3012       3011       3121       3122       3133       3132  
      3001       3002       3013       3012       3122       3123       3134       3133  
      3002       3003       3014       3013       3123       3124       3135       3134  
      3004       3005       3016       3015       3125       3126       3137       3136  
      3005       3006       3017       3016       3126       3127       3138       3137  
      3006       3007       3018       3017       3127       3128       3139       3138  
      3007       3008       3019       3018       3128       3129       3140       3139  
      3008       3009       3020       3019       3129       3130       3141       3140  
      3009       3010       3021       3020       3130       3131       3142       3141  
      3010       3011       3022       3021       3131       3132       3143       3142  
      3011       3012       3023       3022       3132       3133       3144       3143  
      3012       3013       3024       3023       3133       3134       3145       3144  
      3013       3014       3025       3024       3134       3135       3146       3145  
      3026       3027       3038       3037       3147       3148       3159       3158  
      3027       3028       3039       3038       3148       3149       3160       3159  
      3028       3029       3040       3039       3149       3150       3161       3160  
      3029       3030       3041       3040       3150       3151       3162       3161  
      3030       3031       3042       3041       3151       3152       3163       3162  
      3031       3032       3043       3042       3152       3153       3164       3163  
      3032       3033       3044       3043       3153       3154       3165       3164  
      3033       3034       3045       3044       3154       3155       3166       3165  
      3034       3035       3046       3045       3155       3156       3167       3166  
      3035       3036       3047       3046       3156       3157       3168       3167  
      3037       3038       3049       3048       3158       3159       3170       3169  
      3038       3039       3050       3049       3159       3160       3171       3170  
      3039       3040       3051       3050       3160       3161       3172       3171  
      3040       3041       3052       3051       3161       3162       3173       3172  
      3041       3042       3053       3052       3162       3163       3174       3173  
      3042       3043       3054       3053       3163       3164       3175       3174  
      3043       3044       3055       3054       3164       3165       3176       3175  
      3044       3045       3056       3055       3165       3166       3177       3176  
      3045       3046       3057       3056       3166       3167       3178       3177  
      3046       3047       3058       3057       3167       3168       3179       3178  
      3048       3049       3060       3059       3169       3170       3181       3180  
      3049       3050       3061       3060       3170       3171       3182       3181  
      3050       3051       3062       3061       3171       3172       3183       3182  
      3051       3052       3063       3062       3172       3173       3184       3183  
      3052       3053       3064       3063       3173       3174       3185       3184  
      3053       3054       3065       3064       3174       3175       3186       3185  
      3054       3055       3066       3065       3175       3176       3187       3186  
      3055       3056       3067       3066       3176       3177       3188       3187  
      3056       3057       3068       3067       3177       3178       3189       3188  
      3057       3058       3069       3068       3178       3179       3190       3189  
      3059       3060       3071       3070       3180       3181       3192       3191  
      3060       3061       3072       3071       3181       3182       3193       3192  
      3061       3062       3073       3072       3182       3183       3194       3193  
      3062       3063       3074       3073       3183       3184       3195       3194  
      3063       3064       3075       3074       3184       3185       3196       3195  
      3064       3065       3076       3075       3185       3186       3197       3196  
      3065       3066       3077       3076       3186       3187       3198       3197  
      3066       3067       3078       3077       3187       3188       3199       3198  
      3067       3068       3079       3078       3188       3189       3200       3199  
      3068       3069       3080       3079       3189       3190       3201       3200  
      3070       3071       3082       3081       3191       3192       3203       3202  
      3071       3072       3083       3082       3192       3193       3204       3203  
      3072       3073       3084       3083       3193       3194       3205       3204  
      3073       3074       3085       3084       3194       3195       3206       3205  
      3074       3075       3086       3085       3195       3196       3207       3206  
      3075       3076       3087       3086       3196       3197       3208       3207  
      3076       3077       3088       3087       3197       3198       3209       3208  
      3077       3078       3089       3088       3198       3199       3210       3209  
      3078       3079       3090       3089       3199       3200       3211       3210  
      3079       3080       3091       3090       3200       3201       3212       3211  
      3081       3082       3093       3092       3202       3203       3214       3213  
      3082       3083       3094       3093       3203       3204       3215       3214  
      3083       3084       3095       3094       3204       3205       3216       3215  
      3084       3085       3096       3095       3205       3206       3217       3216  
      3085       3086       3097       3096       3206       3207       3218       3217  
      3086       3087       3098       3097       3207       3208       3219       3218  
      3087       3088       3099       3098       3208       3209       3220       3219  
      3088       3089       3100       3099       3209       3210       3221       3220  
      3089       3090       3101       3100       3210       3211       3222       3221  
      3090       3091       3102       3101       3211       3212       3223       3222  
      3092       3093       3104       3103       3213       3214       3225       3224  
      3093       3094       3105       3104       3214       3215       3226       3225  
      3094       3095       3106       3105       3215       3216       3227       3226  
      3095       3096       3107       3106       3216       3217       3228       3227  
      3096       3097       3108       3107       3217       3218       3229       3228  
      3097       3098       3109       3108       3218       3219       3230       3229  
      3098       3099       3110       3109       3219       3220       3231       3230  
      3099       3100       3111       3110       3220       3221       3232       3231  
      3100       3101       3112       3111       3221       3222       3233       3232  
      3101       3102       3113       3112       3222       3223       3234       3233  
      3103       3104       3115       3114       3224       3225       3236       3235  
      3104       3105       3116       3115       3225       3226       3237       3236  
      3105       3106       3117       3116       3226       3227       3238       3237  
      3106       3107       3118       3117       3227       3228       3239       3238  
      3107       3108       3119       3118       3228       3229       3240       3239  
      3108       3109       3120       3119       3229       3230       3241       3240  
      3109       3110       3121       3120       3230       3231       3242       3241  
      3110       3111       3122       3121       3231       3232       3243       3242  
      3111       3112       3123       3122       3232       3233       3244       3243  
      3112       3113       3124       3123       3233       3234       3245       3244  
      3114       3115       3126       3125       3235       3236       3247       3246  
      3115       3116       3127       3126       3236       3237       3248       3247  
      3116       3117       3128       3127       3237       3238       3249       3248  
      3117       3118       3129       3128       3238       3239       3250       3249  
      3118       3119       3130       3129       3239       3240       3251       3250  
      3119       3120       3131       3130       3240       3241       3252       3251  
      3120       3121       3132       3131       3241       3242       3253       3252  
      3121       3122       3133       3132       3242       3243       3254       3253  
      3122       3123       3134       3133       3243       3244       3255       3254  
      3123       3124       3135       3134       3244       3245       3256       3255  
      3125       3126       3137       3136       3246       3247       3258       3257  
      3126       3127       3138       3137       3247       3248       3259       3258  
      3127       3128       3139       3138       3248       3249       3260       3259  
      3128       3129       3140       3139       3249       3250       3261       3260  
      3129       3130       3141       3140       3250       3251       3262       3261  
      3130       3131       3142       3141       3251       3252       3263       3262  
      3131       3132       3143       3142       3252       3253       3264       3263  
      3132       3133       3144       3143       3253       3254       3265       3264  
      3133       3134       3145       3144       3254       3255       3266       3265  
      3134       3135       3146       3145       3255       3256       3267       3266  
      3147       3148       3159       3158       3268       3269       3280       3279  
      3148       3149       3160       3159       3269       3270       3281       3280  
      3149       3150       3161       3160       3270       3271       3282       3281  
      3150       3151       3162       3161       3271       3272       3283       3282  
      3151       3152       3163       3162       3272       3273       3284       3283  
      3152       3153       3164       3163       3273       3274       3285       3284  
      3153       3154       3165       3164       3274       3275       3286       3285  
      3154       3155       3166       3165       3275       3276       3287       3286  
      3155       3156       3167       3166       3276       3277       3288       3287  
      3156       3157       3168       3167       3277       3278       3289       3288  
      3158       3159       3170       3169       3279       3280       3291       3290  
      3159       3160       3171       3170       3280       3281       3292       3291  
      3160       3161       3172       3171       3281       3282       3293       3292  
      3161       3162       3173       3172       3282       3283       3294       3293  
      3162       3163       3174       3173       3283       3284       3295       3294  
      3163       3164       3175       3174       3284       3285       3296       3295  
      3164       3165       3176       3175       3285       3286       3297       3296  
      3165       3166       3177       3176       3286       3287       3298       3297  
      3166       3167       3178       3177       3287       3288       3299       3298  
      3167       3168       3179       3178       3288       3289       3300       3299  
      3169       3170       3181       3180       3290       3291       3302       3301  
      3170       3171       3182       3181       3291       3292       3303       3302  
      3171       3172       3183       3182       3292       3293       3304       3303  
      3172       3173       3184       3183       3293       3294       3305       3304  
      3173       3174       3185       3184       3294       3295       3306       3305  
      3174       3175       3186       3185       3295       3296       3307       3306  
      3175       3176       3187       3186       3296       3297       3308       3307  
      3176       3177       3188       3187       3297       3298       3309       3308  
      3177       3178       3189       3188       3298       3299       3310       3309  
      3178       3179       3190       3189       3299       3300       3311       3310  
      3180       3181       3192       3191       3301       3302       3313       3312  
      3181       3182       3193       3192       3302       3303       3314       3313  
      3182       3183       3194       3193       3303       3304       3315       3314  
      3183       3184       3195       3194       3304       3305       3316       3315  
      3184       3185       3196       3195       3305       3306       3317       3316  
      3185       3186       3197       3196       3306       3307       3318       3317  
      3186       3187       3198       3197       3307       3308       3319       3318  
      3187       3188       3199       3198       3308       3309       3320       3319  
      3188       3189       3200       3199       3309       3310       3321       3320  
      3189       3190       3201       3200       3310       3311       3322       3321  
      3191       3192       3203       3202       3312       3313       3324       3323  
      3192       3193       3204       3203       3313       3314       3325       3324  
      3193       3194       3205       3204       3314       3315       3326       3325  
      3194       3195       3206       3205       3315       3316       3327       3326  
      3195       3196       3207       3206       3316       3317       3328       3327  
      3196       3197       3208       3207       3317       3318       3329       3328  
      3197       3198       3209       3208       3318       3319       3330       3329  
      3198       3199       3210       3209       3319       3320       3331       3330  
      3199       3200       3211       3210       3320       3321       3332       3331  
      3200       3201       3212       3211       3321       3322       3333       3332  
      3202       3203       3214       3213       3323       3324       3335       3334  
      3203       3204       3215       3214       3324       3325       3336       3335  
      3204       3205       3216       3215       3325       3326       3337       3336  
      3205       3206       3217       3216       3326       3327       3338       3337  
      3206       3207       3218       3217       3327       3328       3339       3338  
      3207       3208       3219       3218       3328       3329       3340       3339  
      3208       3209       3220       3219       3329       3330       3341       3340  
      3209       3210       3221       3220       3330       3331       3342       3341  
      3210       3211       3222       3221       3331       3332       3343       3342  
      3211       3212       3223       3222       3332       3333       3344       3343  
      3213       3214       3225       3224       3334       3335       3346       3345  
      3214       3215       3226       3225       3335       3336       3347       3346  
      3215       3216       3227       3226       3336       3337       3348       3347  
      3216       3217       3228       3227       3337       3338       3349       3348  
      3217       3218       3229       3228       3338       3339       3350       3349  
      3218       3219       3230       3229       3339       3340       3351       3350  
      3219       3220       3231       3230       3340       3341       3352       3351  
      3220       3221       3232       3231       3341       3342       3353       3352  
      3221       3222       3233       3232       3342       3343       3354       3353  
      3222       3223       3234       3233       3343       3344       3355       3354  
      3224       3225       3236       3235       3345       3346       3357       3356  
      3225       3226       3237       3236       3346       3347       3358       3357  
      3226       3227       3238       3237       3347       3348       3359       3358  
      3227       3228       3239       3238       3348       3349       3360       3359  
      3228       3229       3240       3239       3349       3350       3361       3360  
      3229       3230       3241       3240       3350       3351       3362       3361  
      3230       3231       3242       3241       3351       3352       3363       3362  
      3231       3232       3243       3242       3352       3353       3364       3363  
      3232       3233       3244       3243       3353       3354       3365       3364  
      3233       3234       3245       3244       3354       3355       3366       3365  
      3235       3236       3247       3246       3356       3357       3368       3367  
      3236       3237       3248       3247       3357       3358       3369       3368  
      3237       3238       3249       3248       3358       3359       3370       3369  
      3238       3239       3250       3249       3359       3360       3371       3370  
      3239       3240       3251       3250       3360       3361       3372       3371  
      3240       3241       3252       3251       3361       3362       3373       3372  
      3241       3242       3253       3252       3362       3363       3374       3373  
      3242       3243       3254       3253       3363       3364       3375       3374  
      3243       3244       3255       3254       3364       3365       3376       3375  
      3244       3245       3256       3255       3365       3366       3377       3376  
      3246       3247       3258       3257       3367       3368       3379       3378  
      3247       3248       3259       3258       3368       3369       3380       3379  
      3248       3249       3260       3259       3369       3370       3381       3380  
      3249       3250       3261       3260       3370       3371       3382       3381  
      3250       3251       3262       3261       3371       3372       3383       3382  
      3251       3252       3263       3262       3372       3373       3384       3383  
      3252       3253       3264       3263       3373       3374       3385       3384  
      3253       3254       3265       3264       3374       3375       3386       3385  
      3254       3255       3266       3265       3375       3376       3387       3386  
      3255       3256       3267       3266       3376       3377       3388       3387  
      3268       3269       3280       3279       3389       3390       3401       3400  
      3269       3270       3281       3280       3390       3391       3402       3401  
      3270       3271       3282       3281       3391       3392       3403       3402  
      3271       3272       3283       3282       3392       3393       3404       3403  
      3272       3273       3284       3283       3393       3394       3405       3404  
      3273       3274       3285       3284       3394       3395       3406       3405  
      3274       3275       3286       3285       3395       3396       3407       3406  
      3275       3276       3287       3286       3396       3397       3408       3407  
      3276       3277       3288       3287       3397       3398       3409       3408  
      3277       3278       3289       3288       3398       3399       3410       3409  
      3279       3280       3291       3290       3400       3401       3412       3411  
      3280       3281       3292       3291       3401       3402       3413       3412  
      3281       3282       3293       3292       3402       3403       3414       3413  
      3282       3283       3294       3293       3403       3404       3415       3414  
      3283       3284       3295       3294       3404       3405       3416       3415  
      3284       3285       3296       3295       3405       3406       3417       3416  
      3285       3286       3297       3296       3406       3407       3418       3417  
      3286       3287       3298       3297       3407       3408       3419       3418  
      3287       3288       3299       3298       3408       3409       3420       3419  
      3288       3289       3300       3299       3409       3410       3421       3420  
      3290       3291       3302       3301       3411       3412       3423       3422  
      3291       3292       3303       3302       3412       3413       3424       3423  
      3292       3293       3304       3303       3413       3414       3425       3424  
      3293       3294       3305       3304       3414       3415       3426       3425  
      3294       3295       3306       3305       3415       3416       3427       3426  
      3295       3296       3307       3306       3416       3417       3428       3427  
      3296       3297       3308       3307       3417       3418       3429       3428  
      3297       3298       3309       3308       3418       3419       3430       3429  
      3298       3299       3310       3309       3419       3420       3431       3430  
      3299       3300       3311       3310       3420       3421       3432       3431  
      3301       3302       3313       3312       3422       3423       3434       3433  
      3302       3303       3314       3313       3423       3424       3435       3434  
      3303       3304       3315       3314       3424       3425       3436       3435  
      3304       3305       3316       3315       3425       3426       3437       3436  
      3305       3306       3317       3316       3426       3427       3438       3437  
      3306       3307       3318       3317       3427       3428       3439       3438  
      3307       3308       3319       3318       3428       3429       3440       3439  
      3308       3309       3320       3319       3429       3430       3441       3440  
      3309       3310       3321       3320       3430       3431       3442       3441  
      3310       3311       3322       3321       3431       3432       3443       3442  
      3312       3313       3324       3323       3433       3434       3445       3444  
      3313       3314       3325       3324       3434       3435       3446       3445  
      3314       3315       3326       3325       3435       3436       3447       3446  
      3315       3316       3327       3326       3436       3437       3448       3447  
      3316       3317       3328       3327       3437       3438       3449       3448  
      3317       3318       3329       3328       3438       3439       3450       3449  
      3318       3319       3330       3329       3439       3440       3451       3450  
      3319       3320       3331       3330       3440       3441       3452       3451  
      3320       3321       3332       3331       3441       3442       3453       3452  
      3321       3322       3333       3332       3442       3443       3454       3453  
      3323       3324       3335       3334       3444       3445       3456       3455  
      3324       3325       3336       3335       3445       3446       3457       3456  
      3325       3326       3337       3336       3446       3447       3458       3457  
      3326       3327       3338       3337       3447       3448       3459       3458  
      3327       3328       3339       3338       3448       3449       3460       3459  
      3328       3329       3340       3339       3449       3450       3461       3460  
      3329       3330       3341       3340       3450       3451       3462       3461  
      3330       3331       3342       3341       3451       3452       3463       3462  
      3331       3332       3343       3342       3452       3453       3464       3463  
      3332       3333       3344       3343       3453       3454       3465       3464  
      3334       3335       3346       3345       3455       3456       3467       3466  
      3335       3336       3347       3346       3456       3457       3468       3467  
      3336       3337       3348       3347       3457       3458       3469       3468  
      3337       3338       3349       3348       3458       3459       3470       3469  
      3338       3339       3350       3349       3459       3460       3471       3470  
      3339       3340       3351       3350       3460       3461       3472       3471  
      3340       3341       3352       3351       3461       3462       3473       3472  
      3341       3342       3353       3352       3462       3463       3474       3473  
      3342       3343       3354       3353       3463       3464       3475       3474  
      3343       3344       3355       3354       3464       3465       3476       3475  
      3345       3346       3357       3356       3466       3467       3478       3477  
      3346       3347       3358       3357       3467       3468       3479       3478  
      3347       3348       3359       3358       3468       3469       3480       3479  
      3348       3349       3360       3359       3469       3470       3481       3480  
      3349       3350       3361       3360       3470       3471       3482       3481  
      3350       3351       3362       3361       3471       3472       3483       3482  
      3351       3352       3363       3362       3472       3473       3484       3483  
      3352       3353       3364       3363       3473       3474       3485       3484  
      3353       3354       3365       3364       3474       3475       3486       3485  
      3354       3355       3366       3365       3475       3476       3487       3486  
      3356       3357       3368       3367       3477       3478       3489       3488  
      3357       3358       3369       3368       3478       3479       3490       3489  
      3358       3359       3370       3369       3479       3480       3491       3490  
      3359       3360       3371       3370       3480       3481       3492       3491  
      3360       3361       3372       3371       3481       3482       3493       3492  
      3361       3362       3373       3372       3482       3483       3494       3493  
      3362       3363       3374       3373       3483       3484       3495       3494  
      3363       3364       3375       3374       3484       3485       3496       3495  
      3364       3365       3376       3375       3485       3486       3497       3496  
      3365       3366       3377       3376       3486       3487       3498       3497  
      3367       3368       3379       3378       3488       3489       3500       3499  
      3368       3369       3380       3379       3489       3490       3501       3500  
      3369       3370       3381       3380       3490       3491       3502       3501  
      3370       3371       3382       3381       3491       3492       3503       3502  
      3371       3372       3383       3382       3492       3493       3504       3503  
      3372       3373       3384       3383       3493       3494       3505       3504  
      3373       3374       3385       3384       3494       3495       3506       3505  
      3374       3375       3386       3385       3495       3496       3507       3506  
      3375       3376       3387       3386       3496       3497       3508       3507  
      3376       3377       3388       3387       3497       3498       3509       3508  
      3389       3390       3401       3400       3510       3511       3522       3521  
      3390       3391       3402       3401       3511       3512       3523       3522  
      3391       3392       3403       3402       3512       3513       3524       3523  
      3392       3393       3404       3403       3513       3514       3525       3524  
      3393       3394       3405       3404       3514       3515       3526       3525  
      3394       3395       3406       3405       3515       3516       3527       3526  
      3395       3396       3407       3406       3516       3517       3528       3527  
      3396       3397       3408       3407       3517       3518       3529       3528  
      3397       3398       3409       3408       3518       3519       3530       3529  
      3398       3399       3410       3409       3519       3520       3531       3530  
      3400       3401       3412       3411       3521       3522       3533       3532  
      3401       3402       3413       3412       3522       3523       3534       3533  
      3402       3403       3414       3413       3523       3524       3535       3534  
      3403       3404       3415       3414       3524       3525       3536       3535  
      3404       3405       3416       3415       3525       3526       3537       3536  
      3405       3406       3417       3416       3526       3527       3538       3537  
      3406       3407       3418       3417       3527       3528       3539       3538  
      3407       3408       3419       3418       3528       3529       3540       3539  
      3408       3409       3420       3419       3529       3530       3541       3540  
      3409       3410       3421       3420       3530       3531       3542       3541  
      3411       3412       3423       3422       3532       3533       3544       3543  
      3412       3413       3424       3423       3533       3534       3545       3544  
      3413       3414       3425       3424       3534       3535       3546       3545  
      3414       3415       3426       3425       3535       3536       3547       3546  
      3415       3416       3427       3426       3536       3537       3548       3547  
      3416       3417       3428       3427       3537       3538       3549       3548  
      3417       3418       3429       3428       3538       3539       3550       3549  
      3418       3419       3430       3429       3539       3540       3551       3550  
      3419       3420       3431       3430       3540       3541       3552       3551  
      3420       3421       3432       3431       3541       3542       3553       3552  
      3422       3423       3434       3433       3543       3544       3555       3554  
      3423       3424       3435       3434       3544       3545       3556       3555  
      3424       3425       3436       3435       3545       3546       3557       3556  
      3425       3426       3437       3436       3546       3547       3558       3557  
      3426       3427       3438       3437       3547       3548       3559       3558  
      3427       3428       3439       3438       3548       3549       3560       3559  
      3428       3429       3440       3439       3549       3550       3561       3560  
      3429       3430       3441       3440       3550       3551       3562       3561  
      3430       3431       3442       3441       3551       3552       3563       3562  
      3431       3432       3443       3442       3552       3553       3564       3563  
      3433       3434       3445       3444       3554       3555       3566       3565  
      3434       3435       3446       3445       3555       3556       3567       3566  
      3435       3436       3447       3446       3556       3557       3568       3567  
      3436       3437       3448       3447       3557       3558       3569       3568  
      3437       3438       3449       3448       3558       3559       3570       3569  
      3438       3439       3450       3449       3559       3560       3571       3570  
      3439       3440       3451       3450       3560       3561       3572       3571  
      3440       3441       3452       3451       3561       3562       3573       3572  
      3441       3442       3453       3452       3562       3563       3574       3573  
      3442       3443       3454       3453       3563       3564       3575       3574  
      3444       3445       3456       3455       3565       3566       3577       3576  
      3445       3446       3457       3456       3566       3567       3578       3577  
      3446       3447       3458       3457       3567       3568       3579       3578  
      3447       3448       3459       3458       3568       3569       3580       3579  
      3448       3449       3460       3459       3569       3570       3581       3580  
      3449       3450       3461       3460       3570       3571       3582       3581  
      3450       3451       3462       3461       3571       3572       3583       3582  
      3451       3452       3463       3462       3572       3573       3584       3583  
      3452       3453       3464       3463       3573       3574       3585       3584  
      3453       3454       3465       3464       3574       3575       3586       3585  
      3455       3456       3467       3466       3576       3577       3588       3587  
      3456       3457       3468       3467       3577       3578       3589       3588  
      3457       3458       3469       3468       3578       3579       3590       3589  
      3458       3459       3470       3469       3579       3580       3591       3590  
      3459       3460       3471       3470       3580       3581       3592       3591  
      3460       3461       3472       3471       3581       3582       3593       3592  
      3461       3462       3473       3472       3582       3583       3594       3593  
      3462       3463       3474       3473       3583       3584       3595       3594  
      3463       3464       3475       3474       3584       3585       3596       3595  
      3464       3465       3476       3475       3585       3586       3597       3596  
      3466       3467       3478       3477       3587       3588       3599       3598  
      3467       3468       3479       3478       3588       3589       3600       3599  
      3468       3469       3480       3479       3589       3590       3601       3600  
      3469       3470       3481       3480       3590       3591       3602       3601  
      3470       3471       3482       3481       3591       3592       3603       3602  
      3471       3472       3483       3482       3592       3593       3604       3603  
      3472       3473       3484       3483       3593       3594       3605       3604  
      3473       3474       3485       3484       3594       3595       3606       3605  
      3474       3475       3486       3485       3595       3596       3607       3606  
      3475       3476       3487       3486       3596       3597       3608       3607  
      3477       3478       3489       3488       3598       3599       3610       3609  
      3478       3479       3490       3489       3599       3600       3611       3610  
      3479       3480       3491       3490       3600       3601       3612       3611  
      3480       3481       3492       3491       3601       3602       3613       3612  
      3481       3482       3493       3492       3602       3603       3614       3613  
      3482       3483       3494       3493       3603       3604       3615       3614  
      3483       3484       3495       3494       3604       3605       3616       3615  
      3484       3485       3496       3495       3605       3606       3617       3616  
      3485       3486       3497       3496       3606       3607       3618       3617  
      3486       3487       3498       3497       3607       3608       3619       3618  
      3488       3489       3500       3499       3609       3610       3621       3620  
      3489       3490       3501       3500       3610       3611       3622       3621  
      3490       3491       3502       3501       3611       3612       3623       3622  
      3491       3492       3503       3502       3612       3613       3624       3623  
      3492       3493       3504       3503       3613       3614       3625       3624  
      3493       3494       3505       3504       3614       3615       3626       3625  
      3494       3495       3506       3505       3615       3616       3627       3626  
      3495       3496       3507       3506       3616       3617       3628       3627  
      3496       3497       3508       3507       3617       3618       3629       3628  
      3497       3498       3509       3508       3618       3619       3630       3629  
      3510       3511       3522       3521       3631       3632       3643       3642  
      3511       3512       3523       3522       3632       3633       3644       3643  
      3512       3513       3524       3523       3633       3634       3645       3644  
      3513       3514       3525       3524       3634       3635       3646       3645  
      3514       3515       3526       3525       3635       3636       3647       3646  
      3515       3516       3527       3526       3636       3637       3648       3647  
      3516       3517       3528       3527       3637       3638       3649       3648  
      3517       3518       3529       3528       3638       3639       3650       3649  
      3518       3519       3530       3529       3639       3640       3651       3650  
      3519       3520       3531       3530       3640       3641       3652       3651  
      3521       3522       3533       3532       3642       3643       3654       3653  
      3522       3523       3534       3533       3643       3644       3655       3654  
      3523       3524       3535       3534       3644       3645       3656       3655  
      3524       3525       3536       3535       3645       3646       3657       3656  
      3525       3526       3537       3536       3646       3647       3658       3657  
      3526       3527       3538       3537       3647       3648       3659       3658  
      3527       3528       3539       3538       3648       3649       3660       3659  
      3528       3529       3540       3539       3649       3650       3661       3660  
      3529       3530       3541       3540       3650       3651       3662       3661  
      3530       3531       3542       3541       3651       3652       3663       3662  
      3532       3533       3544       3543       3653       3654       3665       3664  
      3533       3534       3545       3544       3654       3655       3666       3665  
      3534       3535       3546       3545       3655       3656       3667       3666  
      3535       3536       3547       3546       3656       3657       3668       3667  
      3536       3537       3548       3547       3657       3658       3669       3668  
      3537       3538       3549       3548       3658       3659       3670       3669  
      3538       3539       3550       3549       3659       3660       3671       3670  
      3539       3540       3551       3550       3660       3661       3672       3671  
      3540       3541       3552       3551       3661       3662       3673       3672  
      3541       3542       3553       3552       3662       3663       3674       3673  
      3543       3544       3555       3554       3664       3665       3676       3675  
      3544       3545       3556       3555       3665       3666       3677       3676  
      3545       3546       3557       3556       3666       3667       3678       3677  
      3546       3547       3558       3557       3667       3668       3679       3678  
      3547       3548       3559       3558       3668       3669       3680       3679  
      3548       3549       3560       3559       3669       3670       3681       3680  
      3549       3550       3561       3560       3670       3671       3682       3681  
      3550       3551       3562       3561       3671       3672       3683       3682  
      3551       3552       3563       3562       3672       3673       3684       3683  
      3552       3553       3564       3563       3673       3674       3685       3684  
      3554       3555       3566       3565       3675       3676       3687       3686  
      3555       3556       3567       3566       3676       3677       3688       3687  
      3556       3557       3568       3567       3677       3678       3689       3688  
      3557       3558       3569       3568       3678       3679       3690       3689  
      3558       3559       3570       3569       3679       3680       3691       3690  
      3559       3560       3571       3570       3680       3681       3692       3691  
      3560       3561       3572       3571       3681       3682       3693       3692  
      3561       3562       3573       3572       3682       3683       3694       3693  
      3562       3563       3574       3573       3683       3684       3695       3694  
      3563       3564       3575       3574       3684       3685       3696       3695  
      3565       3566       3577       3576       3686       3687       3698       3697  
      3566       3567       3578       3577       3687       3688       3699       3698  
      3567       3568       3579       3578       3688       3689       3700       3699  
      3568       3569       3580       3579       3689       3690       3701       3700  
      3569       3570       3581       3580       3690       3691       3702       3701  
      3570       3571       3582       3581       3691       3692       3703       3702  
      3571       3572       3583       3582       3692       3693       3704       3703  
      3572       3573       3584       3583       3693       3694       3705       3704  
      3573       3574       3585       3584       3694       3695       3706       3705  
      3574       3575       3586       3585       3695       3696       3707       3706  
      3576       3577       3588       3587       3697       3698       3709       3708  
      3577       3578       3589       3588       3698       3699       3710       3709  
      3578       3579       3590       3589       3699       3700       3711       3710  
      3579       3580       3591       3590       3700       3701       3712       3711  
      3580       3581       3592       3591       3701       3702       3713       3712  
      3581       3582       3593       3592       3702       3703       3714       3713  
      3582       3583       3594       3593       3703       3704       3715       3714  
      3583       3584       3595       3594       3704       3705       3716       3715  
      3584       3585       3596       3595       3705       3706       3717       3716  
      3585       3586       3597       3596       3706       3707       3718       3717  
      3587       3588       3599       3598       3708       3709       3720       3719  
      3588       3589       3600       3599       3709       3710       3721       3720  
      3589       3590       3601       3600       3710       3711       3722       3721  
      3590       3591       3602       3601       3711       3712       3723       3722  
      3591       3592       3603       3602       3712       3713       3724       3723  
      3592       3593       3604       3603       3713       3714       3725       3724  
      3593       3594       3605       3604       3714       3715       3726       3725  
      3594       3595       3606       3605       3715       3716       3727       3726  
      3595       3596       3607       3606       3716       3717       3728       3727  
      3596       3597       3608       3607       3717       3718       3729       3728  
      3598       3599       3610       3609       3719       3720       3731       3730  
      3599       3600       3611       3610       3720       3721       3732       3731  
      3600       3601       3612       3611       3721       3722       3733       3732  
      3601       3602       3613       3612       3722       3723       3734       3733  
      3602       3603       3614       3613       3723       3724       3735       3734  
      3603       3604       3615       3614       3724       3725       3736       3735  
      3604       3605       3616       3615       3725       3726       3737       3736  
      3605       3606       3617       3616       3726       3727       3738       3737  
      3606       3607       3618       3617       3727       3728       3739       3738  
      3607       3608       3619       3618       3728       3729       3740       3739  
      3609       3610       3621       3620       3730       3731       3742       3741  
      3610       3611       3622       3621       3731       3732       3743       3742  
      3611       3612       3623       3622       3732       3733       3744       3743  
      3612       3613       3624       3623       3733       3734       3745       3744  
      3613       3614       3625       3624       3734       3735       3746       3745  
      3614       3615       3626       3625       3735       3736       3747       3746  
      3615       3616       3627       3626       3736       3737       3748       3747  
      3616       3617       3628       3627       3737       3738       3749       3748  
      3617       3618       3629       3628       3738       3739       3750       3749  
      3618       3619       3630       3629       3739       3740       3751       3750  
      3631       3632       3643       3642       3752       3753       3764       3763  
      3632       3633       3644       3643       3753       3754       3765       3764  
      3633       3634       3645       3644       3754       3755       3766       3765  
      3634       3635       3646       3645       3755       3756       3767       3766  
      3635       3636       3647       3646       3756       3757       3768       3767  
      3636       3637       3648       3647       3757       3758       3769       3768  
      3637       3638       3649       3648       3758       3759       3770       3769  
      3638       3639       3650       3649       3759       3760       3771       3770  
      3639       3640       3651       3650       3760       3761       3772       3771  
      3640       3641       3652       3651       3761       3762       3773       3772  
      3642       3643       3654       3653       3763       3764       3775       3774  
      3643       3644       3655       3654       3764       3765       3776       3775  
      3644       3645       3656       3655       3765       3766       3777       3776  
      3645       3646       3657       3656       3766       3767       3778       3777  
      3646       3647       3658       3657       3767       3768       3779       3778  
      3647       3648       3659       3658       3768       3769       3780       3779  
      3648       3649       3660       3659       3769       3770       3781       3780  
      3649       3650       3661       3660       3770       3771       3782       3781  
      3650       3651       3662       3661       3771       3772       3783       3782  
      3651       3652       3663       3662       3772       3773       3784       3783  
      3653       3654       3665       3664       3774       3775       3786       3785  
      3654       3655       3666       3665       3775       3776       3787       3786  
      3655       3656       3667       3666       3776       3777       3788       3787  
      3656       3657       3668       3667       3777       3778       3789       3788  
      3657       3658       3669       3668       3778       3779       3790       3789  
      3658       3659       3670       3669       3779       3780       3791       3790  
      3659       3660       3671       3670       3780       3781       3792       3791  
      3660       3661       3672       3671       3781       3782       3793       3792  
      3661       3662       3673       3672       3782       3783       3794       3793  
      3662       3663       3674       3673       3783       3784       3795       3794  
      3664       3665       3676       3675       3785       3786       3797       3796  
      3665       3666       3677       3676       3786       3787       3798       3797  
      3666       3667       3678       3677       3787       3788       3799       3798  
      3667       3668       3679       3678       3788       3789       3800       3799  
      3668       3669       3680       3679       3789       3790       3801       3800  
      3669       3670       3681       3680       3790       3791       3802       3801  
      3670       3671       3682       3681       3791       3792       3803       3802  
      3671       3672       3683       3682       3792       3793       3804       3803  
      3672       3673       3684       3683       3793       3794       3805       3804  
      3673       3674       3685       3684       3794       3795       3806       3805  
      3675       3676       3687       3686       3796       3797       3808       3807  
      3676       3677       3688       3687       3797       3798       3809       3808  
      3677       3678       3689       3688       3798       3799       3810       3809  
      3678       3679       3690       3689       3799       3800       3811       3810  
      3679       3680       3691       3690       3800       3801       3812       3811  
      3680       3681       3692       3691       3801       3802       3813       3812  
      3681       3682       3693       3692       3802       3803       3814       3813  
      3682       3683       3694       3693       3803       3804       3815       3814  
      3683       3684       3695       3694       3804       3805       3816       3815  
      3684       3685       3696       3695       3805       3806       3817       3816  
      3686       3687       3698       3697       3807       3808       3819       3818  
      3687       3688       3699       3698       3808       3809       3820       3819  
      3688       3689       3700       3699       3809       3810       3821       3820  
      3689       3690       3701       3700       3810       3811       3822       3821  
      3690       3691       3702       3701       3811       3812       3823       3822  
      3691       3692       3703       3702       3812       3813       3824       3823  
      3692       3693       3704       3703       3813       3814       3825       3824  
      3693       3694       3705       3704       3814       3815       3826       3825  
      3694       3695       3706       3705       3815       3816       3827       3826  
      3695       3696       3707       3706       3816       3817       3828       3827  
      3697       3698       3709       3708       3818       3819       3830       3829  
      3698       3699       3710       3709       3819       3820       3831       3830  
      3699       3700       3711       3710       3820       3821       3832       3831  
      3700       3701       3712       3711       3821       3822       3833       3832  
      3701       3702       3713       3712       3822       3823       3834       3833  
      3702       3703       3714       3713       3823       3824       3835       3834  
      3703       3704       3715       3714       3824       3825       3836       3835  
      3704       3705       3716       3715       3825       3826       3837       3836  
      3705       3706       3717       3716       3826       3827       3838       3837  
      3706       3707       3718       3717       3827       3828       3839       3838  
      3708       3709       3720       3719       3829       3830       3841       3840  
      3709       3710       3721       3720       3830       3831       3842       3841  
      3710       3711       3722       3721       3831       3832       3843       3842  
      3711       3712       3723       3722       3832       3833       3844       3843  
      3712       3713       3724       3723       3833       3834       3845       3844  
      3713       3714       3725       3724       3834       3835       3846       3845  
      3714       3715       3726       3725       3835       3836       3847       3846  
      3715       3716       3727       3726       3836       3837       3848       3847  
      3716       3717       3728       3727       3837       3838       3849       3848  
      3717       3718       3729       3728       3838       3839       3850       3849  
      3719       3720       3731       3730       3840       3841       3852       3851  
      3720       3721       3732       3731       3841       3842       3853       3852  
      3721       3722       3733       3732       3842       3843       3854       3853  
      3722       3723       3734       3733       3843       3844       3855       3854  
      3723       3724       3735       3734       3844       3845       3856       3855  
      3724       3725       3736       3735       3845       3846       3857       3856  
      3725       3726       3737       3736       3846       3847       3858       3857  
      3726       3727       3738       3737       3847       3848       3859       3858  
      3727       3728       3739       3738       3848       3849       3860       3859  
      3728       3729       3740       3739       3849       3850       3861       3860  
      3730       3731       3742       3741       3851       3852       3863       3862  
      3731       3732       3743       3742       3852       3853       3864       3863  
      3732       3733       3744       3743       3853       3854       3865       3864  
      3733       3734       3745       3744       3854       3855       3866       3865  
      3734       3735       3746       3745       3855       3856       3867       3866  
      3735       3736       3747       3746       3856       3857       3868       3867  
      3736       3737       3748       3747       3857       3858       3869       3868  
      3737       3738       3749       3748       3858       3859       3870       3869  
      3738       3739       3750       3749       3859       3860       3871       3870  
      3739       3740       3751       3750       3860       3861       3872       3871  
      3752       3753       3764       3763       3873       3874       3885       3884  
      3753       3754       3765       3764       3874       3875       3886       3885  
      3754       3755       3766       3765       3875       3876       3887       3886  
      3755       3756       3767       3766       3876       3877       3888       3887  
      3756       3757       3768       3767       3877       3878       3889       3888  
      3757       3758       3769       3768       3878       3879       3890       3889  
      3758       3759       3770       3769       3879       3880       3891       3890  
      3759       3760       3771       3770       3880       3881       3892       3891  
      3760       3761       3772       3771       3881       3882       3893       3892  
      3761       3762       3773       3772       3882       3883       3894       3893  
      3763       3764       3775       3774       3884       3885       3896       3895  
      3764       3765       3776       3775       3885       3886       3897       3896  
      3765       3766       3777       3776       3886       3887       3898       3897  
      3766       3767       3778       3777       3887       3888       3899       3898  
      3767       3768       3779       3778       3888       3889       3900       3899  
      3768       3769       3780       3779       3889       3890       3901       3900  
      3769       3770       3781       3780       3890       3891       3902       3901  
      3770       3771       3782       3781       3891       3892       3903       3902  
      3771       3772       3783       3782       3892       3893       3904       3903  
      3772       3773       3784       3783       3893       3894       3905       3904  
      3774       3775       3786       3785       3895       3896       3907       3906  
      3775       3776       3787       3786       3896       3897       3908       3907  
      3776       3777       3788       3787       3897       3898       3909       3908  
      3777       3778       3789       3788       3898       3899       3910       3909  
      3778       3779       3790       3789       3899       3900       3911       3910  
      3779       3780       3791       3790       3900       3901       3912       3911  
      3780       3781       3792       3791       3901       3902       3913       3912  
      3781       3782       3793       3792       3902       3903       3914       3913  
      3782       3783       3794       3793       3903       3904       3915       3914  
      3783       3784       3795       3794       3904       3905       3916       3915  
      3785       3786       3797       3796       3906       3907       3918       3917  
      3786       3787       3798       3797       3907       3908       3919       3918  
      3787       3788       3799       3798       3908       3909       3920       3919  
      3788       3789       3800       3799       3909       3910       3921       3920  
      3789       3790       3801       3800       3910       3911       3922       3921  
      3790       3791       3802       3801       3911       3912       3923       3922  
      3791       3792       3803       3802       3912       3913       3924       3923  
      3792       3793       3804       3803       3913       3914       3925       3924  
      3793       3794       3805       3804       3914       3915       3926       3925  
      3794       3795       3806       3805       3915       3916       3927       3926  
      3796       3797       3808       3807       3917       3918       3929       3928  
      3797       3798       3809       3808       3918       3919       3930       3929  
      3798       3799       3810       3809       3919       3920       3931       3930  
      3799       3800       3811       3810       3920       3921       3932       3931  
      3800       3801       3812       3811       3921       3922       3933       3932  
      3801       3802       3813       3812       3922       3923       3934       3933  
      3802       3803       3814       3813       3923       3924       3935       3934  
      3803       3804       3815       3814       3924       3925       3936       3935  
      3804       3805       3816       3815       3925       3926       3937       3936  
      3805       3806       3817       3816       3926       3927       3938       3937  
      3807       3808       3819       3818       3928       3929       3940       3939  
      3808       3809       3820       3819       3929       3930       3941       3940  
      3809       3810       3821       3820       3930       3931       3942       3941  
      3810       3811       3822       3821       3931       3932       3943       3942  
      3811       3812       3823       3822       3932       3933       3944       3943  
      3812       3813       3824       3823       3933       3934       3945       3944  
      3813       3814       3825       3824       3934       3935       3946       3945  
      3814       3815       3826       3825       3935       3936       3947       3946  
      3815       3816       3827       3826       3936       3937       3948       3947  
      3816       3817       3828       3827       3937       3938       3949       3948  
      3818       3819       3830       3829       3939       3940       3951       3950  
      3819       3820       3831       3830       3940       3941       3952       3951  
      3820       3821       3832       3831       3941       3942       3953       3952  
      3821       3822       3833       3832       3942       3943       3954       3953  
      3822       3823       3834       3833       3943       3944       3955       3954  
      3823       3824       3835       3834       3944       3945       3956       3955  
      3824       3825       3836       3835       3945       3946       3957       3956  
      3825       3826       3837       3836       3946       3947       3958       3957  
      3826       3827       3838       3837       3947       3948       3959       3958  
      3827       3828       3839       3838       3948       3949       3960       3959  
      3829       3830       3841       3840       3950       3951       3962       3961  
      3830       3831       3842       3841       3951       3952       3963       3962  
      3831       3832       3843       3842       3952       3953       3964       3963  
      3832       3833       3844       3843       3953       3954       3965       3964  
      3833       3834       3845       3844       3954       3955       3966       3965  
      3834       3835       3846       3845       3955       3956       3967       3966  
      3835       3836       3847       3846       3956       3957       3968       3967  
      3836       3837       3848       3847       3957       3958       3969       3968  
      3837       3838       3849       3848       3958       3959       3970       3969  
      3838       3839       3850       3849       3959       3960       3971       3970  
      3840       3841       3852       3851       3961       3962       3973       3972  
      3841       3842       3853       3852       3962       3963       3974       3973  
      3842       3843       3854       3853       3963       3964       3975       3974  
      3843       3844       3855       3854       3964       3965       3976       3975  
      3844       3845       3856       3855       3965       3966       3977       3976  
      3845       3846       3857       3856       3966       3967       3978       3977  
      3846       3847       3858       3857       3967       3968       3979       3978  
      3847       3848       3859       3858       3968       3969       3980       3979  
      3848       3849       3860       3859       3969       3970       3981       3980  
      3849       3850       3861       3860       3970       3971       3982       3981  
      3851       3852       3863       3862       3972       3973       3984       3983  
      3852       3853       3864       3863       3973       3974       3985       3984  
      3853       3854       3865       3864       3974       3975       3986       3985  
      3854       3855       3866       3865       3975       3976       3987       3986  
      3855       3856       3867       3866       3976       3977       3988       3987  
      3856       3857       3868       3867       3977       3978       3989       3988  
      3857       3858       3869       3868       3978       3979       3990       3989  
      3858       3859       3870       3869       3979       3980       3991       3990  
      3859       3860       3871       3870       3980       3981       3992       3991  
      3860       3861       3872       3871       3981       3982       3993       3992  
      3873       3874       3885       3884       3994       3995       4006       4005  
      3874       3875       3886       3885       3995       3996       4007       4006  
      3875       3876       3887       3886       3996       3997       4008       4007  
      3876       3877       3888       3887       3997       3998       4009       4008  
      3877       3878       3889       3888       3998       3999       4010       4009  
      3878       3879       3890       3889       3999       4000       4011       4010  
      3879       3880       3891       3890       4000       4001       4012       4011  
      3880       3881       3892       3891       4001       4002       4013       4012  
      3881       3882       3893       3892       4002       4003       4014       4013  
      3882       3883       3894       3893       4003       4004       4015       4014  
      3884       3885       3896       3895       4005       4006       4017       4016  
      3885       3886       3897       3896       4006       4007       4018       4017  
      3886       3887       3898       3897       4007       4008       4019       4018  
      3887       3888       3899       3898       4008       4009       4020       4019  
      3888       3889       3900       3899       4009       4010       4021       4020  
      3889       3890       3901       3900       4010       4011       4022       4021  
      3890       3891       3902       3901       4011       4012       4023       4022  
      3891       3892       3903       3902       4012       4013       4024       4023  
      3892       3893       3904       3903       4013       4014       4025       4024  
      3893       3894       3905       3904       4014       4015       4026       4025  
      3895       3896       3907       3906       4016       4017       4028       4027  
      3896       3897       3908       3907       4017       4018       4029       4028  
      3897       3898       3909       3908       4018       4019       4030       4029  
      3898       3899       3910       3909       4019       4020       4031       4030  
      3899       3900       3911       3910       4020       4021       4032       4031  
      3900       3901       3912       3911       4021       4022       4033       4032  
      3901       3902       3913       3912       4022       4023       4034       4033  
      3902       3903       3914       3913       4023       4024       4035       4034  
      3903       3904       3915       3914       4024       4025       4036       4035  
      3904       3905       3916       3915       4025       4026       4037       4036  
      3906       3907       3918       3917       4027       4028       4039       4038  
      3907       3908       3919       3918       4028       4029       4040       4039  
      3908       3909       3920       3919       4029       4030       4041       4040  
      3909       3910       3921       3920       4030       4031       4042       4041  
      3910       3911       3922       3921       4031       4032       4043       4042  
      3911       3912       3923       3922       4032       4033       4044       4043  
      3912       3913       3924       3923       4033       4034       4045       4044  
      3913       3914       3925       3924       4034       4035       4046       4045  
      3914       3915       3926       3925       4035       4036       4047       4046  
      3915       3916       3927       3926       4036       4037       4048       4047  
      3917       3918       3929       3928       4038       4039       4050       4049  
      3918       3919       3930       3929       4039       4040       4051       4050  
      3919       3920       3931       3930       4040       4041       4052       4051  
      3920       3921       3932       3931       4041       4042       4053       4052  
      3921       3922       3933       3932       4042       4043       4054       4053  
      3922       3923       3934       3933       4043       4044       4055       4054  
      3923       3924       3935       3934       4044       4045       4056       4055  
      3924       3925       3936       3935       4045       4046       4057       4056  
      3925       3926       3937       3936       4046       4047       4058       4057  
      3926       3927       3938       3937       4047       4048       4059       4058  
      3928       3929       3940       3939       4049       4050       4061       4060  
      3929       3930       3941       3940       4050       4051       4062       4061  
      3930       3931       3942       3941       4051       4052       4063       4062  
      3931       3932       3943       3942       4052       4053       4064       4063  
      3932       3933       3944       3943       4053       4054       4065       4064  
      3933       3934       3945       3944       4054       4055       4066       4065  
      3934       3935       3946       3945       4055       4056       4067       4066  
      3935       3936       3947       3946       4056       4057       4068       4067  
      3936       3937       3948       3947       4057       4058       4069       4068  
      3937       3938       3949       3948       4058       4059       4070       4069  
      3939       3940       3951       3950       4060       4061       4072       4071  
      3940       3941       3952       3951       4061       4062       4073       4072  
      3941       3942       3953       3952       4062       4063       4074       4073  
      3942       3943       3954       3953       4063       4064       4075       4074  
      3943       3944       3955       3954       4064       4065       4076       4075  
      3944       3945       3956       3955       4065       4066       4077       4076  
      3945       3946       3957       3956       4066       4067       4078       4077  
      3946       3947       3958       3957       4067       4068       4079       4078  
      3947       3948       3959       3958       4068       4069       4080       4079  
      3948       3949       3960       3959       4069       4070       4081       4080  
      3950       3951       3962       3961       4071       4072       4083       4082  
      3951       3952       3963       3962       4072       4073       4084       4083  
      3952       3953       3964       3963       4073       4074       4085       4084  
      3953       3954       3965       3964       4074       4075       4086       4085  
      3954       3955       3966       3965       4075       4076       4087       4086  
      3955       3956       3967       3966       4076       4077       4088       4087  
      3956       3957       3968       3967       4077       4078       4089       4088  
      3957       3958       3969       3968       4078       4079       4090       4089  
      3958       3959       3970       3969       4079       4080       4091       4090  
      3959       3960       3971       3970       4080       4081       4092       4091  
      3961       3962       3973       3972       4082       4083       4094       4093  
      3962       3963       3974       3973       4083       4084       4095       4094  
      3963       3964       3975       3974       4084       4085       4096       4095  
      3964       3965       3976       3975       4085       4086       4097       4096  
      3965       3966       3977       3976       4086       4087       4098       4097  
      3966       3967       3978       3977       4087       4088       4099       4098  
      3967       3968       3979       3978       4088       4089       4100       4099  
      3968       3969       3980       3979       4089       4090       4101       4100  
      3969       3970       3981       3980       4090       4091       4102       4101  
      3970       3971       3982       3981       4091       4092       4103       4102  
      3972       3973       3984       3983       4093       4094       4105       4104  
      3973       3974       3985       3984       4094       4095       4106       4105  
      3974       3975       3986       3985       4095       4096       4107       4106  
      3975       3976       3987       3986       4096       4097       4108       4107  
      3976       3977       3988       3987       4097       4098       4109       4108  
      3977       3978       3989       3988       4098       4099       4110       4109  
      3978       3979       3990       3989       4099       4100       4111       4110  
      3979       3980       3991       3990       4100       4101       4112       4111  
      3980       3981       3992       3991       4101       4102       4113       4112  
      3981       3982       3993       3992       4102       4103       4114       4113  
      3994       3995       4006       4005       4115       4116       4127       4126  
      3995       3996       4007       4006       4116       4117       4128       4127  
      3996       3997       4008       4007       4117       4118       4129       4128  
      3997       3998       4009       4008       4118       4119       4130       4129  
      3998       3999       4010       4009       4119       4120       4131       4130  
      3999       4000       4011       4010       4120       4121       4132       4131  
      4000       4001       4012       4011       4121       4122       4133       4132  
      4001       4002       4013       4012       4122       4123       4134       4133  
      4002       4003       4014       4013       4123       4124       4135       4134  
      4003       4004       4015       4014       4124       4125       4136       4135  
      4005       4006       4017       4016       4126       4127       4138       4137  
      4006       4007       4018       4017       4127       4128       4139       4138  
      4007       4008       4019       4018       4128       4129       4140       4139  
      4008       4009       4020       4019       4129       4130       4141       4140  
      4009       4010       4021       4020       4130       4131       4142       4141  
      4010       4011       4022       4021       4131       4132       4143       4142  
      4011       4012       4023       4022       4132       4133       4144       4143  
      4012       4013       4024       4023       4133       4134       4145       4144  
      4013       4014       4025       4024       4134       4135       4146       4145  
      4014       4015       4026       4025       4135       4136       4147       4146  
      4016       4017       4028       4027       4137       4138       4149       4148  
      4017       4018       4029       4028       4138       4139       4150       4149  
      4018       4019       4030       4029       4139       4140       4151       4150  
      4019       4020       4031       4030       4140       4141       4152       4151  
      4020       4021       4032       4031       4141       4142       4153       4152  
      4021       4022       4033       4032       4142       4143       4154       4153  
      4022       4023       4034       4033       4143       4144       4155       4154  
      4023       4024       4035       4034       4144       4145       4156       4155  
      4024       4025       4036       4035       4145       4146       4157       4156  
      4025       4026       4037       4036       4146       4147       4158       4157  
      4027       4028       4039       4038       4148       4149       4160       4159  
      4028       4029       4040       4039       4149       4150       4161       4160  
      4029       4030       4041       4040       4150       4151       4162       4161  
      4030       4031       4042       4041       4151       4152       4163       4162  
      4031       4032       4043       4042       4152       4153       4164       4163  
      4032       4033       4044       4043       4153       4154       4165       4164  
      4033       4034       4045       4044       4154       4155       4166       4165  
      4034       4035       4046       4045       4155       4156       4167       4166  
      4035       4036       4047       4046       4156       4157       4168       4167  
      4036       4037       4048       4047       4157       4158       4169       4168  
      4038       4039       4050       4049       4159       4160       4171       4170  
      4039       4040       4051       4050       4160       4161       4172       4171  
      4040       4041       4052       4051       4161       4162       4173       4172  
      4041       4042       4053       4052       4162       4163       4174       4173  
      4042       4043       4054       4053       4163       4164       4175       4174  
      4043       4044       4055       4054       4164       4165       4176       4175  
      4044       4045       4056       4055       4165       4166       4177       4176  
      4045       4046       4057       4056       4166       4167       4178       4177  
      4046       4047       4058       4057       4167       4168       4179       4178  
      4047       4048       4059       4058       4168       4169       4180       4179  
      4049       4050       4061       4060       4170       4171       4182       4181  
      4050       4051       4062       4061       4171       4172       4183       4182  
      4051       4052       4063       4062       4172       4173       4184       4183  
      4052       4053       4064       4063       4173       4174       4185       4184  
      4053       4054       4065       4064       4174       4175       4186       4185  
      4054       4055       4066       4065       4175       4176       4187       4186  
      4055       4056       4067       4066       4176       4177       4188       4187  
      4056       4057       4068       4067       4177       4178       4189       4188  
      4057       4058       4069       4068       4178       4179       4190       4189  
      4058       4059       4070       4069       4179       4180       4191       4190  
      4060       4061       4072       4071       4181       4182       4193       4192  
      4061       4062       4073       4072       4182       4183       4194       4193  
      4062       4063       4074       4073       4183       4184       4195       4194  
      4063       4064       4075       4074       4184       4185       4196       4195  
      4064       4065       4076       4075       4185       4186       4197       4196  
      4065       4066       4077       4076       4186       4187       4198       4197  
      4066       4067       4078       4077       4187       4188       4199       4198  
      4067       4068       4079       4078       4188       4189       4200       4199  
      4068       4069       4080       4079       4189       4190       4201       4200  
      4069       4070       4081       4080       4190       4191       4202       4201  
      4071       4072       4083       4082       4192       4193       4204       4203  
      4072       4073       4084       4083       4193       4194       4205       4204  
      4073       4074       4085       4084       4194       4195       4206       4205  
      4074       4075       4086       4085       4195       4196       4207       4206  
      4075       4076       4087       4086       4196       4197       4208       4207  
      4076       4077       4088       4087       4197       4198       4209       4208  
      4077       4078       4089       4088       4198       4199       4210       4209  
      4078       4079       4090       4089       4199       4200       4211       4210  
      4079       4080       4091       4090       4200       4201       4212       4211  
      4080       4081       4092       4091       4201       4202       4213       4212  
      4082       4083       4094       4093       4203       4204       4215       4214  
      4083       4084       4095       4094       4204       4205       4216       4215  
      4084       4085       4096       4095       4205       4206       4217       4216  
      4085       4086       4097       4096       4206       4207       4218       4217  
      4086       4087       4098       4097       4207       4208       4219       4218  
      4087       4088       4099       4098       4208       4209       4220       4219  
      4088       4089       4100       4099       4209       4210       4221       4220  
      4089       4090       4101       4100       4210       4211       4222       4221  
      4090       4091       4102       4101       4211       4212       4223       4222  
      4091       4092       4103       4102       4212       4213       4224       4223  
      4093       4094       4105       4104       4214       4215       4226       4225  
      4094       4095       4106       4105       4215       4216       4227       4226  
      4095       4096       4107       4106       4216       4217       4228       4227  
      4096       4097       4108       4107       4217       4218       4229       4228  
      4097       4098       4109       4108       4218       4219       4230       4229  
      4098       4099       4110       4109       4219       4220       4231       4230  
      4099       4100       4111       4110       4220       4221       4232       4231  
      4100       4101       4112       4111       4221       4222       4233       4232  
      4101       4102       4113       4112       4222       4223       4234       4233  
      4102       4103       4114       4113       4223       4224       4235       4234  
      4115       4116       4127       4126       4236       4237       4248       4247  
      4116       4117       4128       4127       4237       4238       4249       4248  
      4117       4118       4129       4128       4238       4239       4250       4249  
      4118       4119       4130       4129       4239       4240       4251       4250  
      4119       4120       4131       4130       4240       4241       4252       4251  
      4120       4121       4132       4131       4241       4242       4253       4252  
      4121       4122       4133       4132       4242       4243       4254       4253  
      4122       4123       4134       4133       4243       4244       4255       4254  
      4123       4124       4135       4134       4244       4245       4256       4255  
      4124       4125       4136       4135       4245       4246       4257       4256  
      4126       4127       4138       4137       4247       4248       4259       4258  
      4127       4128       4139       4138       4248       4249       4260       4259  
      4128       4129       4140       4139       4249       4250       4261       4260  
      4129       4130       4141       4140       4250       4251       4262       4261  
      4130       4131       4142       4141       4251       4252       4263       4262  
      4131       4132       4143       4142       4252       4253       4264       4263  
      4132       4133       4144       4143       4253       4254       4265       4264  
      4133       4134       4145       4144       4254       4255       4266       4265  
      4134       4135       4146       4145       4255       4256       4267       4266  
      4135       4136       4147       4146       4256       4257       4268       4267  
      4137       4138       4149       4148       4258       4259       4270       4269  
      4138       4139       4150       4149       4259       4260       4271       4270  
      4139       4140       4151       4150       4260       4261       4272       4271  
      4140       4141       4152       4151       4261       4262       4273       4272  
      4141       4142       4153       4152       4262       4263       4274       4273  
      4142       4143       4154       4153       4263       4264       4275       4274  
      4143       4144       4155       4154       4264       4265       4276       4275  
      4144       4145       4156       4155       4265       4266       4277       4276  
      4145       4146       4157       4156       4266       4267       4278       4277  
      4146       4147       4158       4157       4267       4268       4279       4278  
      4148       4149       4160       4159       4269       4270       4281       4280  
      4149       4150       4161       4160       4270       4271       4282       4281  
      4150       4151       4162       4161       4271       4272       4283       4282  
      4151       4152       4163       4162       4272       4273       4284       4283  
      4152       4153       4164       4163       4273       4274       4285       4284  
      4153       4154       4165       4164       4274       4275       4286       4285  
      4154       4155       4166       4165       4275       4276       4287       4286  
      4155       4156       4167       4166       4276       4277       4288       4287  
      4156       4157       4168       4167       4277       4278       4289       4288  
      4157       4158       4169       4168       4278       4279       4290       4289  
      4159       4160       4171       4170       4280       4281       4292       4291  
      4160       4161       4172       4171       4281       4282       4293       4292  
      4161       4162       4173       4172       4282       4283       4294       4293  
      4162       4163       4174       4173       4283       4284       4295       4294  
      4163       4164       4175       4174       4284       4285       4296       4295  
      4164       4165       4176       4175       4285       4286       4297       4296  
      4165       4166       4177       4176       4286       4287       4298       4297  
      4166       4167       4178       4177       4287       4288       4299       4298  
      4167       4168       4179       4178       4288       4289       4300       4299  
      4168       4169       4180       4179       4289       4290       4301       4300  
      4170       4171       4182       4181       4291       4292       4303       4302  
      4171       4172       4183       4182       4292       4293       4304       4303  
      4172       4173       4184       4183       4293       4294       4305       4304  
      4173       4174       4185       4184       4294       4295       4306       4305  
      4174       4175       4186       4185       4295       4296       4307       4306  
      4175       4176       4187       4186       4296       4297       4308       4307  
      4176       4177       4188       4187       4297       4298       4309       4308  
      4177       4178       4189       4188       4298       4299       4310       4309  
      4178       4179       4190       4189       4299       4300       4311       4310  
      4179       4180       4191       4190       4300       4301       4312       4311  
      4181       4182       4193       4192       4302       4303       4314       4313  
      4182       4183       4194       4193       4303       4304       4315       4314  
      4183       4184       4195       4194       4304       4305       4316       4315  
      4184       4185       4196       4195       4305       4306       4317       4316  
      4185       4186       4197       4196       4306       4307       4318       4317  
      4186       4187       4198       4197       4307       4308       4319       4318  
      4187       4188       4199       4198       4308       4309       4320       4319  
      4188       4189       4200       4199       4309       4310       4321       4320  
      4189       4190       4201       4200       4310       4311       4322       4321  
      4190       4191       4202       4201       4311       4312       4323       4322  
      4192       4193       4204       4203       4313       4314       4325       4324  
      4193       4194       4205       4204       4314       4315       4326       4325  
      4194       4195       4206       4205       4315       4316       4327       4326  
      4195       4196       4207       4206       4316       4317       4328       4327  
      4196       4197       4208       4207       4317       4318       4329       4328  
      4197       4198       4209       4208       4318       4319       4330       4329  
      4198       4199       4210       4209       4319       4320       4331       4330  
      4199       4200       4211       4210       4320       4321       4332       4331  
      4200       4201       4212       4211       4321       4322       4333       4332  
      4201       4202       4213       4212       4322       4323       4334       4333  
      4203       4204       4215       4214       4324       4325       4336       4335  
      4204       4205       4216       4215       4325       4326       4337       4336  
      4205       4206       4217       4216       4326       4327       4338       4337  
      4206       4207       4218       4217       4327       4328       4339       4338  
      4207       4208       4219       4218       4328       4329       4340       4339  
      4208       4209       4220       4219       4329       4330       4341       4340  
      4209       4210       4221       4220       4330       4331       4342       4341  
      4210       4211       4222       4221       4331       4332       4343       4342  
      4211       4212       4223       4222       4332       4333       4344       4343  
      4212       4213       4224       4223       4333       4334       4345       4344  
      4214       4215       4226       4225       4335       4336       4347       4346  
      4215       4216       4227       4226       4336       4337       4348       4347  
      4216       4217       4228       4227       4337       4338       4349       4348  
      4217       4218       4229       4228       4338       4339       4350       4349  
      4218       4219       4230       4229       4339       4340       4351       4350  
      4219       4220       4231       4230       4340       4341       4352       4351  
      4220       4221       4232       4231       4341       4342       4353       4352  
      4221       4222       4233       4232       4342       4343       4354       4353  
      4222       4223       4234       4233       4343       4344       4355       4354  
      4223       4224       4235       4234       4344       4345       4356       4355  
      4236       4237       4248       4247       4357       4358       4369       4368  
      4237       4238       4249       4248       4358       4359       4370       4369  
      4238       4239       4250       4249       4359       4360       4371       4370  
      4239       4240       4251       4250       4360       4361       4372       4371  
      4240       4241       4252       4251       4361       4362       4373       4372  
      4241       4242       4253       4252       4362       4363       4374       4373  
      4242       4243       4254       4253       4363       4364       4375       4374  
      4243       4244       4255       4254       4364       4365       4376       4375  
      4244       4245       4256       4255       4365       4366       4377       4376  
      4245       4246       4257       4256       4366       4367       4378       4377  
      4247       4248       4259       4258       4368       4369       4380       4379  
      4248       4249       4260       4259       4369       4370       4381       4380  
      4249       4250       4261       4260       4370       4371       4382       4381  
      4250       4251       4262       4261       4371       4372       4383       4382  
      4251       4252       4263       4262       4372       4373       4384       4383  
      4252       4253       4264       4263       4373       4374       4385       4384  
      4253       4254       4265       4264       4374       4375       4386       4385  
      4254       4255       4266       4265       4375       4376       4387       4386  
      4255       4256       4267       4266       4376       4377       4388       4387  
      4256       4257       4268       4267       4377       4378       4389       4388  
      4258       4259       4270       4269       4379       4380       4391       4390  
      4259       4260       4271       4270       4380       4381       4392       4391  
      4260       4261       4272       4271       4381       4382       4393       4392  
      4261       4262       4273       4272       4382       4383       4394       4393  
      4262       4263       4274       4273       4383       4384       4395       4394  
      4263       4264       4275       4274       4384       4385       4396       4395  
      4264       4265       4276       4275       4385       4386       4397       4396  
      4265       4266       4277       4276       4386       4387       4398       4397  
      4266       4267       4278       4277       4387       4388       4399       4398  
      4267       4268       4279       4278       4388       4389       4400       4399  
      4269       4270       4281       4280       4390       4391       4402       4401  
      4270       4271       4282       4281       4391       4392       4403       4402  
      4271       4272       4283       4282       4392       4393       4404       4403  
      4272       4273       4284       4283       4393       4394       4405       4404  
      4273       4274       4285       4284       4394       4395       4406       4405  
      4274       4275       4286       4285       4395       4396       4407       4406  
      4275       4276       4287       4286       4396       4397       4408       4407  
      4276       4277       4288       4287       4397       4398       4409       4408  
      4277       4278       4289       4288       4398       4399       4410       4409  
      4278       4279       4290       4289       4399       4400       4411       4410  
      4280       4281       4292       4291       4401       4402       4413       4412  
      4281       4282       4293       4292       4402       4403       4414       4413  
      4282       4283       4294       4293       4403       4404       4415       4414  
      4283       4284       4295       4294       4404       4405       4416       4415  
      4284       4285       4296       4295       4405       4406       4417       4416  
      4285       4286       4297       4296       4406       4407       4418       4417  
      4286       4287       4298       4297       4407       4408       4419       4418  
      4287       4288       4299       4298       4408       4409       4420       4419  
      4288       4289       4300       4299       4409       4410       4421       4420  
      4289       4290       4301       4300       4410       4411       4422       4421  
      4291       4292       4303       4302       4412       4413       4424       4423  
      4292       4293       4304       4303       4413       4414       4425       4424  
      4293       4294       4305       4304       4414       4415       4426       4425  
      4294       4295       4306       4305       4415       4416       4427       4426  
      4295       4296       4307       4306       4416       4417       4428       4427  
      4296       4297       4308       4307       4417       4418       4429       4428  
      4297       4298       4309       4308       4418       4419       4430       4429  
      4298       4299       4310       4309       4419       4420       4431       4430  
      4299       4300       4311       4310       4420       4421       4432       4431  
      4300       4301       4312       4311       4421       4422       4433       4432  
      4302       4303       4314       4313       4423       4424       4435       4434  
      4303       4304       4315       4314       4424       4425       4436       4435  
      4304       4305       4316       4315       4425       4426       4437       4436  
      4305       4306       4317       4316       4426       4427       4438       4437  
      4306       4307       4318       4317       4427       4428       4439       4438  
      4307       4308       4319       4318       4428       4429       4440       4439  
      4308       4309       4320       4319       4429       4430       4441       4440  
      4309       4310       4321       4320       4430       4431       4442       4441  
      4310       4311       4322       4321       4431       4432       4443       4442  
      4311       4312       4323       4322       4432       4433       4444       4443  
      4313       4314       4325       4324       4434       4435       4446       4445  
      4314       4315       4326       4325       4435       4436       4447       4446  
      4315       4316       4327       4326       4436       4437       4448       4447  
      4316       4317       4328       4327       4437       4438       4449       4448  
      4317       4318       4329       4328       4438       4439       4450       4449  
      4318       4319       4330       4329       4439       4440       4451       4450  
      4319       4320       4331       4330       4440       4441       4452       4451  
      4320       4321       4332       4331       4441       4442       4453       4452  
      4321       4322       4333       4332       4442       4443       4454       4453  
      4322       4323       4334       4333       4443       4444       4455       4454  
      4324       4325       4336       4335       4445       4446       4457       4456  
      4325       4326       4337       4336       4446       4447       4458       4457  
      4326       4327       4338       4337       4447       4448       4459       4458  
      4327       4328       4339       4338       4448       4449       4460       4459  
      4328       4329       4340       4339       4449       4450       4461       4460  
      4329       4330       4341       4340       4450       4451       4462       4461  
      4330       4331       4342       4341       4451       4452       4463       4462  
      4331       4332       4343       4342       4452       4453       4464       4463  
      4332       4333       4344       4343       4453       4454       4465       4464  
      4333       4334       4345       4344       4454       4455       4466       4465  
      4335       4336       4347       4346       4456       4457       4468       4467  
      4336       4337       4348       4347       4457       4458       4469       4468  
      4337       4338       4349       4348       4458       4459       4470       4469  
      4338       4339       4350       4349       4459       4460       4471       4470  
      4339       4340       4351       4350       4460       4461       4472       4471  
      4340       4341       4352       4351       4461       4462       4473       4472  
      4341       4342       4353       4352       4462       4463       4474       4473  
      4342       4343       4354       4353       4463       4464       4475       4474  
      4343       4344       4355       4354       4464       4465       4476       4475  
      4344       4345       4356       4355       4465       4466       4477       4476  
      4357       4358       4369       4368       4478       4479       4490       4489  
      4358       4359       4370       4369       4479       4480       4491       4490  
      4359       4360       4371       4370       4480       4481       4492       4491  
      4360       4361       4372       4371       4481       4482       4493       4492  
      4361       4362       4373       4372       4482       4483       4494       4493  
      4362       4363       4374       4373       4483       4484       4495       4494  
      4363       4364       4375       4374       4484       4485       4496       4495  
      4364       4365       4376       4375       4485       4486       4497       4496  
      4365       4366       4377       4376       4486       4487       4498       4497  
      4366       4367       4378       4377       4487       4488       4499       4498  
      4368       4369       4380       4379       4489       4490       4501       4500  
      4369       4370       4381       4380       4490       4491       4502       4501  
      4370       4371       4382       4381       4491       4492       4503       4502  
      4371       4372       4383       4382       4492       4493       4504       4503  
      4372       4373       4384       4383       4493       4494       4505       4504  
      4373       4374       4385       4384       4494       4495       4506       4505  
      4374       4375       4386       4385       4495       4496       4507       4506  
      4375       4376       4387       4386       4496       4497       4508       4507  
      4376       4377       4388       4387       4497       4498       4509       4508  
      4377       4378       4389       4388       4498       4499       4510       4509  
      4379       4380       4391       4390       4500       4501       4512       4511  
      4380       4381       4392       4391       4501       4502       4513       4512  
      4381       4382       4393       4392       4502       4503       4514       4513  
      4382       4383       4394       4393       4503       4504       4515       4514  
      4383       4384       4395       4394       4504       4505       4516       4515  
      4384       4385       4396       4395       4505       4506       4517       4516  
      4385       4386       4397       4396       4506       4507       4518       4517  
      4386       4387       4398       4397       4507       4508       4519       4518  
      4387       4388       4399       4398       4508       4509       4520       4519  
      4388       4389       4400       4399       4509       4510       4521       4520  
      4390       4391       4402       4401       4511       4512       4523       4522  
      4391       4392       4403       4402       4512       4513       4524       4523  
      4392       4393       4404       4403       4513       4514       4525       4524  
      4393       4394       4405       4404       4514       4515       4526       4525  
      4394       4395       4406       4405       4515       4516       4527       4526  
      4395       4396       4407       4406       4516       4517       4528       4527  
      4396       4397       4408       4407       4517       4518       4529       4528  
      4397       4398       4409       4408       4518       4519       4530       4529  
      4398       4399       4410       4409       4519       4520       4531       4530  
      4399       4400       4411       4410       4520       4521       4532       4531  
      4401       4402       4413       4412       4522       4523       4534       4533  
      4402       4403       4414       4413       4523       4524       4535       4534  
      4403       4404       4415       4414       4524       4525       4536       4535  
      4404       4405       4416       4415       4525       4526       4537       4536  
      4405       4406       4417       4416       4526       4527       4538       4537  
      4406       4407       4418       4417       4527       4528       4539       4538  
      4407       4408       4419       4418       4528       4529       4540       4539  
      4408       4409       4420       4419       4529       4530       4541       4540  
      4409       4410       4421       4420       4530       4531       4542       4541  
      4410       4411       4422       4421       4531       4532       4543       4542  
      4412       4413       4424       4423       4533       4534       4545       4544  
      4413       4414       4425       4424       4534       4535       4546       4545  
      4414       4415       4426       4425       4535       4536       4547       4546  
      4415       4416       4427       4426       4536       4537       4548       4547  
      4416       4417       4428       4427       4537       4538       4549       4548  
      4417       4418       4429       4428       4538       4539       4550       4549  
      4418       4419       4430       4429       4539       4540       4551       4550  
      4419       4420       4431       4430       4540       4541       4552       4551  
      4420       4421       4432       4431       4541       4542       4553       4552  
      4421       4422       4433       4432       4542       4543       4554       4553  
      4423       4424       4435       4434       4544       4545       4556       4555  
      4424       4425       4436       4435       4545       4546       4557       4556  
      4425       4426       4437       4436       4546       4547       4558       4557  
      4426       4427       4438       4437       4547       4548       4559       4558  
      4427       4428       4439       4438       4548       4549       4560       4559  
      4428       4429       4440       4439       4549       4550       4561       4560  
      4429       4430       4441       4440       4550       4551       4562       4561  
      4430       4431       4442       4441       4551       4552       4563       4562  
      4431       4432       4443       4442       4552       4553       4564       4563  
      4432       4433       4444       4443       4553       4554       4565       4564  
      4434       4435       4446       4445       4555       4556       4567       4566  
      4435       4436       4447       4446       4556       4557       4568       4567  
      4436       4437       4448       4447       4557       4558       4569       4568  
      4437       4438       4449       4448       4558       4559       4570       4569  
      4438       4439       4450       4449       4559       4560       4571       4570  
      4439       4440       4451       4450       4560       4561       4572       4571  
      4440       4441       4452       4451       4561       4562       4573       4572  
      4441       4442       4453       4452       4562       4563       4574       4573  
      4442       4443       4454       4453       4563       4564       4575       4574  
      4443       4444       4455       4454       4564       4565       4576       4575  
      4445       4446       4457       4456       4566       4567       4578       4577  
      4446       4447       4458       4457       4567       4568       4579       4578  
      4447       4448       4459       4458       4568       4569       4580       4579  
      4448       4449       4460       4459       4569       4570       4581       4580  
      4449       4450       4461       4460       4570       4571       4582       4581  
      4450       4451       4462       4461       4571       4572       4583       4582  
      4451       4452       4463       4462       4572       4573       4584       4583  
      4452       4453       4464       4463       4573       4574       4585       4584  
      4453       4454       4465       4464       4574       4575       4586       4585  
      4454       4455       4466       4465       4575       4576       4587       4586  
      4456       4457       4468       4467       4577       4578       4589       4588  
      4457       4458       4469       4468       4578       4579       4590       4589  
      4458       4459       4470       4469       4579       4580       4591       4590  
      4459       4460       4471       4470       4580       4581       4592       4591  
      4460       4461       4472       4471       4581       4582       4593       4592  
      4461       4462       4473       4472       4582       4583       4594       4593  
      4462       4463       4474       4473       4583       4584       4595       4594  
      4463       4464       4475       4474       4584       4585       4596       4595  
      4464       4465       4476       4475       4585       4586       4597       4596  
      4465       4466       4477       4476       4586       4587       4598       4597  
      4478       4479       4490       4489       4599       4600       4611       4610  
      4479       4480       4491       4490       4600       4601       4612       4611  
      4480       4481       4492       4491       4601       4602       4613       4612  
      4481       4482       4493       4492       4602       4603       4614       4613  
      4482       4483       4494       4493       4603       4604       4615       4614  
      4483       4484       4495       4494       4604       4605       4616       4615  
      4484       4485       4496       4495       4605       4606       4617       4616  
      4485       4486       4497       4496       4606       4607       4618       4617  
      4486       4487       4498       4497       4607       4608       4619       4618  
      4487       4488       4499       4498       4608       4609       4620       4619  
      4489       4490       4501       4500       4610       4611       4622       4621  
      4490       4491       4502       4501       4611       4612       4623       4622  
      4491       4492       4503       4502       4612       4613       4624       4623  
      4492       4493       4504       4503       4613       4614       4625       4624  
      4493       4494       4505       4504       4614       4615       4626       4625  
      4494       4495       4506       4505       4615       4616       4627       4626  
      4495       4496       4507       4506       4616       4617       4628       4627  
      4496       4497       4508       4507       4617       4618       4629       4628  
      4497       4498       4509       4508       4618       4619       4630       4629  
      4498       4499       4510       4509       4619       4620       4631       4630  
      4500       4501       4512       4511       4621       4622       4633       4632  
      4501       4502       4513       4512       4622       4623       4634       4633  
      4502       4503       4514       4513       4623       4624       4635       4634  
      4503       4504       4515       4514       4624       4625       4636       4635  
      4504       4505       4516       4515       4625       4626       4637       4636  
      4505       4506       4517       4516       4626       4627       4638       4637  
      4506       4507       4518       4517       4627       4628       4639       4638  
      4507       4508       4519       4518       4628       4629       4640       4639  
      4508       4509       4520       4519       4629       4630       4641       4640  
      4509       4510       4521       4520       4630       4631       4642       4641  
      4511       4512       4523       4522       4632       4633       4644       4643  
      4512       4513       4524       4523       4633       4634       4645       4644  
      4513       4514       4525       4524       4634       4635       4646       4645  
      4514       4515       4526       4525       4635       4636       4647       4646  
      4515       4516       4527       4526       4636       4637       4648       4647  
      4516       4517       4528       4527       4637       4638       4649       4648  
      4517       4518       4529       4528       4638       4639       4650       4649  
      4518       4519       4530       4529       4639       4640       4651       4650  
      4519       4520       4531       4530       4640       4641       4652       4651  
      4520       4521       4532       4531       4641       4642       4653       4652  
      4522       4523       4534       4533       4643       4644       4655       4654  
      4523       4524       4535       4534       4644       4645       4656       4655  
      4524       4525       4536       4535       4645       4646       4657       4656  
      4525       4526       4537       4536       4646       4647       4658       4657  
      4526       4527       4538       4537       4647       4648       4659       4658  
      4527       4528       4539       4538       4648       4649       4660       4659  
      4528       4529       4540       4539       4649       4650       4661       4660  
      4529       4530       4541       4540       4650       4651       4662       4661  
      4530       4531       4542       4541       4651       4652       4663       4662  
      4531       4532       4543       4542       4652       4653       4664       4663  
      4533       4534       4545       4544       4654       4655       4666       4665  
      4534       4535       4546       4545       4655       4656       4667       4666  
      4535       4536       4547       4546       4656       4657       4668       4667  
      4536       4537       4548       4547       4657       4658       4669       4668  
      4537       4538       4549       4548       4658       4659       4670       4669  
      4538       4539       4550       4549       4659       4660       4671       4670  
      4539       4540       4551       4550       4660       4661       4672       4671  
      4540       4541       4552       4551       4661       4662       4673       4672  
      4541       4542       4553       4552       4662       4663       4674       4673  
      4542       4543       4554       4553       4663       4664       4675       4674  
      4544       4545       4556       4555       4665       4666       4677       4676  
      4545       4546       4557       4556       4666       4667       4678       4677  
      4546       4547       4558       4557       4667       4668       4679       4678  
      4547       4548       4559       4558       4668       4669       4680       4679  
      4548       4549       4560       4559       4669       4670       4681       4680  
      4549       4550       4561       4560       4670       4671       4682       4681  
      4550       4551       4562       4561       4671       4672       4683       4682  
      4551       4552       4563       4562       4672       4673       4684       4683  
      4552       4553       4564       4563       4673       4674       4685       4684  
      4553       4554       4565       4564       4674       4675       4686       4685  
      4555       4556       4567       4566       4676       4677       4688       4687  
      4556       4557       4568       4567       4677       4678       4689       4688  
      4557       4558       4569       4568       4678       4679       4690       4689  
      4558       4559       4570       4569       4679       4680       4691       4690  
      4559       4560       4571       4570       4680       4681       4692       4691  
      4560       4561       4572       4571       4681       4682       4693       4692  
      4561       4562       4573       4572       4682       4683       4694       4693  
      4562       4563       4574       4573       4683       4684       4695       4694  
      4563       4564       4575       4574       4684       4685       4696       4695  
      4564       4565       4576       4575       4685       4686       4697       4696  
      4566       4567       4578       4577       4687       4688       4699       4698  
      4567       4568       4579       4578       4688       4689       4700       4699  
      4568       4569       4580       4579       4689       4690       4701       4700  
      4569       4570       4581       4580       4690       4691       4702       4701  
      4570       4571       4582       4581       4691       4692       4703       4702  
      4571       4572       4583       4582       4692       4693       4704       4703  
      4572       4573       4584       4583       4693       4694       4705       4704  
      4573       4574       4585       4584       4694       4695       4706       4705  
      4574       4575       4586       4585       4695       4696       4707       4706  
      4575       4576       4587       4586       4696       4697       4708       4707  
      4577       4578       4589       4588       4698       4699       4710       4709  
      4578       4579       4590       4589       4699       4700       4711       4710  
      4579       4580       4591       4590       4700       4701       4712       4711  
      4580       4581       4592       4591       4701       4702       4713       4712  
      4581       4582       4593       4592       4702       4703       4714       4713  
      4582       4583       4594       4593       4703       4704       4715       4714  
      4583       4584       4595       4594       4704       4705       4716       4715  
      4584       4585       4596       4595       4705       4706       4717       4716  
      4585       4586       4597       4596       4706       4707       4718       4717  
      4586       4587       4598       4597       4707       4708       4719       4718  
      4599       4600       4611       4610       4720       4721       4732       4731  
      4600       4601       4612       4611       4721       4722       4733       4732  
      4601       4602       4613       4612       4722       4723       4734       4733  
      4602       4603       4614       4613       4723       4724       4735       4734  
      4603       4604       4615       4614       4724       4725       4736       4735  
      4604       4605       4616       4615       4725       4726       4737       4736  
      4605       4606       4617       4616       4726       4727       4738       4737  
      4606       4607       4618       4617       4727       4728       4739       4738  
      4607       4608       4619       4618       4728       4729       4740       4739  
      4608       4609       4620       4619       4729       4730       4741       4740  
      4610       4611       4622       4621       4731       4732       4743       4742  
      4611       4612       4623       4622       4732       4733       4744       4743  
      4612       4613       4624       4623       4733       4734       4745       4744  
      4613       4614       4625       4624       4734       4735       4746       4745  
      4614       4615       4626       4625       4735       4736       4747       4746  
      4615       4616       4627       4626       4736       4737       4748       4747  
      4616       4617       4628       4627       4737       4738       4749       4748  
      4617       4618       4629       4628       4738       4739       4750       4749  
      4618       4619       4630       4629       4739       4740       4751       4750  
      4619       4620       4631       4630       4740       4741       4752       4751  
      4621       4622       4633       4632       4742       4743       4754       4753  
      4622       4623       4634       4633       4743       4744       4755       4754  
      4623       4624       4635       4634       4744       4745       4756       4755  
      4624       4625       4636       4635       4745       4746       4757       4756  
      4625       4626       4637       4636       4746       4747       4758       4757  
      4626       4627       4638       4637       4747       4748       4759       4758  
      4627       4628       4639       4638       4748       4749       4760       4759  
      4628       4629       4640       4639       4749       4750       4761       4760  
      4629       4630       4641       4640       4750       4751       4762       4761  
      4630       4631       4642       4641       4751       4752       4763       4762  
      4632       4633       4644       4643       4753       4754       4765       4764  
      4633       4634       4645       4644       4754       4755       4766       4765  
      4634       4635       4646       4645       4755       4756       4767       4766  
      4635       4636       4647       4646       4756       4757       4768       4767  
      4636       4637       4648       4647       4757       4758       4769       4768  
      4637       4638       4649       4648       4758       4759       4770       4769  
      4638       4639       4650       4649       4759       4760       4771       4770  
      4639       4640       4651       4650       4760       4761       4772       4771  
      4640       4641       4652       4651       4761       4762       4773       4772  
      4641       4642       4653       4652       4762       4763       4774       4773  
      4643       4644       4655       4654       4764       4765       4776       4775  
      4644       4645       4656       4655       4765       4766       4777       4776  
      4645       4646       4657       4656       4766       4767       4778       4777  
      4646       4647       4658       4657       4767       4768       4779       4778  
      4647       4648       4659       4658       4768       4769       4780       4779  
      4648       4649       4660       4659       4769       4770       4781       4780  
      4649       4650       4661       4660       4770       4771       4782       4781  
      4650       4651       4662       4661       4771       4772       4783       4782  
      4651       4652       4663       4662       4772       4773       4784       4783  
      4652       4653       4664       4663       4773       4774       4785       4784  
      4654       4655       4666       4665       4775       4776       4787       4786  
      4655       4656       4667       4666       4776       4777       4788       4787  
      4656       4657       4668       4667       4777       4778       4789       4788  
      4657       4658       4669       4668       4778       4779       4790       4789  
      4658       4659       4670       4669       4779       4780       4791       4790  
      4659       4660       4671       4670       4780       4781       4792       4791  
      4660       4661       4672       4671       4781       4782       4793       4792  
      4661       4662       4673       4672       4782       4783       4794       4793  
      4662       4663       4674       4673       4783       4784       4795       4794  
      4663       4664       4675       4674       4784       4785       4796       4795  
      4665       4666       4677       4676       4786       4787       4798       4797  
      4666       4667       4678       4677       4787       4788       4799       4798  
      4667       4668       4679       4678       4788       4789       4800       4799  
      4668       4669       4680       4679       4789       4790       4801       4800  
      4669       4670       4681       4680       4790       4791       4802       4801  
      4670       4671       4682       4681       4791       4792       4803       4802  
      4671       4672       4683       4682       4792       4793       4804       4803  
      4672       4673       4684       4683       4793       4794       4805       4804  
      4673       4674       4685       4684       4794       4795       4806       4805  
      4674       4675       4686       4685       4795       4796       4807       4806  
      4676       4677       4688       4687       4797       4798       4809       4808  
      4677       4678       4689       4688       4798       4799       4810       4809  
      4678       4679       4690       4689       4799       4800       4811       4810  
      4679       4680       4691       4690       4800       4801       4812       4811  
      4680       4681       4692       4691       4801       4802       4813       4812  
      4681       4682       4693       4692       4802       4803       4814       4813  
      4682       4683       4694       4693       4803       4804       4815       4814  
      4683       4684       4695       4694       4804       4805       4816       4815  
      4684       4685       4696       4695       4805       4806       4817       4816  
      4685       4686       4697       4696       4806       4807       4818       4817  
      4687       4688       4699       4698       4808       4809       4820       4819  
      4688       4689       4700       4699       4809       4810       4821       4820  
      4689       4690       4701       4700       4810       4811       4822       4821  
      4690       4691       4702       4701       4811       4812       4823       4822  
      4691       4692       4703       4702       4812       4813       4824       4823  
      4692       4693       4704       4703       4813       4814       4825       4824  
      4693       4694       4705       4704       4814       4815       4826       4825  
      4694       4695       4706       4705       4815       4816       4827       4826  
      4695       4696       4707       4706       4816       4817       4828       4827  
      4696       4697       4708       4707       4817       4818       4829       4828  
      4698       4699       4710       4709       4819       4820       4831       4830  
      4699       4700       4711       4710       4820       4821       4832       4831  
      4700       4701       4712       4711       4821       4822       4833       4832  
      4701       4702       4713       4712       4822       4823       4834       4833  
      4702       4703       4714       4713       4823       4824       4835       4834  
      4703       4704       4715       4714       4824       4825       4836       4835  
      4704       4705       4716       4715       4825       4826       4837       4836  
      4705       4706       4717       4716       4826       4827       4838       4837  
      4706       4707       4718       4717       4827       4828       4839       4838  
      4707       4708       4719       4718       4828       4829       4840       4839  
      4720       4721       4732       4731       4841       4842       4853       4852  
      4721       4722       4733       4732       4842       4843       4854       4853  
      4722       4723       4734       4733       4843       4844       4855       4854  
      4723       4724       4735       4734       4844       4845       4856       4855  
      4724       4725       4736       4735       4845       4846       4857       4856  
      4725       4726       4737       4736       4846       4847       4858       4857  
      4726       4727       4738       4737       4847       4848       4859       4858  
      4727       4728       4739       4738       4848       4849       4860       4859  
      4728       4729       4740       4739       4849       4850       4861       4860  
      4729       4730       4741       4740       4850       4851       4862       4861  
      4731       4732       4743       4742       4852       4853       4864       4863  
      4732       4733       4744       4743       4853       4854       4865       4864  
      4733       4734       4745       4744       4854       4855       4866       4865  
      4734       4735       4746       4745       4855       4856       4867       4866  
      4735       4736       4747       4746       4856       4857       4868       4867  
      4736       4737       4748       4747       4857       4858       4869       4868  
      4737       4738       4749       4748       4858       4859       4870       4869  
      4738       4739       4750       4749       4859       4860       4871       4870  
      4739       4740       4751       4750       4860       4861       4872       4871  
      4740       4741       4752       4751       4861       4862       4873       4872  
      4742       4743       4754       4753       4863       4864       4875       4874  
      4743       4744       4755       4754       4864       4865       4876       4875  
      4744       4745       4756       4755       4865       4866       4877       4876  
      4745       4746       4757       4756       4866       4867       4878       4877  
      4746       4747       4758       4757       4867       4868       4879       4878  
      4747       4748       4759       4758       4868       4869       4880       4879  
      4748       4749       4760       4759       4869       4870       4881       4880  
      4749       4750       4761       4760       4870       4871       4882       4881  
      4750       4751       4762       4761       4871       4872       4883       4882  
      4751       4752       4763       4762       4872       4873       4884       4883  
      4753       4754       4765       4764       4874       4875       4886       4885  
      4754       4755       4766       4765       4875       4876       4887       4886  
      4755       4756       4767       4766       4876       4877       4888       4887  
      4756       4757       4768       4767       4877       4878       4889       4888  
      4757       4758       4769       4768       4878       4879       4890       4889  
      4758       4759       4770       4769       4879       4880       4891       4890  
      4759       4760       4771       4770       4880       4881       4892       4891  
      4760       4761       4772       4771       4881       4882       4893       4892  
      4761       4762       4773       4772       4882       4883       4894       4893  
      4762       4763       4774       4773       4883       4884       4895       4894  
      4764       4765       4776       4775       4885       4886       4897       4896  
      4765       4766       4777       4776       4886       4887       4898       4897  
      4766       4767       4778       4777       4887       4888       4899       4898  
      4767       4768       4779       4778       4888       4889       4900       4899  
      4768       4769       4780       4779       4889       4890       4901       4900  
      4769       4770       4781       4780       4890       4891       4902       4901  
      4770       4771       4782       4781       4891       4892       4903       4902  
      4771       4772       4783       4782       4892       4893       4904       4903  
      4772       4773       4784       4783       4893       4894       4905       4904  
      4773       4774       4785       4784       4894       4895       4906       4905  
      4775       4776       4787       4786       4896       4897       4908       4907  
      4776       4777       4788       4787       4897       4898       4909       4908  
      4777       4778       4789       4788       4898       4899       4910       4909  
      4778       4779       4790       4789       4899       4900       4911       4910  
      4779       4780       4791       4790       4900       4901       4912       4911  
      4780       4781       4792       4791       4901       4902       4913       4912  
      4781       4782       4793       4792       4902       4903       4914       4913  
      4782       4783       4794       4793       4903       4904       4915       4914  
      4783       4784       4795       4794       4904       4905       4916       4915  
      4784       4785       4796       4795       4905       4906       4917       4916  
      4786       4787       4798       4797       4907       4908       4919       4918  
      4787       4788       4799       4798       4908       4909       4920       4919  
      4788       4789       4800       4799       4909       4910       4921       4920  
      4789       4790       4801       4800       4910       4911       4922       4921  
      4790       4791       4802       4801       4911       4912       4923       4922  
      4791       4792       4803       4802       4912       4913       4924       4923  
      4792       4793       4804       4803       4913       4914       4925       4924  
      4793       4794       4805       4804       4914       4915       4926       4925  
      4794       4795       4806       4805       4915       4916       4927       4926  
      4795       4796       4807       4806       4916       4917       4928       4927  
      4797       4798       4809       4808       4918       4919       4930       4929  
      4798       4799       4810       4809       4919       4920       4931       4930  
      4799       4800       4811       4810       4920       4921       4932       4931  
      4800       4801       4812       4811       4921       4922       4933       4932  
      4801       4802       4813       4812       4922       4923       4934       4933  
      4802       4803       4814       4813       4923       4924       4935       4934  
      4803       4804       4815       4814       4924       4925       4936       4935  
      4804       4805       4816       4815       4925       4926       4937       4936  
      4805       4806       4817       4816       4926       4927       4938       4937  
      4806       4807       4818       4817       4927       4928       4939       4938  
      4808       4809       4820       4819       4929       4930       4941       4940  
      4809       4810       4821       4820       4930       4931       4942       4941  
      4810       4811       4822       4821       4931       4932       4943       4942  
      4811       4812       4823       4822       4932       4933       4944       4943  
      4812       4813       4824       4823       4933       4934       4945       4944  
      4813       4814       4825       4824       4934       4935       4946       4945  
      4814       4815       4826       4825       4935       4936       4947       4946  
      4815       4816       4827       4826       4936       4937       4948       4947  
      4816       4817       4828       4827       4937       4938       4949       4948  
      4817       4818       4829       4828       4938       4939       4950       4949  
      4819       4820       4831       4830       4940       4941       4952       4951  
      4820       4821       4832       4831       4941       4942       4953       4952  
      4821       4822       4833       4832       4942       4943       4954       4953  
      4822       4823       4834       4833       4943       4944       4955       4954  
      4823       4824       4835       4834       4944       4945       4956       4955  
      4824       4825       4836       4835       4945       4946       4957       4956  
      4825       4826       4837       4836       4946       4947       4958       4957  
      4826       4827       4838       4837       4947       4948       4959       4958  
      4827       4828       4839       4838       4948       4949       4960       4959  
      4828       4829       4840       4839       4949       4950       4961       4960  
      4841       4842       4853       4852       4962       4963       4974       4973  
      4842       4843       4854       4853       4963       4964       4975       4974  
      4843       4844       4855       4854       4964       4965       4976       4975  
      4844       4845       4856       4855       4965       4966       4977       4976  
      4845       4846       4857       4856       4966       4967       4978       4977  
      4846       4847       4858       4857       4967       4968       4979       4978  
      4847       4848       4859       4858       4968       4969       4980       4979  
      4848       4849       4860       4859       4969       4970       4981       4980  
      4849       4850       4861       4860       4970       4971       4982       4981  
      4850       4851       4862       4861       4971       4972       4983       4982  
      4852       4853       4864       4863       4973       4974       4985       4984  
      4853       4854       4865       4864       4974       4975       4986       4985  
      4854       4855       4866       4865       4975       4976       4987       4986  
      4855       4856       4867       4866       4976       4977       4988       4987  
      4856       4857       4868       4867       4977       4978       4989       4988  
      4857       4858       4869       4868       4978       4979       4990       4989  
      4858       4859       4870       4869       4979       4980       4991       4990  
      4859       4860       4871       4870       4980       4981       4992       4991  
      4860       4861       4872       4871       4981       4982       4993       4992  
      4861       4862       4873       4872       4982       4983       4994       4993  
      4863       4864       4875       4874       4984       4985       4996       4995  
      4864       4865       4876       4875       4985       4986       4997       4996  
      4865       4866       4877       4876       4986       4987       4998       4997  
      4866       4867       4878       4877       4987       4988       4999       4998  
      4867       4868       4879       4878       4988       4989       5000       4999  
      4868       4869       4880       4879       4989       4990       5001       5000  
      4869       4870       4881       4880       4990       4991       5002       5001  
      4870       4871       4882       4881       4991       4992       5003       5002  
      4871       4872       4883       4882       4992       4993       5004       5003  
      4872       4873       4884       4883       4993       4994       5005       5004  
      4874       4875       4886       4885       4995       4996       5007       5006  
      4875       4876       4887       4886       4996       4997       5008       5007  
      4876       4877       4888       4887       4997       4998       5009       5008  
      4877       4878       4889       4888       4998       4999       5010       5009  
      4878       4879       4890       4889       4999       5000       5011       5010  
      4879       4880       4891       4890       5000       5001       5012       5011  
      4880       4881       4892       4891       5001       5002       5013       5012  
      4881       4882       4893       4892       5002       5003       5014       5013  
      4882       4883       4894       4893       5003       5004       5015       5014  
      4883       4884       4895       4894       5004       5005       5016       5015  
      4885       4886       4897       4896       5006       5007       5018       5017  
      4886       4887       4898       4897       5007       5008       5019       5018  
      4887       4888       4899       4898       5008       5009       5020       5019  
      4888       4889       4900       4899       5009       5010       5021       5020  
      4889       4890       4901       4900       5010       5011       5022       5021  
      4890       4891       4902       4901       5011       5012       5023       5022  
      4891       4892       4903       4902       5012       5013       5024       5023  
      4892       4893       4904       4903       5013       5014       5025       5024  
      4893       4894       4905       4904       5014       5015       5026       5025  
      4894       4895       4906       4905       5015       5016       5027       5026  
      4896       4897       4908       4907       5017       5018       5029       5028  
      4897       4898       4909       4908       5018       5019       5030       5029  
      4898       4899       4910       4909       5019       5020       5031       5030  
      4899       4900       4911       4910       5020       5021       5032       5031  
      4900       4901       4912       4911       5021       5022       5033       5032  
      4901       4902       4913       4912       5022       5023       5034       5033  
      4902       4903       4914       4913       5023       5024       5035       5034  
      4903       4904       4915       4914       5024       5025       5036       5035  
      4904       4905       4916       4915       5025       5026       5037       5036  
      4905       4906       4917       4916       5026       5027       5038       5037  
      4907       4908       4919       4918       5028       5029       5040       5039  
      4908       4909       4920       4919       5029       5030       5041       5040  
      4909       4910       4921       4920       5030       5031       5042       5041  
      4910       4911       4922       4921       5031       5032       5043       5042  
      4911       4912       4923       4922       5032       5033       5044       5043  
      4912       4913       4924       4923       5033       5034       5045       5044  
      4913       4914       4925       4924       5034       5035       5046       5045  
      4914       4915       4926       4925       5035       5036       5047       5046  
      4915       4916       4927       4926       5036       5037       5048       5047  
      4916       4917       4928       4927       5037       5038       5049       5048  
      4918       4919       4930       4929       5039       5040       5051       5050  
      4919       4920       4931       4930       5040       5041       5052       5051  
      4920       4921       4932       4931       5041       5042       5053       5052  
      4921       4922       4933       4932       5042       5043       5054       5053  
      4922       4923       4934       4933       5043       5044       5055       5054  
      4923       4924       4935       4934       5044       5045       5056       5055  
      4924       4925       4936       4935       5045       5046       5057       5056  
      4925       4926       4937       4936       5046       5047       5058       5057  
      4926       4927       4938       4937       5047       5048       5059       5058  
      4927       4928       4939       4938       5048       5049       5060       5059  
      4929       4930       4941       4940       5050       5051       5062       5061  
      4930       4931       4942       4941       5051       5052       5063       5062  
      4931       4932       4943       4942       5052       5053       5064       5063  
      4932       4933       4944       4943       5053       5054       5065       5064  
      4933       4934       4945       4944       5054       5055       5066       5065  
      4934       4935       4946       4945       5055       5056       5067       5066  
      4935       4936       4947       4946       5056       5057       5068       5067  
      4936       4937       4948       4947       5057       5058       5069       5068  
      4937       4938       4949       4948       5058       5059       5070       5069  
      4938       4939       4950       4949       5059       5060       5071       5070  
      4940       4941       4952       4951       5061       5062       5073       5072  
      4941       4942       4953       4952       5062       5063       5074       5073  
      4942       4943       4954       4953       5063       5064       5075       5074  
      4943       4944       4955       4954       5064       5065       5076       5075  
      4944       4945       4956       4955       5065       5066       5077       5076  
      4945       4946       4957       4956       5066       5067       5078       5077  
      4946       4947       4958       4957       5067       5068       5079       5078  
      4947       4948       4959       4958       5068       5069       5080       5079  
      4948       4949       4960       4959       5069       5070       5081       5080  
      4949       4950       4961       4960       5070       5071       5082       5081  
      4962       4963       4974       4973       5083       5084       5095       5094  
      4963       4964       4975       4974       5084       5085       5096       5095  
      4964       4965       4976       4975       5085       5086       5097       5096  
      4965       4966       4977       4976       5086       5087       5098       5097  
      4966       4967       4978       4977       5087       5088       5099       5098  
      4967       4968       4979       4978       5088       5089       5100       5099  
      4968       4969       4980       4979       5089       5090       5101       5100  
      4969       4970       4981       4980       5090       5091       5102       5101  
      4970       4971       4982       4981       5091       5092       5103       5102  
      4971       4972       4983       4982       5092       5093       5104       5103  
      4973       4974       4985       4984       5094       5095       5106       5105  
      4974       4975       4986       4985       5095       5096       5107       5106  
      4975       4976       4987       4986       5096       5097       5108       5107  
      4976       4977       4988       4987       5097       5098       5109       5108  
      4977       4978       4989       4988       5098       5099       5110       5109  
      4978       4979       4990       4989       5099       5100       5111       5110  
      4979       4980       4991       4990       5100       5101       5112       5111  
      4980       4981       4992       4991       5101       5102       5113       5112  
      4981       4982       4993       4992       5102       5103       5114       5113  
      4982       4983       4994       4993       5103       5104       5115       5114  
      4984       4985       4996       4995       5105       5106       5117       5116  
      4985       4986       4997       4996       5106       5107       5118       5117  
      4986       4987       4998       4997       5107       5108       5119       5118  
      4987       4988       4999       4998       5108       5109       5120       5119  
      4988       4989       5000       4999       5109       5110       5121       5120  
      4989       4990       5001       5000       5110       5111       5122       5121  
      4990       4991       5002       5001       5111       5112       5123       5122  
      4991       4992       5003       5002       5112       5113       5124       5123  
      4992       4993       5004       5003       5113       5114       5125       5124  
      4993       4994       5005       5004       5114       5115       5126       5125  
      4995       4996       5007       5006       5116       5117       5128       5127  
      4996       4997       5008       5007       5117       5118       5129       5128  
      4997       4998       5009       5008       5118       5119       5130       5129  
      4998       4999       5010       5009       5119       5120       5131       5130  
      4999       5000       5011       5010       5120       5121       5132       5131  
      5000       5001       5012       5011       5121       5122       5133       5132  
      5001       5002       5013       5012       5122       5123       5134       5133  
      5002       5003       5014       5013       5123       5124       5135       5134  
      5003       5004       5015       5014       5124       5125       5136       5135  
      5004       5005       5016       5015       5125       5126       5137       5136  
      5006       5007       5018       5017       5127       5128       5139       5138  
      5007       5008       5019       5018       5128       5129       5140       5139  
      5008       5009       5020       5019       5129       5130       5141       5140  
      5009       5010       5021       5020       5130       5131       5142       5141  
      5010       5011       5022       5021       5131       5132       5143       5142  
      5011       5012       5023       5022       5132       5133       5144       5143  
      5012       5013       5024       5023       5133       5134       5145       5144  
      5013       5014       5025       5024       5134       5135       5146       5145  
      5014       5015       5026       5025       5135       5136       5147       5146  
      5015       5016       5027       5026       5136       5137       5148       5147  
      5017       5018       5029       5028       5138       5139       5150       5149  
      5018       5019       5030       5029       5139       5140       5151       5150  
      5019       5020       5031       5030       5140       5141       5152       5151  
      5020       5021       5032       5031       5141       5142       5153       5152  
      5021       5022       5033       5032       5142       5143       5154       5153  
      5022       5023       5034       5033       5143       5144       5155       5154  
      5023       5024       5035       5034       5144       5145       5156       5155  
      5024       5025       5036       5035       5145       5146       5157       5156  
      5025       5026       5037       5036       5146       5147       5158       5157  
      5026       5027       5038       5037       5147       5148       5159       5158  
      5028       5029       5040       5039       5149       5150       5161       5160  
      5029       5030       5041       5040       5150       5151       5162       5161  
      5030       5031       5042       5041       5151       5152       5163       5162  
      5031       5032       5043       5042       5152       5153       5164       5163  
      5032       5033       5044       5043       5153       5154       5165       5164  
      5033       5034       5045       5044       5154       5155       5166       5165  
      5034       5035       5046       5045       5155       5156       5167       5166  
      5035       5036       5047       5046       5156       5157       5168       5167  
      5036       5037       5048       5047       5157       5158       5169       5168  
      5037       5038       5049       5048       5158       5159       5170       5169  
      5039       5040       5051       5050       5160       5161       5172       5171  
      5040       5041       5052       5051       5161       5162       5173       5172  
      5041       5042       5053       5052       5162       5163       5174       5173  
      5042       5043       5054       5053       5163       5164       5175       5174  
      5043       5044       5055       5054       5164       5165       5176       5175  
      5044       5045       5056       5055       5165       5166       5177       5176  
      5045       5046       5057       5056       5166       5167       5178       5177  
      5046       5047       5058       5057       5167       5168       5179       5178  
      5047       5048       5059       5058       5168       5169       5180       5179  
      5048       5049       5060       5059       5169       5170       5181       5180  
      5050       5051       5062       5061       5171       5172       5183       5182  
      5051       5052       5063       5062       5172       5173       5184       5183  
      5052       5053       5064       5063       5173       5174       5185       5184  
      5053       5054       5065       5064       5174       5175       5186       5185  
      5054       5055       5066       5065       5175       5176       5187       5186  
      5055       5056       5067       5066       5176       5177       5188       5187  
      5056       5057       5068       5067       5177       5178       5189       5188  
      5057       5058       5069       5068       5178       5179       5190       5189  
      5058       5059       5070       5069       5179       5180       5191       5190  
      5059       5060       5071       5070       5180       5181       5192       5191  
      5061       5062       5073       5072       5182       5183       5194       5193  
      5062       5063       5074       5073       5183       5184       5195       5194  
      5063       5064       5075       5074       5184       5185       5196       5195  
      5064       5065       5076       5075       5185       5186       5197       5196  
      5065       5066       5077       5076       5186       5187       5198       5197  
      5066       5067       5078       5077       5187       5188       5199       5198  
      5067       5068       5079       5078       5188       5189       5200       5199  
      5068       5069       5080       5079       5189       5190       5201       5200  
      5069       5070       5081       5080       5190       5191       5202       5201  
      5070       5071       5082       5081       5191       5192       5203       5202  
      5083       5084       5095       5094       5204       5205       5216       5215  
      5084       5085       5096       5095       5205       5206       5217       5216  
      5085       5086       5097       5096       5206       5207       5218       5217  
      5086       5087       5098       5097       5207       5208       5219       5218  
      5087       5088       5099       5098       5208       5209       5220       5219  
      5088       5089       5100       5099       5209       5210       5221       5220  
      5089       5090       5101       5100       5210       5211       5222       5221  
      5090       5091       5102       5101       5211       5212       5223       5222  
      5091       5092       5103       5102       5212       5213       5224       5223  
      5092       5093       5104       5103       5213       5214       5225       5224  
      5094       5095       5106       5105       5215       5216       5227       5226  
      5095       5096       5107       5106       5216       5217       5228       5227  
      5096       5097       5108       5107       5217       5218       5229       5228  
      5097       5098       5109       5108       5218       5219       5230       5229  
      5098       5099       5110       5109       5219       5220       5231       5230  
      5099       5100       5111       5110       5220       5221       5232       5231  
      5100       5101       5112       5111       5221       5222       5233       5232  
      5101       5102       5113       5112       5222       5223       5234       5233  
      5102       5103       5114       5113       5223       5224       5235       5234  
      5103       5104       5115       5114       5224       5225       5236       5235  
      5105       5106       5117       5116       5226       5227       5238       5237  
      5106       5107       5118       5117       5227       5228       5239       5238  
      5107       5108       5119       5118       5228       5229       5240       5239  
      5108       5109       5120       5119       5229       5230       5241       5240  
      5109       5110       5121       5120       5230       5231       5242       5241  
      5110       5111       5122       5121       5231       5232       5243       5242  
      5111       5112       5123       5122       5232       5233       5244       5243  
      5112       5113       5124       5123       5233       5234       5245       5244  
      5113       5114       5125       5124       5234       5235       5246       5245  
      5114       5115       5126       5125       5235       5236       5247       5246  
      5116       5117       5128       5127       5237       5238       5249       5248  
      5117       5118       5129       5128       5238       5239       5250       5249  
      5118       5119       5130       5129       5239       5240       5251       5250  
      5119       5120       5131       5130       5240       5241       5252       5251  
      5120       5121       5132       5131       5241       5242       5253       5252  
      5121       5122       5133       5132       5242       5243       5254       5253  
      5122       5123       5134       5133       5243       5244       5255       5254  
      5123       5124       5135       5134       5244       5245       5256       5255  
      5124       5125       5136       5135       5245       5246       5257       5256  
      5125       5126       5137       5136       5246       5247       5258       5257  
      5127       5128       5139       5138       5248       5249       5260       5259  
      5128       5129       5140       5139       5249       5250       5261       5260  
      5129       5130       5141       5140       5250       5251       5262       5261  
      5130       5131       5142       5141       5251       5252       5263       5262  
      5131       5132       5143       5142       5252       5253       5264       5263  
      5132       5133       5144       5143       5253       5254       5265       5264  
      5133       5134       5145       5144       5254       5255       5266       5265  
      5134       5135       5146       5145       5255       5256       5267       5266  
      5135       5136       5147       5146       5256       5257       5268       5267  
      5136       5137       5148       5147       5257       5258       5269       5268  
      5138       5139       5150       5149       5259       5260       5271       5270  
      5139       5140       5151       5150       5260       5261       5272       5271  
      5140       5141       5152       5151       5261       5262       5273       5272  
      5141       5142       5153       5152       5262       5263       5274       5273  
      5142       5143       5154       5153       5263       5264       5275       5274  
      5143       5144       5155       5154       5264       5265       5276       5275  
      5144       5145       5156       5155       5265       5266       5277       5276  
      5145       5146       5157       5156       5266       5267       5278       5277  
      5146       5147       5158       5157       5267       5268       5279       5278  
      5147       5148       5159       5158       5268       5269       5280       5279  
      5149       5150       5161       5160       5270       5271       5282       5281  
      5150       5151       5162       5161       5271       5272       5283       5282  
      5151       5152       5163       5162       5272       5273       5284       5283  
      5152       5153       5164       5163       5273       5274       5285       5284  
      5153       5154       5165       5164       5274       5275       5286       5285  
      5154       5155       5166       5165       5275       5276       5287       5286  
      5155       5156       5167       5166       5276       5277       5288       5287  
      5156       5157       5168       5167       5277       5278       5289       5288  
      5157       5158       5169       5168       5278       5279       5290       5289  
      5158       5159       5170       5169       5279       5280       5291       5290  
      5160       5161       5172       5171       5281       5282       5293       5292  
      5161       5162       5173       5172       5282       5283       5294       5293  
      5162       5163       5174       5173       5283       5284       5295       5294  
      5163       5164       5175       5174       5284       5285       5296       5295  
      5164       5165       5176       5175       5285       5286       5297       5296  
      5165       5166       5177       5176       5286       5287       5298       5297  
      5166       5167       5178       5177       5287       5288       5299       5298  
      5167       5168       5179       5178       5288       5289       5300       5299  
      5168       5169       5180       5179       5289       5290       5301       5300  
      5169       5170       5181       5180       5290       5291       5302       5301  
      5171       5172       5183       5182       5292       5293       5304       5303  
      5172       5173       5184       5183       5293       5294       5305       5304  
      5173       5174       5185       5184       5294       5295       5306       5305  
      5174       5175       5186       5185       5295       5296       5307       5306  
      5175       5176       5187       5186       5296       5297       5308       5307  
      5176       5177       5188       5187       5297       5298       5309       5308  
      5177       5178       5189       5188       5298       5299       5310       5309  
      5178       5179       5190       5189       5299       5300       5311       5310  
      5179       5180       5191       5190       5300       5301       5312       5311  
      5180       5181       5192       5191       5301       5302       5313       5312  
      5182       5183       5194       5193       5303       5304       5315       5314  
      5183       5184       5195       5194       5304       5305       5316       5315  
      5184       5185       5196       5195       5305       5306       5317       5316  
      5185       5186       5197       5196       5306       5307       5318       5317  
      5186       5187       5198       5197       5307       5308       5319       5318  
      5187       5188       5199       5198       5308       5309       5320       5319  
      5188       5189       5200       5199       5309       5310       5321       5320  
      5189       5190       5201       5200       5310       5311       5322       5321  
      5190       5191       5202       5201       5311       5312       5323       5322  
      5191       5192       5203       5202       5312       5313       5324       5323  
      5204       5205       5216       5215       5325       5326       5337       5336  
      5205       5206       5217       5216       5326       5327       5338       5337  
      5206       5207       5218       5217       5327       5328       5339       5338  
      5207       5208       5219       5218       5328       5329       5340       5339  
      5208       5209       5220       5219       5329       5330       5341       5340  
      5209       5210       5221       5220       5330       5331       5342       5341  
      5210       5211       5222       5221       5331       5332       5343       5342  
      5211       5212       5223       5222       5332       5333       5344       5343  
      5212       5213       5224       5223       5333       5334       5345       5344  
      5213       5214       5225       5224       5334       5335       5346       5345  
      5215       5216       5227       5226       5336       5337       5348       5347  
      5216       5217       5228       5227       5337       5338       5349       5348  
      5217       5218       5229       5228       5338       5339       5350       5349  
      5218       5219       5230       5229       5339       5340       5351       5350  
      5219       5220       5231       5230       5340       5341       5352       5351  
      5220       5221       5232       5231       5341       5342       5353       5352  
      5221       5222       5233       5232       5342       5343       5354       5353  
      5222       5223       5234       5233       5343       5344       5355       5354  
      5223       5224       5235       5234       5344       5345       5356       5355  
      5224       5225       5236       5235       5345       5346       5357       5356  
      5226       5227       5238       5237       5347       5348       5359       5358  
      5227       5228       5239       5238       5348       5349       5360       5359  
      5228       5229       5240       5239       5349       5350       5361       5360  
      5229       5230       5241       5240       5350       5351       5362       5361  
      5230       5231       5242       5241       5351       5352       5363       5362  
      5231       5232       5243       5242       5352       5353       5364       5363  
      5232       5233       5244       5243       5353       5354       5365       5364  
      5233       5234       5245       5244       5354       5355       5366       5365  
      5234       5235       5246       5245       5355       5356       5367       5366  
      5235       5236       5247       5246       5356       5357       5368       5367  
      5237       5238       5249       5248       5358       5359       5370       5369  
      5238       5239       5250       5249       5359       5360       5371       5370  
      5239       5240       5251       5250       5360       5361       5372       5371  
      5240       5241       5252       5251       5361       5362       5373       5372  
      5241       5242       5253       5252       5362       5363       5374       5373  
      5242       5243       5254       5253       5363       5364       5375       5374  
      5243       5244       5255       5254       5364       5365       5376       5375  
      5244       5245       5256       5255       5365       5366       5377       5376  
      5245       5246       5257       5256       5366       5367       5378       5377  
      5246       5247       5258       5257       5367       5368       5379       5378  
      5248       5249       5260       5259       5369       5370       5381       5380  
      5249       5250       5261       5260       5370       5371       5382       5381  
      5250       5251       5262       5261       5371       5372       5383       5382  
      5251       5252       5263       5262       5372       5373       5384       5383  
      5252       5253       5264       5263       5373       5374       5385       5384  
      5253       5254       5265       5264       5374       5375       5386       5385  
      5254       5255       5266       5265       5375       5376       5387       5386  
      5255       5256       5267       5266       5376       5377       5388       5387  
      5256       5257       5268       5267       5377       5378       5389       5388  
      5257       5258       5269       5268       5378       5379       5390       5389  
      5259       5260       5271       5270       5380       5381       5392       5391  
      5260       5261       5272       5271       5381       5382       5393       5392  
      5261       5262       5273       5272       5382       5383       5394       5393  
      5262       5263       5274       5273       5383       5384       5395       5394  
      5263       5264       5275       5274       5384       5385       5396       5395  
      5264       5265       5276       5275       5385       5386       5397       5396  
      5265       5266       5277       5276       5386       5387       5398       5397  
      5266       5267       5278       5277       5387       5388       5399       5398  
      5267       5268       5279       5278       5388       5389       5400       5399  
      5268       5269       5280       5279       5389       5390       5401       5400  
      5270       5271       5282       5281       5391       5392       5403       5402  
      5271       5272       5283       5282       5392       5393       5404       5403  
      5272       5273       5284       5283       5393       5394       5405       5404  
      5273       5274       5285       5284       5394       5395       5406       5405  
      5274       5275       5286       5285       5395       5396       5407       5406  
      5275       5276       5287       5286       5396       5397       5408       5407  
      5276       5277       5288       5287       5397       5398       5409       5408  
      5277       5278       5289       5288       5398       5399       5410       5409  
      5278       5279       5290       5289       5399       5400       5411       5410  
      5279       5280       5291       5290       5400       5401       5412       5411  
      5281       5282       5293       5292       5402       5403       5414       5413  
      5282       5283       5294       5293       5403       5404       5415       5414  
      5283       5284       5295       5294       5404       5405       5416       5415  
      5284       5285       5296       5295       5405       5406       5417       5416  
      5285       5286       5297       5296       5406       5407       5418       5417  
      5286       5287       5298       5297       5407       5408       5419       5418  
      5287       5288       5299       5298       5408       5409       5420       5419  
      5288       5289       5300       5299       5409       5410       5421       5420  
      5289       5290       5301       5300       5410       5411       5422       5421  
      5290       5291       5302       5301       5411       5412       5423       5422  
      5292       5293       5304       5303       5413       5414       5425       5424  
      5293       5294       5305       5304       5414       5415       5426       5425  
      5294       5295       5306       5305       5415       5416       5427       5426  
      5295       5296       5307       5306       5416       5417       5428       5427  
      5296       5297       5308       5307       5417       5418       5429       5428  
      5297       5298       5309       5308       5418       5419       5430       5429  
      5298       5299       5310       5309       5419       5420       5431       5430  
      5299       5300       5311       5310       5420       5421       5432       5431  
      5300       5301       5312       5311       5421       5422       5433       5432  
      5301       5302       5313       5312       5422       5423       5434       5433  
      5303       5304       5315       5314       5424       5425       5436       5435  
      5304       5305       5316       5315       5425       5426       5437       5436  
      5305       5306       5317       5316       5426       5427       5438       5437  
      5306       5307       5318       5317       5427       5428       5439       5438  
      5307       5308       5319       5318       5428       5429       5440       5439  
      5308       5309       5320       5319       5429       5430       5441       5440  
      5309       5310       5321       5320       5430       5431       5442       5441  
      5310       5311       5322       5321       5431       5432       5443       5442  
      5311       5312       5323       5322       5432       5433       5444       5443  
      5312       5313       5324       5323       5433       5434       5445       5444  
      5325       5326       5337       5336       5446       5447       5458       5457  
      5326       5327       5338       5337       5447       5448       5459       5458  
      5327       5328       5339       5338       5448       5449       5460       5459  
      5328       5329       5340       5339       5449       5450       5461       5460  
      5329       5330       5341       5340       5450       5451       5462       5461  
      5330       5331       5342       5341       5451       5452       5463       5462  
      5331       5332       5343       5342       5452       5453       5464       5463  
      5332       5333       5344       5343       5453       5454       5465       5464  
      5333       5334       5345       5344       5454       5455       5466       5465  
      5334       5335       5346       5345       5455       5456       5467       5466  
      5336       5337       5348       5347       5457       5458       5469       5468  
      5337       5338       5349       5348       5458       5459       5470       5469  
      5338       5339       5350       5349       5459       5460       5471       5470  
      5339       5340       5351       5350       5460       5461       5472       5471  
      5340       5341       5352       5351       5461       5462       5473       5472  
      5341       5342       5353       5352       5462       5463       5474       5473  
      5342       5343       5354       5353       5463       5464       5475       5474  
      5343       5344       5355       5354       5464       5465       5476       5475  
      5344       5345       5356       5355       5465       5466       5477       5476  
      5345       5346       5357       5356       5466       5467       5478       5477  
      5347       5348       5359       5358       5468       5469       5480       5479  
      5348       5349       5360       5359       5469       5470       5481       5480  
      5349       5350       5361       5360       5470       5471       5482       5481  
      5350       5351       5362       5361       5471       5472       5483       5482  
      5351       5352       5363       5362       5472       5473       5484       5483  
      5352       5353       5364       5363       5473       5474       5485       5484  
      5353       5354       5365       5364       5474       5475       5486       5485  
      5354       5355       5366       5365       5475       5476       5487       5486  
      5355       5356       5367       5366       5476       5477       5488       5487  
      5356       5357       5368       5367       5477       5478       5489       5488  
      5358       5359       5370       5369       5479       5480       5491       5490  
      5359       5360       5371       5370       5480       5481       5492       5491  
      5360       5361       5372       5371       5481       5482       5493       5492  
      5361       5362       5373       5372       5482       5483       5494       5493  
      5362       5363       5374       5373       5483       5484       5495       5494  
      5363       5364       5375       5374       5484       5485       5496       5495  
      5364       5365       5376       5375       5485       5486       5497       5496  
      5365       5366       5377       5376       5486       5487       5498       5497  
      5366       5367       5378       5377       5487       5488       5499       5498  
      5367       5368       5379       5378       5488       5489       5500       5499  
      5369       5370       5381       5380       5490       5491       5502       5501  
      5370       5371       5382       5381       5491       5492       5503       5502  
      5371       5372       5383       5382       5492       5493       5504       5503  
      5372       5373       5384       5383       5493       5494       5505       5504  
      5373       5374       5385       5384       5494       5495       5506       5505  
      5374       5375       5386       5385       5495       5496       5507       5506  
      5375       5376       5387       5386       5496       5497       5508       5507  
      5376       5377       5388       5387       5497       5498       5509       5508  
      5377       5378       5389       5388       5498       5499       5510       5509  
      5378       5379       5390       5389       5499       5500       5511       5510  
      5380       5381       5392       5391       5501       5502       5513       5512  
      5381       5382       5393       5392       5502       5503       5514       5513  
      5382       5383       5394       5393       5503       5504       5515       5514  
      5383       5384       5395       5394       5504       5505       5516       5515  
      5384       5385       5396       5395       5505       5506       5517       5516  
      5385       5386       5397       5396       5506       5507       5518       5517  
      5386       5387       5398       5397       5507       5508       5519       5518  
      5387       5388       5399       5398       5508       5509       5520       5519  
      5388       5389       5400       5399       5509       5510       5521       5520  
      5389       5390       5401       5400       5510       5511       5522       5521  
      5391       5392       5403       5402       5512       5513       5524       5523  
      5392       5393       5404       5403       5513       5514       5525       5524  
      5393       5394       5405       5404       5514       5515       5526       5525  
      5394       5395       5406       5405       5515       5516       5527       5526  
      5395       5396       5407       5406       5516       5517       5528       5527  
      5396       5397       5408       5407       5517       5518       5529       5528  
      5397       5398       5409       5408       5518       5519       5530       5529  
      5398       5399       5410       5409       5519       5520       5531       5530  
      5399       5400       5411       5410       5520       5521       5532       5531  
      5400       5401       5412       5411       5521       5522       5533       5532  
      5402       5403       5414       5413       5523       5524       5535       5534  
      5403       5404       5415       5414       5524       5525       5536       5535  
      5404       5405       5416       5415       5525       5526       5537       5536  
      5405       5406       5417       5416       5526       5527       5538       5537  
      5406       5407       5418       5417       5527       5528       5539       5538  
      5407       5408       5419       5418       5528       5529       5540       5539  
      5408       5409       5420       5419       5529       5530       5541       5540  
      5409       5410       5421       5420       5530       5531       5542       5541  
      5410       5411       5422       5421       5531       5532       5543       5542  
      5411       5412       5423       5422       5532       5533       5544       5543  
      5413       5414       5425       5424       5534       5535       5546       5545  
      5414       5415       5426       5425       5535       5536       5547       5546  
      5415       5416       5427       5426       5536       5537       5548       5547  
      5416       5417       5428       5427       5537       5538       5549       5548  
      5417       5418       5429       5428       5538       5539       5550       5549  
      5418       5419       5430       5429       5539       5540       5551       5550  
      5419       5420       5431       5430       5540       5541       5552       5551  
      5420       5421       5432       5431       5541       5542       5553       5552  
      5421       5422       5433       5432       5542       5543       5554       5553  
      5422       5423       5434       5433       5543       5544       5555       5554  
      5424       5425       5436       5435       5545       5546       5557       5556  
      5425       5426       5437       5436       5546       5547       5558       5557  
      5426       5427       5438       5437       5547       5548       5559       5558  
      5427       5428       5439       5438       5548       5549       5560       5559  
      5428       5429       5440       5439       5549       5550       5561       5560  
      5429       5430       5441       5440       5550       5551       5562       5561  
      5430       5431       5442       5441       5551       5552       5563       5562  
      5431       5432       5443       5442       5552       5553       5564       5563  
      5432       5433       5444       5443       5553       5554       5565       5564  
      5433       5434       5445       5444       5554       5555       5566       5565  
      5446       5447       5458       5457       5567       5568       5579       5578  
      5447       5448       5459       5458       5568       5569       5580       5579  
      5448       5449       5460       5459       5569       5570       5581       5580  
      5449       5450       5461       5460       5570       5571       5582       5581  
      5450       5451       5462       5461       5571       5572       5583       5582  
      5451       5452       5463       5462       5572       5573       5584       5583  
      5452       5453       5464       5463       5573       5574       5585       5584  
      5453       5454       5465       5464       5574       5575       5586       5585  
      5454       5455       5466       5465       5575       5576       5587       5586  
      5455       5456       5467       5466       5576       5577       5588       5587  
      5457       5458       5469       5468       5578       5579       5590       5589  
      5458       5459       5470       5469       5579       5580       5591       5590  
      5459       5460       5471       5470       5580       5581       5592       5591  
      5460       5461       5472       5471       5581       5582       5593       5592  
      5461       5462       5473       5472       5582       5583       5594       5593  
      5462       5463       5474       5473       5583       5584       5595       5594  
      5463       5464       5475       5474       5584       5585       5596       5595  
      5464       5465       5476       5475       5585       5586       5597       5596  
      5465       5466       5477       5476       5586       5587       5598       5597  
      5466       5467       5478       5477       5587       5588       5599       5598  
      5468       5469       5480       5479       5589       5590       5601       5600  
      5469       5470       5481       5480       5590       5591       5602       5601  
      5470       5471       5482       5481       5591       5592       5603       5602  
      5471       5472       5483       5482       5592       5593       5604       5603  
      5472       5473       5484       5483       5593       5594       5605       5604  
      5473       5474       5485       5484       5594       5595       5606       5605  
      5474       5475       5486       5485       5595       5596       5607       5606  
      5475       5476       5487       5486       5596       5597       5608       5607  
      5476       5477       5488       5487       5597       5598       5609       5608  
      5477       5478       5489       5488       5598       5599       5610       5609  
      5479       5480       5491       5490       5600       5601       5612       5611  
      5480       5481       5492       5491       5601       5602       5613       5612  
      5481       5482       5493       5492       5602       5603       5614       5613  
      5482       5483       5494       5493       5603       5604       5615       5614  
      5483       5484       5495       5494       5604       5605       5616       5615  
      5484       5485       5496       5495       5605       5606       5617       5616  
      5485       5486       5497       5496       5606       5607       5618       5617  
      5486       5487       5498       5497       5607       5608       5619       5618  
      5487       5488       5499       5498       5608       5609       5620       5619  
      5488       5489       5500       5499       5609       5610       5621       5620  
      5490       5491       5502       5501       5611       5612       5623       5622  
      5491       5492       5503       5502       5612       5613       5624       5623  
      5492       5493       5504       5503       5613       5614       5625       5624  
      5493       5494       5505       5504       5614       5615       5626       5625  
      5494       5495       5506       5505       5615       5616       5627       5626  
      5495       5496       5507       5506       5616       5617       5628       5627  
      5496       5497       5508       5507       5617       5618       5629       5628  
      5497       5498       5509       5508       5618       5619       5630       5629  
      5498       5499       5510       5509       5619       5620       5631       5630  
      5499       5500       5511       5510       5620       5621       5632       5631  
      5501       5502       5513       5512       5622       5623       5634       5633  
      5502       5503       5514       5513       5623       5624       5635       5634  
      5503       5504       5515       5514       5624       5625       5636       5635  
      5504       5505       5516       5515       5625       5626       5637       5636  
      5505       5506       5517       5516       5626       5627       5638       5637  
      5506       5507       5518       5517       5627       5628       5639       5638  
      5507       5508       5519       5518       5628       5629       5640       5639  
      5508       5509       5520       5519       5629       5630       5641       5640  
      5509       5510       5521       5520       5630       5631       5642       5641  
      5510       5511       5522       5521       5631       5632       5643       5642  
      5512       5513       5524       5523       5633       5634       5645       5644  
      5513       5514       5525       5524       5634       5635       5646       5645  
      5514       5515       5526       5525       5635       5636       5647       5646  
      5515       5516       5527       5526       5636       5637       5648       5647  
      5516       5517       5528       5527       5637       5638       5649       5648  
      5517       5518       5529       5528       5638       5639       5650       5649  
      5518       5519       5530       5529       5639       5640       5651       5650  
      5519       5520       5531       5530       5640       5641       5652       5651  
      5520       5521       5532       5531       5641       5642       5653       5652  
      5521       5522       5533       5532       5642       5643       5654       5653  
      5523       5524       5535       5534       5644       5645       5656       5655  
      5524       5525       5536       5535       5645       5646       5657       5656  
      5525       5526       5537       5536       5646       5647       5658       5657  
      5526       5527       5538       5537       5647       5648       5659       5658  
      5527       5528       5539       5538       5648       5649       5660       5659  
      5528       5529       5540       5539       5649       5650       5661       5660  
      5529       5530       5541       5540       5650       5651       5662       5661  
      5530       5531       5542       5541       5651       5652       5663       5662  
      5531       5532       5543       5542       5652       5653       5664       5663  
      5532       5533       5544       5543       5653       5654       5665       5664  
      5534       5535       5546       5545       5655       5656       5667       5666  
      5535       5536       5547       5546       5656       5657       5668       5667  
      5536       5537       5548       5547       5657       5658       5669       5668  
      5537       5538       5549       5548       5658       5659       5670       5669  
      5538       5539       5550       5549       5659       5660       5671       5670  
      5539       5540       5551       5550       5660       5661       5672       5671  
      5540       5541       5552       5551       5661       5662       5673       5672  
      5541       5542       5553       5552       5662       5663       5674       5673  
      5542       5543       5554       5553       5663       5664       5675       5674  
      5543       5544       5555       5554       5664       5665       5676       5675  
      5545       5546       5557       5556       5666       5667       5678       5677  
      5546       5547       5558       5557       5667       5668       5679       5678  
      5547       5548       5559       5558       5668       5669       5680       5679  
      5548       5549       5560       5559       5669       5670       5681       5680  
      5549       5550       5561       5560       5670       5671       5682       5681  
      5550       5551       5562       5561       5671       5672       5683       5682  
      5551       5552       5563       5562       5672       5673       5684       5683  
      5552       5553       5564       5563       5673       5674       5685       5684  
      5553       5554       5565       5564       5674       5675       5686       5685  
      5554       5555       5566       5565       5675       5676       5687       5686  
      5567       5568       5579       5578       5688       5689       5700       5699  
      5568       5569       5580       5579       5689       5690       5701       5700  
      5569       5570       5581       5580       5690       5691       5702       5701  
      5570       5571       5582       5581       5691       5692       5703       5702  
      5571       5572       5583       5582       5692       5693       5704       5703  
      5572       5573       5584       5583       5693       5694       5705       5704  
      5573       5574       5585       5584       5694       5695       5706       5705  
      5574       5575       5586       5585       5695       5696       5707       5706  
      5575       5576       5587       5586       5696       5697       5708       5707  
      5576       5577       5588       5587       5697       5698       5709       5708  
      5578       5579       5590       5589       5699       5700       5711       5710  
      5579       5580       5591       5590       5700       5701       5712       5711  
      5580       5581       5592       5591       5701       5702       5713       5712  
      5581       5582       5593       5592       5702       5703       5714       5713  
      5582       5583       5594       5593       5703       5704       5715       5714  
      5583       5584       5595       5594       5704       5705       5716       5715  
      5584       5585       5596       5595       5705       5706       5717       5716  
      5585       5586       5597       5596       5706       5707       5718       5717  
      5586       5587       5598       5597       5707       5708       5719       5718  
      5587       5588       5599       5598       5708       5709       5720       5719  
      5589       5590       5601       5600       5710       5711       5722       5721  
      5590       5591       5602       5601       5711       5712       5723       5722  
      5591       5592       5603       5602       5712       5713       5724       5723  
      5592       5593       5604       5603       5713       5714       5725       5724  
      5593       5594       5605       5604       5714       5715       5726       5725  
      5594       5595       5606       5605       5715       5716       5727       5726  
      5595       5596       5607       5606       5716       5717       5728       5727  
      5596       5597       5608       5607       5717       5718       5729       5728  
      5597       5598       5609       5608       5718       5719       5730       5729  
      5598       5599       5610       5609       5719       5720       5731       5730  
      5600       5601       5612       5611       5721       5722       5733       5732  
      5601       5602       5613       5612       5722       5723       5734       5733  
      5602       5603       5614       5613       5723       5724       5735       5734  
      5603       5604       5615       5614       5724       5725       5736       5735  
      5604       5605       5616       5615       5725       5726       5737       5736  
      5605       5606       5617       5616       5726       5727       5738       5737  
      5606       5607       5618       5617       5727       5728       5739       5738  
      5607       5608       5619       5618       5728       5729       5740       5739  
      5608       5609       5620       5619       5729       5730       5741       5740  
      5609       5610       5621       5620       5730       5731       5742       5741  
      5611       5612       5623       5622       5732       5733       5744       5743  
      5612       5613       5624       5623       5733       5734       5745       5744  
      5613       5614       5625       5624       5734       5735       5746       5745  
      5614       5615       5626       5625       5735       5736       5747       5746  
      5615       5616       5627       5626       5736       5737       5748       5747  
      5616       5617       5628       5627       5737       5738       5749       5748  
      5617       5618       5629       5628       5738       5739       5750       5749  
      5618       5619       5630       5629       5739       5740       5751       5750  
      5619       5620       5631       5630       5740       5741       5752       5751  
      5620       5621       5632       5631       5741       5742       5753       5752  
      5622       5623       5634       5633       5743       5744       5755       5754  
      5623       5624       5635       5634       5744       5745       5756       5755  
      5624       5625       5636       5635       5745       5746       5757       5756  
      5625       5626       5637       5636       5746       5747       5758       5757  
      5626       5627       5638       5637       5747       5748       5759       5758  
      5627       5628       5639       5638       5748       5749       5760       5759  
      5628       5629       5640       5639       5749       5750       5761       5760  
      5629       5630       5641       5640       5750       5751       5762       5761  
      5630       5631       5642       5641       5751       5752       5763       5762  
      5631       5632       5643       5642       5752       5753       5764       5763  
      5633       5634       5645       5644       5754       5755       5766       5765  
      5634       5635       5646       5645       5755       5756       5767       5766  
      5635       5636       5647       5646       5756       5757       5768       5767  
      5636       5637       5648       5647       5757       5758       5769       5768  
      5637       5638       5649       5648       5758       5759       5770       5769  
      5638       5639       5650       5649       5759       5760       5771       5770  
      5639       5640       5651       5650       5760       5761       5772       5771  
      5640       5641       5652       5651       5761       5762       5773       5772  
      5641       5642       5653       5652       5762       5763       5774       5773  
      5642       5643       5654       5653       5763       5764       5775       5774  
      5644       5645       5656       5655       5765       5766       5777       5776  
      5645       5646       5657       5656       5766       5767       5778       5777  
      5646       5647       5658       5657       5767       5768       5779       5778  
      5647       5648       5659       5658       5768       5769       5780       5779  
      5648       5649       5660       5659       5769       5770       5781       5780  
      5649       5650       5661       5660       5770       5771       5782       5781  
      5650       5651       5662       5661       5771       5772       5783       5782  
      5651       5652       5663       5662       5772       5773       5784       5783  
      5652       5653       5664       5663       5773       5774       5785       5784  
      5653       5654       5665       5664       5774       5775       5786       5785  
      5655       5656       5667       5666       5776       5777       5788       5787  
      5656       5657       5668       5667       5777       5778       5789       5788  
      5657       5658       5669       5668       5778       5779       5790       5789  
      5658       5659       5670       5669       5779       5780       5791       5790  
      5659       5660       5671       5670       5780       5781       5792       5791  
      5660       5661       5672       5671       5781       5782       5793       5792  
      5661       5662       5673       5672       5782       5783       5794       5793  
      5662       5663       5674       5673       5783       5784       5795       5794  
      5663       5664       5675       5674       5784       5785       5796       5795  
      5664       5665       5676       5675       5785       5786       5797       5796  
      5666       5667       5678       5677       5787       5788       5799       5798  
      5667       5668       5679       5678       5788       5789       5800       5799  
      5668       5669       5680       5679       5789       5790       5801       5800  
      5669       5670       5681       5680       5790       5791       5802       5801  
      5670       5671       5682       5681       5791       5792       5803       5802  
      5671       5672       5683       5682       5792       5793       5804       5803  
      5672       5673       5684       5683       5793       5794       5805       5804  
      5673       5674       5685       5684       5794       5795       5806       5805  
      5674       5675       5686       5685       5795       5796       5807       5806  
      5675       5676       5687       5686       5796       5797       5808       5807  
      5688       5689       5700       5699       5809       5810       5821       5820  
      5689       5690       5701       5700       5810       5811       5822       5821  
      5690       5691       5702       5701       5811       5812       5823       5822  
      5691       5692       5703       5702       5812       5813       5824       5823  
      5692       5693       5704       5703       5813       5814       5825       5824  
      5693       5694       5705       5704       5814       5815       5826       5825  
      5694       5695       5706       5705       5815       5816       5827       5826  
      5695       5696       5707       5706       5816       5817       5828       5827  
      5696       5697       5708       5707       5817       5818       5829       5828  
      5697       5698       5709       5708       5818       5819       5830       5829  
      5699       5700       5711       5710       5820       5821       5832       5831  
      5700       5701       5712       5711       5821       5822       5833       5832  
      5701       5702       5713       5712       5822       5823       5834       5833  
      5702       5703       5714       5713       5823       5824       5835       5834  
      5703       5704       5715       5714       5824       5825       5836       5835  
      5704       5705       5716       5715       5825       5826       5837       5836  
      5705       5706       5717       5716       5826       5827       5838       5837  
      5706       5707       5718       5717       5827       5828       5839       5838  
      5707       5708       5719       5718       5828       5829       5840       5839  
      5708       5709       5720       5719       5829       5830       5841       5840  
      5710       5711       5722       5721       5831       5832       5843       5842  
      5711       5712       5723       5722       5832       5833       5844       5843  
      5712       5713       5724       5723       5833       5834       5845       5844  
      5713       5714       5725       5724       5834       5835       5846       5845  
      5714       5715       5726       5725       5835       5836       5847       5846  
      5715       5716       5727       5726       5836       5837       5848       5847  
      5716       5717       5728       5727       5837       5838       5849       5848  
      5717       5718       5729       5728       5838       5839       5850       5849  
      5718       5719       5730       5729       5839       5840       5851       5850  
      5719       5720       5731       5730       5840       5841       5852       5851  
      5721       5722       5733       5732       5842       5843       5854       5853  
      5722       5723       5734       5733       5843       5844       5855       5854  
      5723       5724       5735       5734       5844       5845       5856       5855  
      5724       5725       5736       5735       5845       5846       5857       5856  
      5725       5726       5737       5736       5846       5847       5858       5857  
      5726       5727       5738       5737       5847       5848       5859       5858  
      5727       5728       5739       5738       5848       5849       5860       5859  
      5728       5729       5740       5739       5849       5850       5861       5860  
      5729       5730       5741       5740       5850       5851       5862       5861  
      5730       5731       5742       5741       5851       5852       5863       5862  
      5732       5733       5744       5743       5853       5854       5865       5864  
      5733       5734       5745       5744       5854       5855       5866       5865  
      5734       5735       5746       5745       5855       5856       5867       5866  
      5735       5736       5747       5746       5856       5857       5868       5867  
      5736       5737       5748       5747       5857       5858       5869       5868  
      5737       5738       5749       5748       5858       5859       5870       5869  
      5738       5739       5750       5749       5859       5860       5871       5870  
      5739       5740       5751       5750       5860       5861       5872       5871  
      5740       5741       5752       5751       5861       5862       5873       5872  
      5741       5742       5753       5752       5862       5863       5874       5873  
      5743       5744       5755       5754       5864       5865       5876       5875  
      5744       5745       5756       5755       5865       5866       5877       5876  
      5745       5746       5757       5756       5866       5867       5878       5877  
      5746       5747       5758       5757       5867       5868       5879       5878  
      5747       5748       5759       5758       5868       5869       5880       5879  
      5748       5749       5760       5759       5869       5870       5881       5880  
      5749       5750       5761       5760       5870       5871       5882       5881  
      5750       5751       5762       5761       5871       5872       5883       5882  
      5751       5752       5763       5762       5872       5873       5884       5883  
      5752       5753       5764       5763       5873       5874       5885       5884  
      5754       5755       5766       5765       5875       5876       5887       5886  
      5755       5756       5767       5766       5876       5877       5888       5887  
      5756       5757       5768       5767       5877       5878       5889       5888  
      5757       5758       5769       5768       5878       5879       5890       5889  
      5758       5759       5770       5769       5879       5880       5891       5890  
      5759       5760       5771       5770       5880       5881       5892       5891  
      5760       5761       5772       5771       5881       5882       5893       5892  
      5761       5762       5773       5772       5882       5883       5894       5893  
      5762       5763       5774       5773       5883       5884       5895       5894  
      5763       5764       5775       5774       5884       5885       5896       5895  
      5765       5766       5777       5776       5886       5887       5898       5897  
      5766       5767       5778       5777       5887       5888       5899       5898  
      5767       5768       5779       5778       5888       5889       5900       5899  
      5768       5769       5780       5779       5889       5890       5901       5900  
      5769       5770       5781       5780       5890       5891       5902       5901  
      5770       5771       5782       5781       5891       5892       5903       5902  
      5771       5772       5783       5782       5892       5893       5904       5903  
      5772       5773       5784       5783       5893       5894       5905       5904  
      5773       5774       5785       5784       5894       5895       5906       5905  
      5774       5775       5786       5785       5895       5896       5907       5906  
      5776       5777       5788       5787       5897       5898       5909       5908  
      5777       5778       5789       5788       5898       5899       5910       5909  
      5778       5779       5790       5789       5899       5900       5911       5910  
      5779       5780       5791       5790       5900       5901       5912       5911  
      5780       5781       5792       5791       5901       5902       5913       5912  
      5781       5782       5793       5792       5902       5903       5914       5913  
      5782       5783       5794       5793       5903       5904       5915       5914  
      5783       5784       5795       5794       5904       5905       5916       5915  
      5784       5785       5796       5795       5905       5906       5917       5916  
      5785       5786       5797       5796       5906       5907       5918       5917  
      5787       5788       5799       5798       5908       5909       5920       5919  
      5788       5789       5800       5799       5909       5910       5921       5920  
      5789       5790       5801       5800       5910       5911       5922       5921  
      5790       5791       5802       5801       5911       5912       5923       5922  
      5791       5792       5803       5802       5912       5913       5924       5923  
      5792       5793       5804       5803       5913       5914       5925       5924  
      5793       5794       5805       5804       5914       5915       5926       5925  
      5794       5795       5806       5805       5915       5916       5927       5926  
      5795       5796       5807       5806       5916       5917       5928       5927  
      5796       5797       5808       5807       5917       5918       5929       5928  
      5809       5810       5821       5820       5930       5931       5942       5941  
      5810       5811       5822       5821       5931       5932       5943       5942  
      5811       5812       5823       5822       5932       5933       5944       5943  
      5812       5813       5824       5823       5933       5934       5945       5944  
      5813       5814       5825       5824       5934       5935       5946       5945  
      5814       5815       5826       5825       5935       5936       5947       5946  
      5815       5816       5827       5826       5936       5937       5948       5947  
      5816       5817       5828       5827       5937       5938       5949       5948  
      5817       5818       5829       5828       5938       5939       5950       5949  
      5818       5819       5830       5829       5939       5940       5951       5950  
      5820       5821       5832       5831       5941       5942       5953       5952  
      5821       5822       5833       5832       5942       5943       5954       5953  
      5822       5823       5834       5833       5943       5944       5955       5954  
      5823       5824       5835       5834       5944       5945       5956       5955  
      5824       5825       5836       5835       5945       5946       5957       5956  
      5825       5826       5837       5836       5946       5947       5958       5957  
      5826       5827       5838       5837       5947       5948       5959       5958  
      5827       5828       5839       5838       5948       5949       5960       5959  
      5828       5829       5840       5839       5949       5950       5961       5960  
      5829       5830       5841       5840       5950       5951       5962       5961  
      5831       5832       5843       5842       5952       5953       5964       5963  
      5832       5833       5844       5843       5953       5954       5965       5964  
      5833       5834       5845       5844       5954       5955       5966       5965  
      5834       5835       5846       5845       5955       5956       5967       5966  
      5835       5836       5847       5846       5956       5957       5968       5967  
      5836       5837       5848       5847       5957       5958       5969       5968  
      5837       5838       5849       5848       5958       5959       5970       5969  
      5838       5839       5850       5849       5959       5960       5971       5970  
      5839       5840       5851       5850       5960       5961       5972       5971  
      5840       5841       5852       5851       5961       5962       5973       5972  
      5842       5843       5854       5853       5963       5964       5975       5974  
      5843       5844       5855       5854       5964       5965       5976       5975  
      5844       5845       5856       5855       5965       5966       5977       5976  
      5845       5846       5857       5856       5966       5967       5978       5977  
      5846       5847       5858       5857       5967       5968       5979       5978  
      5847       5848       5859       5858       5968       5969       5980       5979  
      5848       5849       5860       5859       5969       5970       5981       5980  
      5849       5850       5861       5860       5970       5971       5982       5981  
      5850       5851       5862       5861       5971       5972       5983       5982  
      5851       5852       5863       5862       5972       5973       5984       5983  
      5853       5854       5865       5864       5974       5975       5986       5985  
      5854       5855       5866       5865       5975       5976       5987       5986  
      5855       5856       5867       5866       5976       5977       5988       5987  
      5856       5857       5868       5867       5977       5978       5989       5988  
      5857       5858       5869       5868       5978       5979       5990       5989  
      5858       5859       5870       5869       5979       5980       5991       5990  
      5859       5860       5871       5870       5980       5981       5992       5991  
      5860       5861       5872       5871       5981       5982       5993       5992  
      5861       5862       5873       5872       5982       5983       5994       5993  
      5862       5863       5874       5873       5983       5984       5995       5994  
      5864       5865       5876       5875       5985       5986       5997       5996  
      5865       5866       5877       5876       5986       5987       5998       5997  
      5866       5867       5878       5877       5987       5988       5999       5998  
      5867       5868       5879       5878       5988       5989       6000       5999  
      5868       5869       5880       5879       5989       5990       6001       6000  
      5869       5870       5881       5880       5990       5991       6002       6001  
      5870       5871       5882       5881       5991       5992       6003       6002  
      5871       5872       5883       5882       5992       5993       6004       6003  
      5872       5873       5884       5883       5993       5994       6005       6004  
      5873       5874       5885       5884       5994       5995       6006       6005  
      5875       5876       5887       5886       5996       5997       6008       6007  
      5876       5877       5888       5887       5997       5998       6009       6008  
      5877       5878       5889       5888       5998       5999       6010       6009  
      5878       5879       5890       5889       5999       6000       6011       6010  
      5879       5880       5891       5890       6000       6001       6012       6011  
      5880       5881       5892       5891       6001       6002       6013       6012  
      5881       5882       5893       5892       6002       6003       6014       6013  
      5882       5883       5894       5893       6003       6004       6015       6014  
      5883       5884       5895       5894       6004       6005       6016       6015  
      5884       5885       5896       5895       6005       6006       6017       6016  
      5886       5887       5898       5897       6007       6008       6019       6018  
      5887       5888       5899       5898       6008       6009       6020       6019  
      5888       5889       5900       5899       6009       6010       6021       6020  
      5889       5890       5901       5900       6010       6011       6022       6021  
      5890       5891       5902       5901       6011       6012       6023       6022  
      5891       5892       5903       5902       6012       6013       6024       6023  
      5892       5893       5904       5903       6013       6014       6025       6024  
      5893       5894       5905       5904       6014       6015       6026       6025  
      5894       5895       5906       5905       6015       6016       6027       6026  
      5895       5896       5907       5906       6016       6017       6028       6027  
      5897       5898       5909       5908       6018       6019       6030       6029  
      5898       5899       5910       5909       6019       6020       6031       6030  
      5899       5900       5911       5910       6020       6021       6032       6031  
      5900       5901       5912       5911       6021       6022       6033       6032  
      5901       5902       5913       5912       6022       6023       6034       6033  
      5902       5903       5914       5913       6023       6024       6035       6034  
      5903       5904       5915       5914       6024       6025       6036       6035  
      5904       5905       5916       5915       6025       6026       6037       6036  
      5905       5906       5917       5916       6026       6027       6038       6037  
      5906       5907       5918       5917       6027       6028       6039       6038  
      5908       5909       5920       5919       6029       6030       6041       6040  
      5909       5910       5921       5920       6030       6031       6042       6041  
      5910       5911       5922       5921       6031       6032       6043       6042  
      5911       5912       5923       5922       6032       6033       6044       6043  
      5912       5913       5924       5923       6033       6034       6045       6044  
      5913       5914       5925       5924       6034       6035       6046       6045  
      5914       5915       5926       5925       6035       6036       6047       6046  
      5915       5916       5927       5926       6036       6037       6048       6047  
      5916       5917       5928       5927       6037       6038       6049       6048  
      5917       5918       5929       5928       6038       6039       6050       6049  
      5930       5931       5942       5941       6051       6052       6063       6062  
      5931       5932       5943       5942       6052       6053       6064       6063  
      5932       5933       5944       5943       6053       6054       6065       6064  
      5933       5934       5945       5944       6054       6055       6066       6065  
      5934       5935       5946       5945       6055       6056       6067       6066  
      5935       5936       5947       5946       6056       6057       6068       6067  
      5936       5937       5948       5947       6057       6058       6069       6068  
      5937       5938       5949       5948       6058       6059       6070       6069  
      5938       5939       5950       5949       6059       6060       6071       6070  
      5939       5940       5951       5950       6060       6061       6072       6071  
      5941       5942       5953       5952       6062       6063       6074       6073  
      5942       5943       5954       5953       6063       6064       6075       6074  
      5943       5944       5955       5954       6064       6065       6076       6075  
      5944       5945       5956       5955       6065       6066       6077       6076  
      5945       5946       5957       5956       6066       6067       6078       6077  
      5946       5947       5958       5957       6067       6068       6079       6078  
      5947       5948       5959       5958       6068       6069       6080       6079  
      5948       5949       5960       5959       6069       6070       6081       6080  
      5949       5950       5961       5960       6070       6071       6082       6081  
      5950       5951       5962       5961       6071       6072       6083       6082  
      5952       5953       5964       5963       6073       6074       6085       6084  
      5953       5954       5965       5964       6074       6075       6086       6085  
      5954       5955       5966       5965       6075       6076       6087       6086  
      5955       5956       5967       5966       6076       6077       6088       6087  
      5956       5957       5968       5967       6077       6078       6089       6088  
      5957       5958       5969       5968       6078       6079       6090       6089  
      5958       5959       5970       5969       6079       6080       6091       6090  
      5959       5960       5971       5970       6080       6081       6092       6091  
      5960       5961       5972       5971       6081       6082       6093       6092  
      5961       5962       5973       5972       6082       6083       6094       6093  
      5963       5964       5975       5974       6084       6085       6096       6095  
      5964       5965       5976       5975       6085       6086       6097       6096  
      5965       5966       5977       5976       6086       6087       6098       6097  
      5966       5967       5978       5977       6087       6088       6099       6098  
      5967       5968       5979       5978       6088       6089       6100       6099  
      5968       5969       5980       5979       6089       6090       6101       6100  
      5969       5970       5981       5980       6090       6091       6102       6101  
      5970       5971       5982       5981       6091       6092       6103       6102  
      5971       5972       5983       5982       6092       6093       6104       6103  
      5972       5973       5984       5983       6093       6094       6105       6104  
      5974       5975       5986       5985       6095       6096       6107       6106  
      5975       5976       5987       5986       6096       6097       6108       6107  
      5976       5977       5988       5987       6097       6098       6109       6108  
      5977       5978       5989       5988       6098       6099       6110       6109  
      5978       5979       5990       5989       6099       6100       6111       6110  
      5979       5980       5991       5990       6100       6101       6112       6111  
      5980       5981       5992       5991       6101       6102       6113       6112  
      5981       5982       5993       5992       6102       6103       6114       6113  
      5982       5983       5994       5993       6103       6104       6115       6114  
      5983       5984       5995       5994       6104       6105       6116       6115  
      5985       5986       5997       5996       6106       6107       6118       6117  
      5986       5987       5998       5997       6107       6108       6119       6118  
      5987       5988       5999       5998       6108       6109       6120       6119  
      5988       5989       6000       5999       6109       6110       6121       6120  
      5989       5990       6001       6000       6110       6111       6122       6121  
      5990       5991       6002       6001       6111       6112       6123       6122  
      5991       5992       6003       6002       6112       6113       6124       6123  
      5992       5993       6004       6003       6113       6114       6125       6124  
      5993       5994       6005       6004       6114       6115       6126       6125  
      5994       5995       6006       6005       6115       6116       6127       6126  
      5996       5997       6008       6007       6117       6118       6129       6128  
      5997       5998       6009       6008       6118       6119       6130       6129  
      5998       5999       6010       6009       6119       6120       6131       6130  
      5999       6000       6011       6010       6120       6121       6132       6131  
      6000       6001       6012       6011       6121       6122       6133       6132  
      6001       6002       6013       6012       6122       6123       6134       6133  
      6002       6003       6014       6013       6123       6124       6135       6134  
      6003       6004       6015       6014       6124       6125       6136       6135  
      6004       6005       6016       6015       6125       6126       6137       6136  
      6005       6006       6017       6016       6126       6127       6138       6137  
      6007       6008       6019       6018       6128       6129       6140       6139  
      6008       6009       6020       6019       6129       6130       6141       6140  
      6009       6010       6021       6020       6130       6131       6142       6141  
      6010       6011       6022       6021       6131       6132       6143       6142  
      6011       6012       6023       6022       6132       6133       6144       6143  
      6012       6013       6024       6023       6133       6134       6145       6144  
      6013       6014       6025       6024       6134       6135       6146       6145  
      6014       6015       6026       6025       6135       6136       6147       6146  
      6015       6016       6027       6026       6136       6137       6148       6147  
      6016       6017       6028       6027       6137       6138       6149       6148  
      6018       6019       6030       6029       6139       6140       6151       6150  
      6019       6020       6031       6030       6140       6141       6152       6151  
      6020       6021       6032       6031       6141       6142       6153       6152  
      6021       6022       6033       6032       6142       6143       6154       6153  
      6022       6023       6034       6033       6143       6144       6155       6154  
      6023       6024       6035       6034       6144       6145       6156       6155  
      6024       6025       6036       6035       6145       6146       6157       6156  
      6025       6026       6037       6036       6146       6147       6158       6157  
      6026       6027       6038       6037       6147       6148       6159       6158  
      6027       6028       6039       6038       6148       6149       6160       6159  
      6029       6030       6041       6040       6150       6151       6162       6161  
      6030       6031       6042       6041       6151       6152       6163       6162  
      6031       6032       6043       6042       6152       6153       6164       6163  
      6032       6033       6044       6043       6153       6154       6165       6164  
      6033       6034       6045       6044       6154       6155       6166       6165  
      6034       6035       6046       6045       6155       6156       6167       6166  
      6035       6036       6047       6046       6156       6157       6168       6167  
      6036       6037       6048       6047       6157       6158       6169       6168  
      6037       6038       6049       6048       6158       6159       6170       6169  
      6038       6039       6050       6049       6159       6160       6171       6170  
      6051       6052       6063       6062       6172       6173       6184       6183  
      6052       6053       6064       6063       6173       6174       6185       6184  
      6053       6054       6065       6064       6174       6175       6186       6185  
      6054       6055       6066       6065       6175       6176       6187       6186  
      6055       6056       6067       6066       6176       6177       6188       6187  
      6056       6057       6068       6067       6177       6178       6189       6188  
      6057       6058       6069       6068       6178       6179       6190       6189  
      6058       6059       6070       6069       6179       6180       6191       6190  
      6059       6060       6071       6070       6180       6181       6192       6191  
      6060       6061       6072       6071       6181       6182       6193       6192  
      6062       6063       6074       6073       6183       6184       6195       6194  
      6063       6064       6075       6074       6184       6185       6196       6195  
      6064       6065       6076       6075       6185       6186       6197       6196  
      6065       6066       6077       6076       6186       6187       6198       6197  
      6066       6067       6078       6077       6187       6188       6199       6198  
      6067       6068       6079       6078       6188       6189       6200       6199  
      6068       6069       6080       6079       6189       6190       6201       6200  
      6069       6070       6081       6080       6190       6191       6202       6201  
      6070       6071       6082       6081       6191       6192       6203       6202  
      6071       6072       6083       6082       6192       6193       6204       6203  
      6073       6074       6085       6084       6194       6195       6206       6205  
      6074       6075       6086       6085       6195       6196       6207       6206  
      6075       6076       6087       6086       6196       6197       6208       6207  
      6076       6077       6088       6087       6197       6198       6209       6208  
      6077       6078       6089       6088       6198       6199       6210       6209  
      6078       6079       6090       6089       6199       6200       6211       6210  
      6079       6080       6091       6090       6200       6201       6212       6211  
      6080       6081       6092       6091       6201       6202       6213       6212  
      6081       6082       6093       6092       6202       6203       6214       6213  
      6082       6083       6094       6093       6203       6204       6215       6214  
      6084       6085       6096       6095       6205       6206       6217       6216  
      6085       6086       6097       6096       6206       6207       6218       6217  
      6086       6087       6098       6097       6207       6208       6219       6218  
      6087       6088       6099       6098       6208       6209       6220       6219  
      6088       6089       6100       6099       6209       6210       6221       6220  
      6089       6090       6101       6100       6210       6211       6222       6221  
      6090       6091       6102       6101       6211       6212       6223       6222  
      6091       6092       6103       6102       6212       6213       6224       6223  
      6092       6093       6104       6103       6213       6214       6225       6224  
      6093       6094       6105       6104       6214       6215       6226       6225  
      6095       6096       6107       6106       6216       6217       6228       6227  
      6096       6097       6108       6107       6217       6218       6229       6228  
      6097       6098       6109       6108       6218       6219       6230       6229  
      6098       6099       6110       6109       6219       6220       6231       6230  
      6099       6100       6111       6110       6220       6221       6232       6231  
      6100       6101       6112       6111       6221       6222       6233       6232  
      6101       6102       6113       6112       6222       6223       6234       6233  
      6102       6103       6114       6113       6223       6224       6235       6234  
      6103       6104       6115       6114       6224       6225       6236       6235  
      6104       6105       6116       6115       6225       6226       6237       6236  
      6106       6107       6118       6117       6227       6228       6239       6238  
      6107       6108       6119       6118       6228       6229       6240       6239  
      6108       6109       6120       6119       6229       6230       6241       6240  
      6109       6110       6121       6120       6230       6231       6242       6241  
      6110       6111       6122       6121       6231       6232       6243       6242  
      6111       6112       6123       6122       6232       6233       6244       6243  
      6112       6113       6124       6123       6233       6234       6245       6244  
      6113       6114       6125       6124       6234       6235       6246       6245  
      6114       6115       6126       6125       6235       6236       6247       6246  
      6115       6116       6127       6126       6236       6237       6248       6247  
      6117       6118       6129       6128       6238       6239       6250       6249  
      6118       6119       6130       6129       6239       6240       6251       6250  
      6119       6120       6131       6130       6240       6241       6252       6251  
      6120       6121       6132       6131       6241       6242       6253       6252  
      6121       6122       6133       6132       6242       6243       6254       6253  
      6122       6123       6134       6133       6243       6244       6255       6254  
      6123       6124       6135       6134       6244       6245       6256       6255  
      6124       6125       6136       6135       6245       6246       6257       6256  
      6125       6126       6137       6136       6246       6247       6258       6257  
      6126       6127       6138       6137       6247       6248       6259       6258  
      6128       6129       6140       6139       6249       6250       6261       6260  
      6129       6130       6141       6140       6250       6251       6262       6261  
      6130       6131       6142       6141       6251       6252       6263       6262  
      6131       6132       6143       6142       6252       6253       6264       6263  
      6132       6133       6144       6143       6253       6254       6265       6264  
      6133       6134       6145       6144       6254       6255       6266       6265  
      6134       6135       6146       6145       6255       6256       6267       6266  
      6135       6136       6147       6146       6256       6257       6268       6267  
      6136       6137       6148       6147       6257       6258       6269       6268  
      6137       6138       6149       6148       6258       6259       6270       6269  
      6139       6140       6151       6150       6260       6261       6272       6271  
      6140       6141       6152       6151       6261       6262       6273       6272  
      6141       6142       6153       6152       6262       6263       6274       6273  
      6142       6143       6154       6153       6263       6264       6275       6274  
      6143       6144       6155       6154       6264       6265       6276       6275  
      6144       6145       6156       6155       6265       6266       6277       6276  
      6145       6146       6157       6156       6266       6267       6278       6277  
      6146       6147       6158       6157       6267       6268       6279       6278  
      6147       6148       6159       6158       6268       6269       6280       6279  
      6148       6149       6160       6159       6269       6270       6281       6280  
      6150       6151       6162       6161       6271       6272       6283       6282  
      6151       6152       6163       6162       6272       6273       6284       6283  
      6152       6153       6164       6163       6273       6274       6285       6284  
      6153       6154       6165       6164       6274       6275       6286       6285  
      6154       6155       6166       6165       6275       6276       6287       6286  
      6155       6156       6167       6166       6276       6277       6288       6287  
      6156       6157       6168       6167       6277       6278       6289       6288  
      6157       6158       6169       6168       6278       6279       6290       6289  
      6158       6159       6170       6169       6279       6280       6291       6290  
      6159       6160       6171       6170       6280       6281       6292       6291  
      6172       6173       6184       6183       6293       6294       6305       6304  
      6173       6174       6185       6184       6294       6295       6306       6305  
      6174       6175       6186       6185       6295       6296       6307       6306  
      6175       6176       6187       6186       6296       6297       6308       6307  
      6176       6177       6188       6187       6297       6298       6309       6308  
      6177       6178       6189       6188       6298       6299       6310       6309  
      6178       6179       6190       6189       6299       6300       6311       6310  
      6179       6180       6191       6190       6300       6301       6312       6311  
      6180       6181       6192       6191       6301       6302       6313       6312  
      6181       6182       6193       6192       6302       6303       6314       6313  
      6183       6184       6195       6194       6304       6305       6316       6315  
      6184       6185       6196       6195       6305       6306       6317       6316  
      6185       6186       6197       6196       6306       6307       6318       6317  
      6186       6187       6198       6197       6307       6308       6319       6318  
      6187       6188       6199       6198       6308       6309       6320       6319  
      6188       6189       6200       6199       6309       6310       6321       6320  
      6189       6190       6201       6200       6310       6311       6322       6321  
      6190       6191       6202       6201       6311       6312       6323       6322  
      6191       6192       6203       6202       6312       6313       6324       6323  
      6192       6193       6204       6203       6313       6314       6325       6324  
      6194       6195       6206       6205       6315       6316       6327       6326  
      6195       6196       6207       6206       6316       6317       6328       6327  
      6196       6197       6208       6207       6317       6318       6329       6328  
      6197       6198       6209       6208       6318       6319       6330       6329  
      6198       6199       6210       6209       6319       6320       6331       6330  
      6199       6200       6211       6210       6320       6321       6332       6331  
      6200       6201       6212       6211       6321       6322       6333       6332  
      6201       6202       6213       6212       6322       6323       6334       6333  
      6202       6203       6214       6213       6323       6324       6335       6334  
      6203       6204       6215       6214       6324       6325       6336       6335  
      6205       6206       6217       6216       6326       6327       6338       6337  
      6206       6207       6218       6217       6327       6328       6339       6338  
      6207       6208       6219       6218       6328       6329       6340       6339  
      6208       6209       6220       6219       6329       6330       6341       6340  
      6209       6210       6221       6220       6330       6331       6342       6341  
      6210       6211       6222       6221       6331       6332       6343       6342  
      6211       6212       6223       6222       6332       6333       6344       6343  
      6212       6213       6224       6223       6333       6334       6345       6344  
      6213       6214       6225       6224       6334       6335       6346       6345  
      6214       6215       6226       6225       6335       6336       6347       6346  
      6216       6217       6228       6227       6337       6338       6349       6348  
      6217       6218       6229       6228       6338       6339       6350       6349  
      6218       6219       6230       6229       6339       6340       6351       6350  
      6219       6220       6231       6230       6340       6341       6352       6351  
      6220       6221       6232       6231       6341       6342       6353       6352  
      6221       6222       6233       6232       6342       6343       6354       6353  
      6222       6223       6234       6233       6343       6344       6355       6354  
      6223       6224       6235       6234       6344       6345       6356       6355  
      6224       6225       6236       6235       6345       6346       6357       6356  
      6225       6226       6237       6236       6346       6347       6358       6357  
      6227       6228       6239       6238       6348       6349       6360       6359  
      6228       6229       6240       6239       6349       6350       6361       6360  
      6229       6230       6241       6240       6350       6351       6362       6361  
      6230       6231       6242       6241       6351       6352       6363       6362  
      6231       6232       6243       6242       6352       6353       6364       6363  
      6232       6233       6244       6243       6353       6354       6365       6364  
      6233       6234       6245       6244       6354       6355       6366       6365  
      6234       6235       6246       6245       6355       6356       6367       6366  
      6235       6236       6247       6246       6356       6357       6368       6367  
      6236       6237       6248       6247       6357       6358       6369       6368  
      6238       6239       6250       6249       6359       6360       6371       6370  
      6239       6240       6251       6250       6360       6361       6372       6371  
      6240       6241       6252       6251       6361       6362       6373       6372  
      6241       6242       6253       6252       6362       6363       6374       6373  
      6242       6243       6254       6253       6363       6364       6375       6374  
      6243       6244       6255       6254       6364       6365       6376       6375  
      6244       6245       6256       6255       6365       6366       6377       6376  
      6245       6246       6257       6256       6366       6367       6378       6377  
      6246       6247       6258       6257       6367       6368       6379       6378  
      6247       6248       6259       6258       6368       6369       6380       6379  
      6249       6250       6261       6260       6370       6371       6382       6381  
      6250       6251       6262       6261       6371       6372       6383       6382  
      6251       6252       6263       6262       6372       6373       6384       6383  
      6252       6253       6264       6263       6373       6374       6385       6384  
      6253       6254       6265       6264       6374       6375       6386       6385  
      6254       6255       6266       6265       6375       6376       6387       6386  
      6255       6256       6267       6266       6376       6377       6388       6387  
      6256       6257       6268       6267       6377       6378       6389       6388  
      6257       6258       6269       6268       6378       6379       6390       6389  
      6258       6259       6270       6269       6379       6380       6391       6390  
      6260       6261       6272       6271       6381       6382       6393       6392  
      6261       6262       6273       6272       6382       6383       6394       6393  
      6262       6263       6274       6273       6383       6384       6395       6394  
      6263       6264       6275       6274       6384       6385       6396       6395  
      6264       6265       6276       6275       6385       6386       6397       6396  
      6265       6266       6277       6276       6386       6387       6398       6397  
      6266       6267       6278       6277       6387       6388       6399       6398  
      6267       6268       6279       6278       6388       6389       6400       6399  
      6268       6269       6280       6279       6389       6390       6401       6400  
      6269       6270       6281       6280       6390       6391       6402       6401  
      6271       6272       6283       6282       6392       6393       6404       6403  
      6272       6273       6284       6283       6393       6394       6405       6404  
      6273       6274       6285       6284       6394       6395       6406       6405  
      6274       6275       6286       6285       6395       6396       6407       6406  
      6275       6276       6287       6286       6396       6397       6408       6407  
      6276       6277       6288       6287       6397       6398       6409       6408  
      6277       6278       6289       6288       6398       6399       6410       6409  
      6278       6279       6290       6289       6399       6400       6411       6410  
      6279       6280       6291       6290       6400       6401       6412       6411  
      6280       6281       6292       6291       6401       6402       6413       6412  
      6293       6294       6305       6304       6414       6415       6426       6425  
      6294       6295       6306       6305       6415       6416       6427       6426  
      6295       6296       6307       6306       6416       6417       6428       6427  
      6296       6297       6308       6307       6417       6418       6429       6428  
      6297       6298       6309       6308       6418       6419       6430       6429  
      6298       6299       6310       6309       6419       6420       6431       6430  
      6299       6300       6311       6310       6420       6421       6432       6431  
      6300       6301       6312       6311       6421       6422       6433       6432  
      6301       6302       6313       6312       6422       6423       6434       6433  
      6302       6303       6314       6313       6423       6424       6435       6434  
      6304       6305       6316       6315       6425       6426       6437       6436  
      6305       6306       6317       6316       6426       6427       6438       6437  
      6306       6307       6318       6317       6427       6428       6439       6438  
      6307       6308       6319       6318       6428       6429       6440       6439  
      6308       6309       6320       6319       6429       6430       6441       6440  
      6309       6310       6321       6320       6430       6431       6442       6441  
      6310       6311       6322       6321       6431       6432       6443       6442  
      6311       6312       6323       6322       6432       6433       6444       6443  
      6312       6313       6324       6323       6433       6434       6445       6444  
      6313       6314       6325       6324       6434       6435       6446       6445  
      6315       6316       6327       6326       6436       6437       6448       6447  
      6316       6317       6328       6327       6437       6438       6449       6448  
      6317       6318       6329       6328       6438       6439       6450       6449  
      6318       6319       6330       6329       6439       6440       6451       6450  
      6319       6320       6331       6330       6440       6441       6452       6451  
      6320       6321       6332       6331       6441       6442       6453       6452  
      6321       6322       6333       6332       6442       6443       6454       6453  
      6322       6323       6334       6333       6443       6444       6455       6454  
      6323       6324       6335       6334       6444       6445       6456       6455  
      6324       6325       6336       6335       6445       6446       6457       6456  
      6326       6327       6338       6337       6447       6448       6459       6458  
      6327       6328       6339       6338       6448       6449       6460       6459  
      6328       6329       6340       6339       6449       6450       6461       6460  
      6329       6330       6341       6340       6450       6451       6462       6461  
      6330       6331       6342       6341       6451       6452       6463       6462  
      6331       6332       6343       6342       6452       6453       6464       6463  
      6332       6333       6344       6343       6453       6454       6465       6464  
      6333       6334       6345       6344       6454       6455       6466       6465  
      6334       6335       6346       6345       6455       6456       6467       6466  
      6335       6336       6347       6346       6456       6457       6468       6467  
      6337       6338       6349       6348       6458       6459       6470       6469  
      6338       6339       6350       6349       6459       6460       6471       6470  
      6339       6340       6351       6350       6460       6461       6472       6471  
      6340       6341       6352       6351       6461       6462       6473       6472  
      6341       6342       6353       6352       6462       6463       6474       6473  
      6342       6343       6354       6353       6463       6464       6475       6474  
      6343       6344       6355       6354       6464       6465       6476       6475  
      6344       6345       6356       6355       6465       6466       6477       6476  
      6345       6346       6357       6356       6466       6467       6478       6477  
      6346       6347       6358       6357       6467       6468       6479       6478  
      6348       6349       6360       6359       6469       6470       6481       6480  
      6349       6350       6361       6360       6470       6471       6482       6481  
      6350       6351       6362       6361       6471       6472       6483       6482  
      6351       6352       6363       6362       6472       6473       6484       6483  
      6352       6353       6364       6363       6473       6474       6485       6484  
      6353       6354       6365       6364       6474       6475       6486       6485  
      6354       6355       6366       6365       6475       6476       6487       6486  
      6355       6356       6367       6366       6476       6477       6488       6487  
      6356       6357       6368       6367       6477       6478       6489       6488  
      6357       6358       6369       6368       6478       6479       6490       6489  
      6359       6360       6371       6370       6480       6481       6492       6491  
      6360       6361       6372       6371       6481       6482       6493       6492  
      6361       6362       6373       6372       6482       6483       6494       6493  
      6362       6363       6374       6373       6483       6484       6495       6494  
      6363       6364       6375       6374       6484       6485       6496       6495  
      6364       6365       6376       6375       6485       6486       6497       6496  
      6365       6366       6377       6376       6486       6487       6498       6497  
      6366       6367       6378       6377       6487       6488       6499       6498  
      6367       6368       6379       6378       6488       6489       6500       6499  
      6368       6369       6380       6379       6489       6490       6501       6500  
      6370       6371       6382       6381       6491       6492       6503       6502  
      6371       6372       6383       6382       6492       6493       6504       6503  
      6372       6373       6384       6383       6493       6494       6505       6504  
      6373       6374       6385       6384       6494       6495       6506       6505  
      6374       6375       6386       6385       6495       6496       6507       6506  
      6375       6376       6387       6386       6496       6497       6508       6507  
      6376       6377       6388       6387       6497       6498       6509       6508  
      6377       6378       6389       6388       6498       6499       6510       6509  
      6378       6379       6390       6389       6499       6500       6511       6510  
      6379       6380       6391       6390       6500       6501       6512       6511  
      6381       6382       6393       6392       6502       6503       6514       6513  
      6382       6383       6394       6393       6503       6504       6515       6514  
      6383       6384       6395       6394       6504       6505       6516       6515  
      6384       6385       6396       6395       6505       6506       6517       6516  
      6385       6386       6397       6396       6506       6507       6518       6517  
      6386       6387       6398       6397       6507       6508       6519       6518  
      6387       6388       6399       6398       6508       6509       6520       6519  
      6388       6389       6400       6399       6509       6510       6521       6520  
      6389       6390       6401       6400       6510       6511       6522       6521  
      6390       6391       6402       6401       6511       6512       6523       6522  
      6392       6393       6404       6403       6513       6514       6525       6524  
      6393       6394       6405       6404       6514       6515       6526       6525  
      6394       6395       6406       6405       6515       6516       6527       6526  
      6395       6396       6407       6406       6516       6517       6528       6527  
      6396       6397       6408       6407       6517       6518       6529       6528  
      6397       6398       6409       6408       6518       6519       6530       6529  
      6398       6399       6410       6409       6519       6520       6531       6530  
      6399       6400       6411       6410       6520       6521       6532       6531  
      6400       6401       6412       6411       6521       6522       6533       6532  
      6401       6402       6413       6412       6522       6523       6534       6533  
      6414       6415       6426       6425       6535       6536       6547       6546  
      6415       6416       6427       6426       6536       6537       6548       6547  
      6416       6417       6428       6427       6537       6538       6549       6548  
      6417       6418       6429       6428       6538       6539       6550       6549  
      6418       6419       6430       6429       6539       6540       6551       6550  
      6419       6420       6431       6430       6540       6541       6552       6551  
      6420       6421       6432       6431       6541       6542       6553       6552  
      6421       6422       6433       6432       6542       6543       6554       6553  
      6422       6423       6434       6433       6543       6544       6555       6554  
      6423       6424       6435       6434       6544       6545       6556       6555  
      6425       6426       6437       6436       6546       6547       6558       6557  
      6426       6427       6438       6437       6547       6548       6559       6558  
      6427       6428       6439       6438       6548       6549       6560       6559  
      6428       6429       6440       6439       6549       6550       6561       6560  
      6429       6430       6441       6440       6550       6551       6562       6561  
      6430       6431       6442       6441       6551       6552       6563       6562  
      6431       6432       6443       6442       6552       6553       6564       6563  
      6432       6433       6444       6443       6553       6554       6565       6564  
      6433       6434       6445       6444       6554       6555       6566       6565  
      6434       6435       6446       6445       6555       6556       6567       6566  
      6436       6437       6448       6447       6557       6558       6569       6568  
      6437       6438       6449       6448       6558       6559       6570       6569  
      6438       6439       6450       6449       6559       6560       6571       6570  
      6439       6440       6451       6450       6560       6561       6572       6571  
      6440       6441       6452       6451       6561       6562       6573       6572  
      6441       6442       6453       6452       6562       6563       6574       6573  
      6442       6443       6454       6453       6563       6564       6575       6574  
      6443       6444       6455       6454       6564       6565       6576       6575  
      6444       6445       6456       6455       6565       6566       6577       6576  
      6445       6446       6457       6456       6566       6567       6578       6577  
      6447       6448       6459       6458       6568       6569       6580       6579  
      6448       6449       6460       6459       6569       6570       6581       6580  
      6449       6450       6461       6460       6570       6571       6582       6581  
      6450       6451       6462       6461       6571       6572       6583       6582  
      6451       6452       6463       6462       6572       6573       6584       6583  
      6452       6453       6464       6463       6573       6574       6585       6584  
      6453       6454       6465       6464       6574       6575       6586       6585  
      6454       6455       6466       6465       6575       6576       6587       6586  
      6455       6456       6467       6466       6576       6577       6588       6587  
      6456       6457       6468       6467       6577       6578       6589       6588  
      6458       6459       6470       6469       6579       6580       6591       6590  
      6459       6460       6471       6470       6580       6581       6592       6591  
      6460       6461       6472       6471       6581       6582       6593       6592  
      6461       6462       6473       6472       6582       6583       6594       6593  
      6462       6463       6474       6473       6583       6584       6595       6594  
      6463       6464       6475       6474       6584       6585       6596       6595  
      6464       6465       6476       6475       6585       6586       6597       6596  
      6465       6466       6477       6476       6586       6587       6598       6597  
      6466       6467       6478       6477       6587       6588       6599       6598  
      6467       6468       6479       6478       6588       6589       6600       6599  
      6469       6470       6481       6480       6590       6591       6602       6601  
      6470       6471       6482       6481       6591       6592       6603       6602  
      6471       6472       6483       6482       6592       6593       6604       6603  
      6472       6473       6484       6483       6593       6594       6605       6604  
      6473       6474       6485       6484       6594       6595       6606       6605  
      6474       6475       6486       6485       6595       6596       6607       6606  
      6475       6476       6487       6486       6596       6597       6608       6607  
      6476       6477       6488       6487       6597       6598       6609       6608  
      6477       6478       6489       6488       6598       6599       6610       6609  
      6478       6479       6490       6489       6599       6600       6611       6610  
      6480       6481       6492       6491       6601       6602       6613       6612  
      6481       6482       6493       6492       6602       6603       6614       6613  
      6482       6483       6494       6493       6603       6604       6615       6614  
      6483       6484       6495       6494       6604       6605       6616       6615  
      6484       6485       6496       6495       6605       6606       6617       6616  
      6485       6486       6497       6496       6606       6607       6618       6617  
      6486       6487       6498       6497       6607       6608       6619       6618  
      6487       6488       6499       6498       6608       6609       6620       6619  
      6488       6489       6500       6499       6609       6610       6621       6620  
      6489       6490       6501       6500       6610       6611       6622       6621  
      6491       6492       6503       6502       6612       6613       6624       6623  
      6492       6493       6504       6503       6613       6614       6625       6624  
      6493       6494       6505       6504       6614       6615       6626       6625  
      6494       6495       6506       6505       6615       6616       6627       6626  
      6495       6496       6507       6506       6616       6617       6628       6627  
      6496       6497       6508       6507       6617       6618       6629       6628  
      6497       6498       6509       6508       6618       6619       6630       6629  
      6498       6499       6510       6509       6619       6620       6631       6630  
      6499       6500       6511       6510       6620       6621       6632       6631  
      6500       6501       6512       6511       6621       6622       6633       6632  
      6502       6503       6514       6513       6623       6624       6635       6634  
      6503       6504       6515       6514       6624       6625       6636       6635  
      6504       6505       6516       6515       6625       6626       6637       6636  
      6505       6506       6517       6516       6626       6627       6638       6637  
      6506       6507       6518       6517       6627       6628       6639       6638  
      6507       6508       6519       6518       6628       6629       6640       6639  
      6508       6509       6520       6519       6629       6630       6641       6640  
      6509       6510       6521       6520       6630       6631       6642       6641  
      6510       6511       6522       6521       6631       6632       6643       6642  
      6511       6512       6523       6522       6632       6633       6644       6643  
      6513       6514       6525       6524       6634       6635       6646       6645  
      6514       6515       6526       6525       6635       6636       6647       6646  
      6515       6516       6527       6526       6636       6637       6648       6647  
      6516       6517       6528       6527       6637       6638       6649       6648  
      6517       6518       6529       6528       6638       6639       6650       6649  
      6518       6519       6530       6529       6639       6640       6651       6650  
      6519       6520       6531       6530       6640       6641       6652       6651  
      6520       6521       6532       6531       6641       6642       6653       6652  
      6521       6522       6533       6532       6642       6643       6654       6653  
      6522       6523       6534       6533       6643       6644       6655       6654  
      6535       6536       6547       6546       6656       6657       6668       6667  
      6536       6537       6548       6547       6657       6658       6669       6668  
      6537       6538       6549       6548       6658       6659       6670       6669  
      6538       6539       6550       6549       6659       6660       6671       6670  
      6539       6540       6551       6550       6660       6661       6672       6671  
      6540       6541       6552       6551       6661       6662       6673       6672  
      6541       6542       6553       6552       6662       6663       6674       6673  
      6542       6543       6554       6553       6663       6664       6675       6674  
      6543       6544       6555       6554       6664       6665       6676       6675  
      6544       6545       6556       6555       6665       6666       6677       6676  
      6546       6547       6558       6557       6667       6668       6679       6678  
      6547       6548       6559       6558       6668       6669       6680       6679  
      6548       6549       6560       6559       6669       6670       6681       6680  
      6549       6550       6561       6560       6670       6671       6682       6681  
      6550       6551       6562       6561       6671       6672       6683       6682  
      6551       6552       6563       6562       6672       6673       6684       6683  
      6552       6553       6564       6563       6673       6674       6685       6684  
      6553       6554       6565       6564       6674       6675       6686       6685  
      6554       6555       6566       6565       6675       6676       6687       6686  
      6555       6556       6567       6566       6676       6677       6688       6687  
      6557       6558       6569       6568       6678       6679       6690       6689  
      6558       6559       6570       6569       6679       6680       6691       6690  
      6559       6560       6571       6570       6680       6681       6692       6691  
      6560       6561       6572       6571       6681       6682       6693       6692  
      6561       6562       6573       6572       6682       6683       6694       6693  
      6562       6563       6574       6573       6683       6684       6695       6694  
      6563       6564       6575       6574       6684       6685       6696       6695  
      6564       6565       6576       6575       6685       6686       6697       6696  
      6565       6566       6577       6576       6686       6687       6698       6697  
      6566       6567       6578       6577       6687       6688       6699       6698  
      6568       6569       6580       6579       6689       6690       6701       6700  
      6569       6570       6581       6580       6690       6691       6702       6701  
      6570       6571       6582       6581       6691       6692       6703       6702  
      6571       6572       6583       6582       6692       6693       6704       6703  
      6572       6573       6584       6583       6693       6694       6705       6704  
      6573       6574       6585       6584       6694       6695       6706       6705  
      6574       6575       6586       6585       6695       6696       6707       6706  
      6575       6576       6587       6586       6696       6697       6708       6707  
      6576       6577       6588       6587       6697       6698       6709       6708  
      6577       6578       6589       6588       6698       6699       6710       6709  
      6579       6580       6591       6590       6700       6701       6712       6711  
      6580       6581       6592       6591       6701       6702       6713       6712  
      6581       6582       6593       6592       6702       6703       6714       6713  
      6582       6583       6594       6593       6703       6704       6715       6714  
      6583       6584       6595       6594       6704       6705       6716       6715  
      6584       6585       6596       6595       6705       6706       6717       6716  
      6585       6586       6597       6596       6706       6707       6718       6717  
      6586       6587       6598       6597       6707       6708       6719       6718  
      6587       6588       6599       6598       6708       6709       6720       6719  
      6588       6589       6600       6599       6709       6710       6721       6720  
      6590       6591       6602       6601       6711       6712       6723       6722  
      6591       6592       6603       6602       6712       6713       6724       6723  
      6592       6593       6604       6603       6713       6714       6725       6724  
      6593       6594       6605       6604       6714       6715       6726       6725  
      6594       6595       6606       6605       6715       6716       6727       6726  
      6595       6596       6607       6606       6716       6717       6728       6727  
      6596       6597       6608       6607       6717       6718       6729       6728  
      6597       6598       6609       6608       6718       6719       6730       6729  
      6598       6599       6610       6609       6719       6720       6731       6730  
      6599       6600       6611       6610       6720       6721       6732       6731  
      6601       6602       6613       6612       6722       6723       6734       6733  
      6602       6603       6614       6613       6723       6724       6735       6734  
      6603       6604       6615       6614       6724       6725       6736       6735  
      6604       6605       6616       6615       6725       6726       6737       6736  
      6605       6606       6617       6616       6726       6727       6738       6737  
      6606       6607       6618       6617       6727       6728       6739       6738  
      6607       6608       6619       6618       6728       6729       6740       6739  
      6608       6609       6620       6619       6729       6730       6741       6740  
      6609       6610       6621       6620       6730       6731       6742       6741  
      6610       6611       6622       6621       6731       6732       6743       6742  
      6612       6613       6624       6623       6733       6734       6745       6744  
      6613       6614       6625       6624       6734       6735       6746       6745  
      6614       6615       6626       6625       6735       6736       6747       6746  
      6615       6616       6627       6626       6736       6737       6748       6747  
      6616       6617       6628       6627       6737       6738       6749       6748  
      6617       6618       6629       6628       6738       6739       6750       6749  
      6618       6619       6630       6629       6739       6740       6751       6750  
      6619       6620       6631       6630       6740       6741       6752       6751  
      6620       6621       6632       6631       6741       6742       6753       6752  
      6621       6622       6633       6632       6742       6743       6754       6753  
      6623       6624       6635       6634       6744       6745       6756       6755  
      6624       6625       6636       6635       6745       6746       6757       6756  
      6625       6626       6637       6636       6746       6747       6758       6757  
      6626       6627       6638       6637       6747       6748       6759       6758  
      6627       6628       6639       6638       6748       6749       6760       6759  
      6628       6629       6640       6639       6749       6750       6761       6760  
      6629       6630       6641       6640       6750       6751       6762       6761  
      6630       6631       6642       6641       6751       6752       6763       6762  
      6631       6632       6643       6642       6752       6753       6764       6763  
      6632       6633       6644       6643       6753       6754       6765       6764  
      6634       6635       6646       6645       6755       6756       6767       6766  
      6635       6636       6647       6646       6756       6757       6768       6767  
      6636       6637       6648       6647       6757       6758       6769       6768  
      6637       6638       6649       6648       6758       6759       6770       6769  
      6638       6639       6650       6649       6759       6760       6771       6770  
      6639       6640       6651       6650       6760       6761       6772       6771  
      6640       6641       6652       6651       6761       6762       6773       6772  
      6641       6642       6653       6652       6762       6763       6774       6773  
      6642       6643       6654       6653       6763       6764       6775       6774  
      6643       6644       6655       6654       6764       6765       6776       6775  
      6656       6657       6668       6667       6777       6778       6789       6788  
      6657       6658       6669       6668       6778       6779       6790       6789  
      6658       6659       6670       6669       6779       6780       6791       6790  
      6659       6660       6671       6670       6780       6781       6792       6791  
      6660       6661       6672       6671       6781       6782       6793       6792  
      6661       6662       6673       6672       6782       6783       6794       6793  
      6662       6663       6674       6673       6783       6784       6795       6794  
      6663       6664       6675       6674       6784       6785       6796       6795  
      6664       6665       6676       6675       6785       6786       6797       6796  
      6665       6666       6677       6676       6786       6787       6798       6797  
      6667       6668       6679       6678       6788       6789       6800       6799  
      6668       6669       6680       6679       6789       6790       6801       6800  
      6669       6670       6681       6680       6790       6791       6802       6801  
      6670       6671       6682       6681       6791       6792       6803       6802  
      6671       6672       6683       6682       6792       6793       6804       6803  
      6672       6673       6684       6683       6793       6794       6805       6804  
      6673       6674       6685       6684       6794       6795       6806       6805  
      6674       6675       6686       6685       6795       6796       6807       6806  
      6675       6676       6687       6686       6796       6797       6808       6807  
      6676       6677       6688       6687       6797       6798       6809       6808  
      6678       6679       6690       6689       6799       6800       6811       6810  
      6679       6680       6691       6690       6800       6801       6812       6811  
      6680       6681       6692       6691       6801       6802       6813       6812  
      6681       6682       6693       6692       6802       6803       6814       6813  
      6682       6683       6694       6693       6803       6804       6815       6814  
      6683       6684       6695       6694       6804       6805       6816       6815  
      6684       6685       6696       6695       6805       6806       6817       6816  
      6685       6686       6697       6696       6806       6807       6818       6817  
      6686       6687       6698       6697       6807       6808       6819       6818  
      6687       6688       6699       6698       6808       6809       6820       6819  
      6689       6690       6701       6700       6810       6811       6822       6821  
      6690       6691       6702       6701       6811       6812       6823       6822  
      6691       6692       6703       6702       6812       6813       6824       6823  
      6692       6693       6704       6703       6813       6814       6825       6824  
      6693       6694       6705       6704       6814       6815       6826       6825  
      6694       6695       6706       6705       6815       6816       6827       6826  
      6695       6696       6707       6706       6816       6817       6828       6827  
      6696       6697       6708       6707       6817       6818       6829       6828  
      6697       6698       6709       6708       6818       6819       6830       6829  
      6698       6699       6710       6709       6819       6820       6831       6830  
      6700       6701       6712       6711       6821       6822       6833       6832  
      6701       6702       6713       6712       6822       6823       6834       6833  
      6702       6703       6714       6713       6823       6824       6835       6834  
      6703       6704       6715       6714       6824       6825       6836       6835  
      6704       6705       6716       6715       6825       6826       6837       6836  
      6705       6706       6717       6716       6826       6827       6838       6837  
      6706       6707       6718       6717       6827       6828       6839       6838  
      6707       6708       6719       6718       6828       6829       6840       6839  
      6708       6709       6720       6719       6829       6830       6841       6840  
      6709       6710       6721       6720       6830       6831       6842       6841  
      6711       6712       6723       6722       6832       6833       6844       6843  
      6712       6713       6724       6723       6833       6834       6845       6844  
      6713       6714       6725       6724       6834       6835       6846       6845  
      6714       6715       6726       6725       6835       6836       6847       6846  
      6715       6716       6727       6726       6836       6837       6848       6847  
      6716       6717       6728       6727       6837       6838       6849       6848  
      6717       6718       6729       6728       6838       6839       6850       6849  
      6718       6719       6730       6729       6839       6840       6851       6850  
      6719       6720       6731       6730       6840       6841       6852       6851  
      6720       6721       6732       6731       6841       6842       6853       6852  
      6722       6723       6734       6733       6843       6844       6855       6854  
      6723       6724       6735       6734       6844       6845       6856       6855  
      6724       6725       6736       6735       6845       6846       6857       6856  
      6725       6726       6737       6736       6846       6847       6858       6857  
      6726       6727       6738       6737       6847       6848       6859       6858  
      6727       6728       6739       6738       6848       6849       6860       6859  
      6728       6729       6740       6739       6849       6850       6861       6860  
      6729       6730       6741       6740       6850       6851       6862       6861  
      6730       6731       6742       6741       6851       6852       6863       6862  
      6731       6732       6743       6742       6852       6853       6864       6863  
      6733       6734       6745       6744       6854       6855       6866       6865  
      6734       6735       6746       6745       6855       6856       6867       6866  
      6735       6736       6747       6746       6856       6857       6868       6867  
      6736       6737       6748       6747       6857       6858       6869       6868  
      6737       6738       6749       6748       6858       6859       6870       6869  
      6738       6739       6750       6749       6859       6860       6871       6870  
      6739       6740       6751       6750       6860       6861       6872       6871  
      6740       6741       6752       6751       6861       6862       6873       6872  
      6741       6742       6753       6752       6862       6863       6874       6873  
      6742       6743       6754       6753       6863       6864       6875       6874  
      6744       6745       6756       6755       6865       6866       6877       6876  
      6745       6746       6757       6756       6866       6867       6878       6877  
      6746       6747       6758       6757       6867       6868       6879       6878  
      6747       6748       6759       6758       6868       6869       6880       6879  
      6748       6749       6760       6759       6869       6870       6881       6880  
      6749       6750       6761       6760       6870       6871       6882       6881  
      6750       6751       6762       6761       6871       6872       6883       6882  
      6751       6752       6763       6762       6872       6873       6884       6883  
      6752       6753       6764       6763       6873       6874       6885       6884  
      6753       6754       6765       6764       6874       6875       6886       6885  
      6755       6756       6767       6766       6876       6877       6888       6887  
      6756       6757       6768       6767       6877       6878       6889       6888  
      6757       6758       6769       6768       6878       6879       6890       6889  
      6758       6759       6770       6769       6879       6880       6891       6890  
      6759       6760       6771       6770       6880       6881       6892       6891  
      6760       6761       6772       6771       6881       6882       6893       6892  
      6761       6762       6773       6772       6882       6883       6894       6893  
      6762       6763       6774       6773       6883       6884       6895       6894  
      6763       6764       6775       6774       6884       6885       6896       6895  
      6764       6765       6776       6775       6885       6886       6897       6896  
      6777       6778       6789       6788       6898       6899       6910       6909  
      6778       6779       6790       6789       6899       6900       6911       6910  
      6779       6780       6791       6790       6900       6901       6912       6911  
      6780       6781       6792       6791       6901       6902       6913       6912  
      6781       6782       6793       6792       6902       6903       6914       6913  
      6782       6783       6794       6793       6903       6904       6915       6914  
      6783       6784       6795       6794       6904       6905       6916       6915  
      6784       6785       6796       6795       6905       6906       6917       6916  
      6785       6786       6797       6796       6906       6907       6918       6917  
      6786       6787       6798       6797       6907       6908       6919       6918  
      6788       6789       6800       6799       6909       6910       6921       6920  
      6789       6790       6801       6800       6910       6911       6922       6921  
      6790       6791       6802       6801       6911       6912       6923       6922  
      6791       6792       6803       6802       6912       6913       6924       6923  
      6792       6793       6804       6803       6913       6914       6925       6924  
      6793       6794       6805       6804       6914       6915       6926       6925  
      6794       6795       6806       6805       6915       6916       6927       6926  
      6795       6796       6807       6806       6916       6917       6928       6927  
      6796       6797       6808       6807       6917       6918       6929       6928  
      6797       6798       6809       6808       6918       6919       6930       6929  
      6799       6800       6811       6810       6920       6921       6932       6931  
      6800       6801       6812       6811       6921       6922       6933       6932  
      6801       6802       6813       6812       6922       6923       6934       6933  
      6802       6803       6814       6813       6923       6924       6935       6934  
      6803       6804       6815       6814       6924       6925       6936       6935  
      6804       6805       6816       6815       6925       6926       6937       6936  
      6805       6806       6817       6816       6926       6927       6938       6937  
      6806       6807       6818       6817       6927       6928       6939       6938  
      6807       6808       6819       6818       6928       6929       6940       6939  
      6808       6809       6820       6819       6929       6930       6941       6940  
      6810       6811       6822       6821       6931       6932       6943       6942  
      6811       6812       6823       6822       6932       6933       6944       6943  
      6812       6813       6824       6823       6933       6934       6945       6944  
      6813       6814       6825       6824       6934       6935       6946       6945  
      6814       6815       6826       6825       6935       6936       6947       6946  
      6815       6816       6827       6826       6936       6937       6948       6947  
      6816       6817       6828       6827       6937       6938       6949       6948  
      6817       6818       6829       6828       6938       6939       6950       6949  
      6818       6819       6830       6829       6939       6940       6951       6950  
      6819       6820       6831       6830       6940       6941       6952       6951  
      6821       6822       6833       6832       6942       6943       6954       6953  
      6822       6823       6834       6833       6943       6944       6955       6954  
      6823       6824       6835       6834       6944       6945       6956       6955  
      6824       6825       6836       6835       6945       6946       6957       6956  
      6825       6826       6837       6836       6946       6947       6958       6957  
      6826       6827       6838       6837       6947       6948       6959       6958  
      6827       6828       6839       6838       6948       6949       6960       6959  
      6828       6829       6840       6839       6949       6950       6961       6960  
      6829       6830       6841       6840       6950       6951       6962       6961  
      6830       6831       6842       6841       6951       6952       6963       6962  
      6832       6833       6844       6843       6953       6954       6965       6964  
      6833       6834       6845       6844       6954       6955       6966       6965  
      6834       6835       6846       6845       6955       6956       6967       6966  
      6835       6836       6847       6846       6956       6957       6968       6967  
      6836       6837       6848       6847       6957       6958       6969       6968  
      6837       6838       6849       6848       6958       6959       6970       6969  
      6838       6839       6850       6849       6959       6960       6971       6970  
      6839       6840       6851       6850       6960       6961       6972       6971  
      6840       6841       6852       6851       6961       6962       6973       6972  
      6841       6842       6853       6852       6962       6963       6974       6973  
      6843       6844       6855       6854       6964       6965       6976       6975  
      6844       6845       6856       6855       6965       6966       6977       6976  
      6845       6846       6857       6856       6966       6967       6978       6977  
      6846       6847       6858       6857       6967       6968       6979       6978  
      6847       6848       6859       6858       6968       6969       6980       6979  
      6848       6849       6860       6859       6969       6970       6981       6980  
      6849       6850       6861       6860       6970       6971       6982       6981  
      6850       6851       6862       6861       6971       6972       6983       6982  
      6851       6852       6863       6862       6972       6973       6984       6983  
      6852       6853       6864       6863       6973       6974       6985       6984  
      6854       6855       6866       6865       6975       6976       6987       6986  
      6855       6856       6867       6866       6976       6977       6988       6987  
      6856       6857       6868       6867       6977       6978       6989       6988  
      6857       6858       6869       6868       6978       6979       6990       6989  
      6858       6859       6870       6869       6979       6980       6991       6990  
      6859       6860       6871       6870       6980       6981       6992       6991  
      6860       6861       6872       6871       6981       6982       6993       6992  
      6861       6862       6873       6872       6982       6983       6994       6993  
      6862       6863       6874       6873       6983       6984       6995       6994  
      6863       6864       6875       6874       6984       6985       6996       6995  
      6865       6866       6877       6876       6986       6987       6998       6997  
      6866       6867       6878       6877       6987       6988       6999       6998  
      6867       6868       6879       6878       6988       6989       7000       6999  
      6868       6869       6880       6879       6989       6990       7001       7000  
      6869       6870       6881       6880       6990       6991       7002       7001  
      6870       6871       6882       6881       6991       6992       7003       7002  
      6871       6872       6883       6882       6992       6993       7004       7003  
      6872       6873       6884       6883       6993       6994       7005       7004  
      6873       6874       6885       6884       6994       6995       7006       7005  
      6874       6875       6886       6885       6995       6996       7007       7006  
      6876       6877       6888       6887       6997       6998       7009       7008  
      6877       6878       6889       6888       6998       6999       7010       7009  
      6878       6879       6890       6889       6999       7000       7011       7010  
      6879       6880       6891       6890       7000       7001       7012       7011  
      6880       6881       6892       6891       7001       7002       7013       7012  
      6881       6882       6893       6892       7002       7003       7014       7013  
      6882       6883       6894       6893       7003       7004       7015       7014  
      6883       6884       6895       6894       7004       7005       7016       7015  
      6884       6885       6896       6895       7005       7006       7017       7016  
      6885       6886       6897       6896       7006       7007       7018       7017  
      6898       6899       6910       6909       7019       7020       7031       7030  
      6899       6900       6911       6910       7020       7021       7032       7031  
      6900       6901       6912       6911       7021       7022       7033       7032  
      6901       6902       6913       6912       7022       7023       7034       7033  
      6902       6903       6914       6913       7023       7024       7035       7034  
      6903       6904       6915       6914       7024       7025       7036       7035  
      6904       6905       6916       6915       7025       7026       7037       7036  
      6905       6906       6917       6916       7026       7027       7038       7037  
      6906       6907       6918       6917       7027       7028       7039       7038  
      6907       6908       6919       6918       7028       7029       7040       7039  
      6909       6910       6921       6920       7030       7031       7042       7041  
      6910       6911       6922       6921       7031       7032       7043       7042  
      6911       6912       6923       6922       7032       7033       7044       7043  
      6912       6913       6924       6923       7033       7034       7045       7044  
      6913       6914       6925       6924       7034       7035       7046       7045  
      6914       6915       6926       6925       7035       7036       7047       7046  
      6915       6916       6927       6926       7036       7037       7048       7047  
      6916       6917       6928       6927       7037       7038       7049       7048  
      6917       6918       6929       6928       7038       7039       7050       7049  
      6918       6919       6930       6929       7039       7040       7051       7050  
      6920       6921       6932       6931       7041       7042       7053       7052  
      6921       6922       6933       6932       7042       7043       7054       7053  
      6922       6923       6934       6933       7043       7044       7055       7054  
      6923       6924       6935       6934       7044       7045       7056       7055  
      6924       6925       6936       6935       7045       7046       7057       7056  
      6925       6926       6937       6936       7046       7047       7058       7057  
      6926       6927       6938       6937       7047       7048       7059       7058  
      6927       6928       6939       6938       7048       7049       7060       7059  
      6928       6929       6940       6939       7049       7050       7061       7060  
      6929       6930       6941       6940       7050       7051       7062       7061  
      6931       6932       6943       6942       7052       7053       7064       7063  
      6932       6933       6944       6943       7053       7054       7065       7064  
      6933       6934       6945       6944       7054       7055       7066       7065  
      6934       6935       6946       6945       7055       7056       7067       7066  
      6935       6936       6947       6946       7056       7057       7068       7067  
      6936       6937       6948       6947       7057       7058       7069       7068  
      6937       6938       6949       6948       7058       7059       7070       7069  
      6938       6939       6950       6949       7059       7060       7071       7070  
      6939       6940       6951       6950       7060       7061       7072       7071  
      6940       6941       6952       6951       7061       7062       7073       7072  
      6942       6943       6954       6953       7063       7064       7075       7074  
      6943       6944       6955       6954       7064       7065       7076       7075  
      6944       6945       6956       6955       7065       7066       7077       7076  
      6945       6946       6957       6956       7066       7067       7078       7077  
      6946       6947       6958       6957       7067       7068       7079       7078  
      6947       6948       6959       6958       7068       7069       7080       7079  
      6948       6949       6960       6959       7069       7070       7081       7080  
      6949       6950       6961       6960       7070       7071       7082       7081  
      6950       6951       6962       6961       7071       7072       7083       7082  
      6951       6952       6963       6962       7072       7073       7084       7083  
      6953       6954       6965       6964       7074       7075       7086       7085  
      6954       6955       6966       6965       7075       7076       7087       7086  
      6955       6956       6967       6966       7076       7077       7088       7087  
      6956       6957       6968       6967       7077       7078       7089       7088  
      6957       6958       6969       6968       7078       7079       7090       7089  
      6958       6959       6970       6969       7079       7080       7091       7090  
      6959       6960       6971       6970       7080       7081       7092       7091  
      6960       6961       6972       6971       7081       7082       7093       7092  
      6961       6962       6973       6972       7082       7083       7094       7093  
      6962       6963       6974       6973       7083       7084       7095       7094  
      6964       6965       6976       6975       7085       7086       7097       7096  
      6965       6966       6977       6976       7086       7087       7098       7097  
      6966       6967       6978       6977       7087       7088       7099       7098  
      6967       6968       6979       6978       7088       7089       7100       7099  
      6968       6969       6980       6979       7089       7090       7101       7100  
      6969       6970       6981       6980       7090       7091       7102       7101  
      6970       6971       6982       6981       7091       7092       7103       7102  
      6971       6972       6983       6982       7092       7093       7104       7103  
      6972       6973       6984       6983       7093       7094       7105       7104  
      6973       6974       6985       6984       7094       7095       7106       7105  
      6975       6976       6987       6986       7096       7097       7108       7107  
      6976       6977       6988       6987       7097       7098       7109       7108  
      6977       6978       6989       6988       7098       7099       7110       7109  
      6978       6979       6990       6989       7099       7100       7111       7110  
      6979       6980       6991       6990       7100       7101       7112       7111  
      6980       6981       6992       6991       7101       7102       7113       7112  
      6981       6982       6993       6992       7102       7103       7114       7113  
      6982       6983       6994       6993       7103       7104       7115       7114  
      6983       6984       6995       6994       7104       7105       7116       7115  
      6984       6985       6996       6995       7105       7106       7117       7116  
      6986       6987       6998       6997       7107       7108       7119       7118  
      6987       6988       6999       6998       7108       7109       7120       7119  
      6988       6989       7000       6999       7109       7110       7121       7120  
      6989       6990       7001       7000       7110       7111       7122       7121  
      6990       6991       7002       7001       7111       7112       7123       7122  
      6991       6992       7003       7002       7112       7113       7124       7123  
      6992       6993       7004       7003       7113       7114       7125       7124  
      6993       6994       7005       7004       7114       7115       7126       7125  
      6994       6995       7006       7005       7115       7116       7127       7126  
      6995       6996       7007       7006       7116       7117       7128       7127  
      6997       6998       7009       7008       7118       7119       7130       7129  
      6998       6999       7010       7009       7119       7120       7131       7130  
      6999       7000       7011       7010       7120       7121       7132       7131  
      7000       7001       7012       7011       7121       7122       7133       7132  
      7001       7002       7013       7012       7122       7123       7134       7133  
      7002       7003       7014       7013       7123       7124       7135       7134  
      7003       7004       7015       7014       7124       7125       7136       7135  
      7004       7005       7016       7015       7125       7126       7137       7136  
      7005       7006       7017       7016       7126       7127       7138       7137  
      7006       7007       7018       7017       7127       7128       7139       7138  
      7019       7020       7031       7030       7140       7141       7152       7151  
      7020       7021       7032       7031       7141       7142       7153       7152  
      7021       7022       7033       7032       7142       7143       7154       7153  
      7022       7023       7034       7033       7143       7144       7155       7154  
      7023       7024       7035       7034       7144       7145       7156       7155  
      7024       7025       7036       7035       7145       7146       7157       7156  
      7025       7026       7037       7036       7146       7147       7158       7157  
      7026       7027       7038       7037       7147       7148       7159       7158  
      7027       7028       7039       7038       7148       7149       7160       7159  
      7028       7029       7040       7039       7149       7150       7161       7160  
      7030       7031       7042       7041       7151       7152       7163       7162  
      7031       7032       7043       7042       7152       7153       7164       7163  
      7032       7033       7044       7043       7153       7154       7165       7164  
      7033       7034       7045       7044       7154       7155       7166       7165  
      7034       7035       7046       7045       7155       7156       7167       7166  
      7035       7036       7047       7046       7156       7157       7168       7167  
      7036       7037       7048       7047       7157       7158       7169       7168  
      7037       7038       7049       7048       7158       7159       7170       7169  
      7038       7039       7050       7049       7159       7160       7171       7170  
      7039       7040       7051       7050       7160       7161       7172       7171  
      7041       7042       7053       7052       7162       7163       7174       7173  
      7042       7043       7054       7053       7163       7164       7175       7174  
      7043       7044       7055       7054       7164       7165       7176       7175  
      7044       7045       7056       7055       7165       7166       7177       7176  
      7045       7046       7057       7056       7166       7167       7178       7177  
      7046       7047       7058       7057       7167       7168       7179       7178  
      7047       7048       7059       7058       7168       7169       7180       7179  
      7048       7049       7060       7059       7169       7170       7181       7180  
      7049       7050       7061       7060       7170       7171       7182       7181  
      7050       7051       7062       7061       7171       7172       7183       7182  
      7052       7053       7064       7063       7173       7174       7185       7184  
      7053       7054       7065       7064       7174       7175       7186       7185  
      7054       7055       7066       7065       7175       7176       7187       7186  
      7055       7056       7067       7066       7176       7177       7188       7187  
      7056       7057       7068       7067       7177       7178       7189       7188  
      7057       7058       7069       7068       7178       7179       7190       7189  
      7058       7059       7070       7069       7179       7180       7191       7190  
      7059       7060       7071       7070       7180       7181       7192       7191  
      7060       7061       7072       7071       7181       7182       7193       7192  
      7061       7062       7073       7072       7182       7183       7194       7193  
      7063       7064       7075       7074       7184       7185       7196       7195  
      7064       7065       7076       7075       7185       7186       7197       7196  
      7065       7066       7077       7076       7186       7187       7198       7197  
      7066       7067       7078       7077       7187       7188       7199       7198  
      7067       7068       7079       7078       7188       7189       7200       7199  
      7068       7069       7080       7079       7189       7190       7201       7200  
      7069       7070       7081       7080       7190       7191       7202       7201  
      7070       7071       7082       7081       7191       7192       7203       7202  
      7071       7072       7083       7082       7192       7193       7204       7203  
      7072       7073       7084       7083       7193       7194       7205       7204  
      7074       7075       7086       7085       7195       7196       7207       7206  
      7075       7076       7087       7086       7196       7197       7208       7207  
      7076       7077       7088       7087       7197       7198       7209       7208  
      7077       7078       7089       7088       7198       7199       7210       7209  
      7078       7079       7090       7089       7199       7200       7211       7210  
      7079       7080       7091       7090       7200       7201       7212       7211  
      7080       7081       7092       7091       7201       7202       7213       7212  
      7081       7082       7093       7092       7202       7203       7214       7213  
      7082       7083       7094       7093       7203       7204       7215       7214  
      7083       7084       7095       7094       7204       7205       7216       7215  
      7085       7086       7097       7096       7206       7207       7218       7217  
      7086       7087       7098       7097       7207       7208       7219       7218  
      7087       7088       7099       7098       7208       7209       7220       7219  
      7088       7089       7100       7099       7209       7210       7221       7220  
      7089       7090       7101       7100       7210       7211       7222       7221  
      7090       7091       7102       7101       7211       7212       7223       7222  
      7091       7092       7103       7102       7212       7213       7224       7223  
      7092       7093       7104       7103       7213       7214       7225       7224  
      7093       7094       7105       7104       7214       7215       7226       7225  
      7094       7095       7106       7105       7215       7216       7227       7226  
      7096       7097       7108       7107       7217       7218       7229       7228  
      7097       7098       7109       7108       7218       7219       7230       7229  
      7098       7099       7110       7109       7219       7220       7231       7230  
      7099       7100       7111       7110       7220       7221       7232       7231  
      7100       7101       7112       7111       7221       7222       7233       7232  
      7101       7102       7113       7112       7222       7223       7234       7233  
      7102       7103       7114       7113       7223       7224       7235       7234  
      7103       7104       7115       7114       7224       7225       7236       7235  
      7104       7105       7116       7115       7225       7226       7237       7236  
      7105       7106       7117       7116       7226       7227       7238       7237  
      7107       7108       7119       7118       7228       7229       7240       7239  
      7108       7109       7120       7119       7229       7230       7241       7240  
      7109       7110       7121       7120       7230       7231       7242       7241  
      7110       7111       7122       7121       7231       7232       7243       7242  
      7111       7112       7123       7122       7232       7233       7244       7243  
      7112       7113       7124       7123       7233       7234       7245       7244  
      7113       7114       7125       7124       7234       7235       7246       7245  
      7114       7115       7126       7125       7235       7236       7247       7246  
      7115       7116       7127       7126       7236       7237       7248       7247  
      7116       7117       7128       7127       7237       7238       7249       7248  
      7118       7119       7130       7129       7239       7240       7251       7250  
      7119       7120       7131       7130       7240       7241       7252       7251  
      7120       7121       7132       7131       7241       7242       7253       7252  
      7121       7122       7133       7132       7242       7243       7254       7253  
      7122       7123       7134       7133       7243       7244       7255       7254  
      7123       7124       7135       7134       7244       7245       7256       7255  
      7124       7125       7136       7135       7245       7246       7257       7256  
      7125       7126       7137       7136       7246       7247       7258       7257  
      7126       7127       7138       7137       7247       7248       7259       7258  
      7127       7128       7139       7138       7248       7249       7260       7259  
      7140       7141       7152       7151       7261       7262       7273       7272  
      7141       7142       7153       7152       7262       7263       7274       7273  
      7142       7143       7154       7153       7263       7264       7275       7274  
      7143       7144       7155       7154       7264       7265       7276       7275  
      7144       7145       7156       7155       7265       7266       7277       7276  
      7145       7146       7157       7156       7266       7267       7278       7277  
      7146       7147       7158       7157       7267       7268       7279       7278  
      7147       7148       7159       7158       7268       7269       7280       7279  
      7148       7149       7160       7159       7269       7270       7281       7280  
      7149       7150       7161       7160       7270       7271       7282       7281  
      7151       7152       7163       7162       7272       7273       7284       7283  
      7152       7153       7164       7163       7273       7274       7285       7284  
      7153       7154       7165       7164       7274       7275       7286       7285  
      7154       7155       7166       7165       7275       7276       7287       7286  
      7155       7156       7167       7166       7276       7277       7288       7287  
      7156       7157       7168       7167       7277       7278       7289       7288  
      7157       7158       7169       7168       7278       7279       7290       7289  
      7158       7159       7170       7169       7279       7280       7291       7290  
      7159       7160       7171       7170       7280       7281       7292       7291  
      7160       7161       7172       7171       7281       7282       7293       7292  
      7162       7163       7174       7173       7283       7284       7295       7294  
      7163       7164       7175       7174       7284       7285       7296       7295  
      7164       7165       7176       7175       7285       7286       7297       7296  
      7165       7166       7177       7176       7286       7287       7298       7297  
      7166       7167       7178       7177       7287       7288       7299       7298  
      7167       7168       7179       7178       7288       7289       7300       7299  
      7168       7169       7180       7179       7289       7290       7301       7300  
      7169       7170       7181       7180       7290       7291       7302       7301  
      7170       7171       7182       7181       7291       7292       7303       7302  
      7171       7172       7183       7182       7292       7293       7304       7303  
      7173       7174       7185       7184       7294       7295       7306       7305  
      7174       7175       7186       7185       7295       7296       7307       7306  
      7175       7176       7187       7186       7296       7297       7308       7307  
      7176       7177       7188       7187       7297       7298       7309       7308  
      7177       7178       7189       7188       7298       7299       7310       7309  
      7178       7179       7190       7189       7299       7300       7311       7310  
      7179       7180       7191       7190       7300       7301       7312       7311  
      7180       7181       7192       7191       7301       7302       7313       7312  
      7181       7182       7193       7192       7302       7303       7314       7313  
      7182       7183       7194       7193       7303       7304       7315       7314  
      7184       7185       7196       7195       7305       7306       7317       7316  
      7185       7186       7197       7196       7306       7307       7318       7317  
      7186       7187       7198       7197       7307       7308       7319       7318  
      7187       7188       7199       7198       7308       7309       7320       7319  
      7188       7189       7200       7199       7309       7310       7321       7320  
      7189       7190       7201       7200       7310       7311       7322       7321  
      7190       7191       7202       7201       7311       7312       7323       7322  
      7191       7192       7203       7202       7312       7313       7324       7323  
      7192       7193       7204       7203       7313       7314       7325       7324  
      7193       7194       7205       7204       7314       7315       7326       7325  
      7195       7196       7207       7206       7316       7317       7328       7327  
      7196       7197       7208       7207       7317       7318       7329       7328  
      7197       7198       7209       7208       7318       7319       7330       7329  
      7198       7199       7210       7209       7319       7320       7331       7330  
      7199       7200       7211       7210       7320       7321       7332       7331  
      7200       7201       7212       7211       7321       7322       7333       7332  
      7201       7202       7213       7212       7322       7323       7334       7333  
      7202       7203       7214       7213       7323       7324       7335       7334  
      7203       7204       7215       7214       7324       7325       7336       7335  
      7204       7205       7216       7215       7325       7326       7337       7336  
      7206       7207       7218       7217       7327       7328       7339       7338  
      7207       7208       7219       7218       7328       7329       7340       7339  
      7208       7209       7220       7219       7329       7330       7341       7340  
      7209       7210       7221       7220       7330       7331       7342       7341  
      7210       7211       7222       7221       7331       7332       7343       7342  
      7211       7212       7223       7222       7332       7333       7344       7343  
      7212       7213       7224       7223       7333       7334       7345       7344  
      7213       7214       7225       7224       7334       7335       7346       7345  
      7214       7215       7226       7225       7335       7336       7347       7346  
      7215       7216       7227       7226       7336       7337       7348       7347  
      7217       7218       7229       7228       7338       7339       7350       7349  
      7218       7219       7230       7229       7339       7340       7351       7350  
      7219       7220       7231       7230       7340       7341       7352       7351  
      7220       7221       7232       7231       7341       7342       7353       7352  
      7221       7222       7233       7232       7342       7343       7354       7353  
      7222       7223       7234       7233       7343       7344       7355       7354  
      7223       7224       7235       7234       7344       7345       7356       7355  
      7224       7225       7236       7235       7345       7346       7357       7356  
      7225       7226       7237       7236       7346       7347       7358       7357  
      7226       7227       7238       7237       7347       7348       7359       7358  
      7228       7229       7240       7239       7349       7350       7361       7360  
      7229       7230       7241       7240       7350       7351       7362       7361  
      7230       7231       7242       7241       7351       7352       7363       7362  
      7231       7232       7243       7242       7352       7353       7364       7363  
      7232       7233       7244       7243       7353       7354       7365       7364  
      7233       7234       7245       7244       7354       7355       7366       7365  
      7234       7235       7246       7245       7355       7356       7367       7366  
      7235       7236       7247       7246       7356       7357       7368       7367  
      7236       7237       7248       7247       7357       7358       7369       7368  
      7237       7238       7249       7248       7358       7359       7370       7369  
      7239       7240       7251       7250       7360       7361       7372       7371  
      7240       7241       7252       7251       7361       7362       7373       7372  
      7241       7242       7253       7252       7362       7363       7374       7373  
      7242       7243       7254       7253       7363       7364       7375       7374  
      7243       7244       7255       7254       7364       7365       7376       7375  
      7244       7245       7256       7255       7365       7366       7377       7376  
      7245       7246       7257       7256       7366       7367       7378       7377  
      7246       7247       7258       7257       7367       7368       7379       7378  
      7247       7248       7259       7258       7368       7369       7380       7379  
      7248       7249       7260       7259       7369       7370       7381       7380  
      7261       7262       7273       7272       7382       7383       7394       7393  
      7262       7263       7274       7273       7383       7384       7395       7394  
      7263       7264       7275       7274       7384       7385       7396       7395  
      7264       7265       7276       7275       7385       7386       7397       7396  
      7265       7266       7277       7276       7386       7387       7398       7397  
      7266       7267       7278       7277       7387       7388       7399       7398  
      7267       7268       7279       7278       7388       7389       7400       7399  
      7268       7269       7280       7279       7389       7390       7401       7400  
      7269       7270       7281       7280       7390       7391       7402       7401  
      7270       7271       7282       7281       7391       7392       7403       7402  
      7272       7273       7284       7283       7393       7394       7405       7404  
      7273       7274       7285       7284       7394       7395       7406       7405  
      7274       7275       7286       7285       7395       7396       7407       7406  
      7275       7276       7287       7286       7396       7397       7408       7407  
      7276       7277       7288       7287       7397       7398       7409       7408  
      7277       7278       7289       7288       7398       7399       7410       7409  
      7278       7279       7290       7289       7399       7400       7411       7410  
      7279       7280       7291       7290       7400       7401       7412       7411  
      7280       7281       7292       7291       7401       7402       7413       7412  
      7281       7282       7293       7292       7402       7403       7414       7413  
      7283       7284       7295       7294       7404       7405       7416       7415  
      7284       7285       7296       7295       7405       7406       7417       7416  
      7285       7286       7297       7296       7406       7407       7418       7417  
      7286       7287       7298       7297       7407       7408       7419       7418  
      7287       7288       7299       7298       7408       7409       7420       7419  
      7288       7289       7300       7299       7409       7410       7421       7420  
      7289       7290       7301       7300       7410       7411       7422       7421  
      7290       7291       7302       7301       7411       7412       7423       7422  
      7291       7292       7303       7302       7412       7413       7424       7423  
      7292       7293       7304       7303       7413       7414       7425       7424  
      7294       7295       7306       7305       7415       7416       7427       7426  
      7295       7296       7307       7306       7416       7417       7428       7427  
      7296       7297       7308       7307       7417       7418       7429       7428  
      7297       7298       7309       7308       7418       7419       7430       7429  
      7298       7299       7310       7309       7419       7420       7431       7430  
      7299       7300       7311       7310       7420       7421       7432       7431  
      7300       7301       7312       7311       7421       7422       7433       7432  
      7301       7302       7313       7312       7422       7423       7434       7433  
      7302       7303       7314       7313       7423       7424       7435       7434  
      7303       7304       7315       7314       7424       7425       7436       7435  
      7305       7306       7317       7316       7426       7427       7438       7437  
      7306       7307       7318       7317       7427       7428       7439       7438  
      7307       7308       7319       7318       7428       7429       7440       7439  
      7308       7309       7320       7319       7429       7430       7441       7440  
      7309       7310       7321       7320       7430       7431       7442       7441  
      7310       7311       7322       7321       7431       7432       7443       7442  
      7311       7312       7323       7322       7432       7433       7444       7443  
      7312       7313       7324       7323       7433       7434       7445       7444  
      7313       7314       7325       7324       7434       7435       7446       7445  
      7314       7315       7326       7325       7435       7436       7447       7446  
      7316       7317       7328       7327       7437       7438       7449       7448  
      7317       7318       7329       7328       7438       7439       7450       7449  
      7318       7319       7330       7329       7439       7440       7451       7450  
      7319       7320       7331       7330       7440       7441       7452       7451  
      7320       7321       7332       7331       7441       7442       7453       7452  
      7321       7322       7333       7332       7442       7443       7454       7453  
      7322       7323       7334       7333       7443       7444       7455       7454  
      7323       7324       7335       7334       7444       7445       7456       7455  
      7324       7325       7336       7335       7445       7446       7457       7456  
      7325       7326       7337       7336       7446       7447       7458       7457  
      7327       7328       7339       7338       7448       7449       7460       7459  
      7328       7329       7340       7339       7449       7450       7461       7460  
      7329       7330       7341       7340       7450       7451       7462       7461  
      7330       7331       7342       7341       7451       7452       7463       7462  
      7331       7332       7343       7342       7452       7453       7464       7463  
      7332       7333       7344       7343       7453       7454       7465       7464  
      7333       7334       7345       7344       7454       7455       7466       7465  
      7334       7335       7346       7345       7455       7456       7467       7466  
      7335       7336       7347       7346       7456       7457       7468       7467  
      7336       7337       7348       7347       7457       7458       7469       7468  
      7338       7339       7350       7349       7459       7460       7471       7470  
      7339       7340       7351       7350       7460       7461       7472       7471  
      7340       7341       7352       7351       7461       7462       7473       7472  
      7341       7342       7353       7352       7462       7463       7474       7473  
      7342       7343       7354       7353       7463       7464       7475       7474  
      7343       7344       7355       7354       7464       7465       7476       7475  
      7344       7345       7356       7355       7465       7466       7477       7476  
      7345       7346       7357       7356       7466       7467       7478       7477  
      7346       7347       7358       7357       7467       7468       7479       7478  
      7347       7348       7359       7358       7468       7469       7480       7479  
      7349       7350       7361       7360       7470       7471       7482       7481  
      7350       7351       7362       7361       7471       7472       7483       7482  
      7351       7352       7363       7362       7472       7473       7484       7483  
      7352       7353       7364       7363       7473       7474       7485       7484  
      7353       7354       7365       7364       7474       7475       7486       7485  
      7354       7355       7366       7365       7475       7476       7487       7486  
      7355       7356       7367       7366       7476       7477       7488       7487  
      7356       7357       7368       7367       7477       7478       7489       7488  
      7357       7358       7369       7368       7478       7479       7490       7489  
      7358       7359       7370       7369       7479       7480       7491       7490  
      7360       7361       7372       7371       7481       7482       7493       7492  
      7361       7362       7373       7372       7482       7483       7494       7493  
      7362       7363       7374       7373       7483       7484       7495       7494  
      7363       7364       7375       7374       7484       7485       7496       7495  
      7364       7365       7376       7375       7485       7486       7497       7496  
      7365       7366       7377       7376       7486       7487       7498       7497  
      7366       7367       7378       7377       7487       7488       7499       7498  
      7367       7368       7379       7378       7488       7489       7500       7499  
      7368       7369       7380       7379       7489       7490       7501       7500  
      7369       7370       7381       7380       7490       7491       7502       7501  
      7382       7383       7394       7393       7503       7504       7515       7514  
      7383       7384       7395       7394       7504       7505       7516       7515  
      7384       7385       7396       7395       7505       7506       7517       7516  
      7385       7386       7397       7396       7506       7507       7518       7517  
      7386       7387       7398       7397       7507       7508       7519       7518  
      7387       7388       7399       7398       7508       7509       7520       7519  
      7388       7389       7400       7399       7509       7510       7521       7520  
      7389       7390       7401       7400       7510       7511       7522       7521  
      7390       7391       7402       7401       7511       7512       7523       7522  
      7391       7392       7403       7402       7512       7513       7524       7523  
      7393       7394       7405       7404       7514       7515       7526       7525  
      7394       7395       7406       7405       7515       7516       7527       7526  
      7395       7396       7407       7406       7516       7517       7528       7527  
      7396       7397       7408       7407       7517       7518       7529       7528  
      7397       7398       7409       7408       7518       7519       7530       7529  
      7398       7399       7410       7409       7519       7520       7531       7530  
      7399       7400       7411       7410       7520       7521       7532       7531  
      7400       7401       7412       7411       7521       7522       7533       7532  
      7401       7402       7413       7412       7522       7523       7534       7533  
      7402       7403       7414       7413       7523       7524       7535       7534  
      7404       7405       7416       7415       7525       7526       7537       7536  
      7405       7406       7417       7416       7526       7527       7538       7537  
      7406       7407       7418       7417       7527       7528       7539       7538  
      7407       7408       7419       7418       7528       7529       7540       7539  
      7408       7409       7420       7419       7529       7530       7541       7540  
      7409       7410       7421       7420       7530       7531       7542       7541  
      7410       7411       7422       7421       7531       7532       7543       7542  
      7411       7412       7423       7422       7532       7533       7544       7543  
      7412       7413       7424       7423       7533       7534       7545       7544  
      7413       7414       7425       7424       7534       7535       7546       7545  
      7415       7416       7427       7426       7536       7537       7548       7547  
      7416       7417       7428       7427       7537       7538       7549       7548  
      7417       7418       7429       7428       7538       7539       7550       7549  
      7418       7419       7430       7429       7539       7540       7551       7550  
      7419       7420       7431       7430       7540       7541       7552       7551  
      7420       7421       7432       7431       7541       7542       7553       7552  
      7421       7422       7433       7432       7542       7543       7554       7553  
      7422       7423       7434       7433       7543       7544       7555       7554  
      7423       7424       7435       7434       7544       7545       7556       7555  
      7424       7425       7436       7435       7545       7546       7557       7556  
      7426       7427       7438       7437       7547       7548       7559       7558  
      7427       7428       7439       7438       7548       7549       7560       7559  
      7428       7429       7440       7439       7549       7550       7561       7560  
      7429       7430       7441       7440       7550       7551       7562       7561  
      7430       7431       7442       7441       7551       7552       7563       7562  
      7431       7432       7443       7442       7552       7553       7564       7563  
      7432       7433       7444       7443       7553       7554       7565       7564  
      7433       7434       7445       7444       7554       7555       7566       7565  
      7434       7435       7446       7445       7555       7556       7567       7566  
      7435       7436       7447       7446       7556       7557       7568       7567  
      7437       7438       7449       7448       7558       7559       7570       7569  
      7438       7439       7450       7449       7559       7560       7571       7570  
      7439       7440       7451       7450       7560       7561       7572       7571  
      7440       7441       7452       7451       7561       7562       7573       7572  
      7441       7442       7453       7452       7562       7563       7574       7573  
      7442       7443       7454       7453       7563       7564       7575       7574  
      7443       7444       7455       7454       7564       7565       7576       7575  
      7444       7445       7456       7455       7565       7566       7577       7576  
      7445       7446       7457       7456       7566       7567       7578       7577  
      7446       7447       7458       7457       7567       7568       7579       7578  
      7448       7449       7460       7459       7569       7570       7581       7580  
      7449       7450       7461       7460       7570       7571       7582       7581  
      7450       7451       7462       7461       7571       7572       7583       7582  
      7451       7452       7463       7462       7572       7573       7584       7583  
      7452       7453       7464       7463       7573       7574       7585       7584  
      7453       7454       7465       7464       7574       7575       7586       7585  
      7454       7455       7466       7465       7575       7576       7587       7586  
      7455       7456       7467       7466       7576       7577       7588       7587  
      7456       7457       7468       7467       7577       7578       7589       7588  
      7457       7458       7469       7468       7578       7579       7590       7589  
      7459       7460       7471       7470       7580       7581       7592       7591  
      7460       7461       7472       7471       7581       7582       7593       7592  
      7461       7462       7473       7472       7582       7583       7594       7593  
      7462       7463       7474       7473       7583       7584       7595       7594  
      7463       7464       7475       7474       7584       7585       7596       7595  
      7464       7465       7476       7475       7585       7586       7597       7596  
      7465       7466       7477       7476       7586       7587       7598       7597  
      7466       7467       7478       7477       7587       7588       7599       7598  
      7467       7468       7479       7478       7588       7589       7600       7599  
      7468       7469       7480       7479       7589       7590       7601       7600  
      7470       7471       7482       7481       7591       7592       7603       7602  
      7471       7472       7483       7482       7592       7593       7604       7603  
      7472       7473       7484       7483       7593       7594       7605       7604  
      7473       7474       7485       7484       7594       7595       7606       7605  
      7474       7475       7486       7485       7595       7596       7607       7606  
      7475       7476       7487       7486       7596       7597       7608       7607  
      7476       7477       7488       7487       7597       7598       7609       7608  
      7477       7478       7489       7488       7598       7599       7610       7609  
      7478       7479       7490       7489       7599       7600       7611       7610  
      7479       7480       7491       7490       7600       7601       7612       7611  
      7481       7482       7493       7492       7602       7603       7614       7613  
      7482       7483       7494       7493       7603       7604       7615       7614  
      7483       7484       7495       7494       7604       7605       7616       7615  
      7484       7485       7496       7495       7605       7606       7617       7616  
      7485       7486       7497       7496       7606       7607       7618       7617  
      7486       7487       7498       7497       7607       7608       7619       7618  
      7487       7488       7499       7498       7608       7609       7620       7619  
      7488       7489       7500       7499       7609       7610       7621       7620  
      7489       7490       7501       7500       7610       7611       7622       7621  
      7490       7491       7502       7501       7611       7612       7623       7622  
      7503       7504       7515       7514       7624       7625       7636       7635  
      7504       7505       7516       7515       7625       7626       7637       7636  
      7505       7506       7517       7516       7626       7627       7638       7637  
      7506       7507       7518       7517       7627       7628       7639       7638  
      7507       7508       7519       7518       7628       7629       7640       7639  
      7508       7509       7520       7519       7629       7630       7641       7640  
      7509       7510       7521       7520       7630       7631       7642       7641  
      7510       7511       7522       7521       7631       7632       7643       7642  
      7511       7512       7523       7522       7632       7633       7644       7643  
      7512       7513       7524       7523       7633       7634       7645       7644  
      7514       7515       7526       7525       7635       7636       7647       7646  
      7515       7516       7527       7526       7636       7637       7648       7647  
      7516       7517       7528       7527       7637       7638       7649       7648  
      7517       7518       7529       7528       7638       7639       7650       7649  
      7518       7519       7530       7529       7639       7640       7651       7650  
      7519       7520       7531       7530       7640       7641       7652       7651  
      7520       7521       7532       7531       7641       7642       7653       7652  
      7521       7522       7533       7532       7642       7643       7654       7653  
      7522       7523       7534       7533       7643       7644       7655       7654  
      7523       7524       7535       7534       7644       7645       7656       7655  
      7525       7526       7537       7536       7646       7647       7658       7657  
      7526       7527       7538       7537       7647       7648       7659       7658  
      7527       7528       7539       7538       7648       7649       7660       7659  
      7528       7529       7540       7539       7649       7650       7661       7660  
      7529       7530       7541       7540       7650       7651       7662       7661  
      7530       7531       7542       7541       7651       7652       7663       7662  
      7531       7532       7543       7542       7652       7653       7664       7663  
      7532       7533       7544       7543       7653       7654       7665       7664  
      7533       7534       7545       7544       7654       7655       7666       7665  
      7534       7535       7546       7545       7655       7656       7667       7666  
      7536       7537       7548       7547       7657       7658       7669       7668  
      7537       7538       7549       7548       7658       7659       7670       7669  
      7538       7539       7550       7549       7659       7660       7671       7670  
      7539       7540       7551       7550       7660       7661       7672       7671  
      7540       7541       7552       7551       7661       7662       7673       7672  
      7541       7542       7553       7552       7662       7663       7674       7673  
      7542       7543       7554       7553       7663       7664       7675       7674  
      7543       7544       7555       7554       7664       7665       7676       7675  
      7544       7545       7556       7555       7665       7666       7677       7676  
      7545       7546       7557       7556       7666       7667       7678       7677  
      7547       7548       7559       7558       7668       7669       7680       7679  
      7548       7549       7560       7559       7669       7670       7681       7680  
      7549       7550       7561       7560       7670       7671       7682       7681  
      7550       7551       7562       7561       7671       7672       7683       7682  
      7551       7552       7563       7562       7672       7673       7684       7683  
      7552       7553       7564       7563       7673       7674       7685       7684  
      7553       7554       7565       7564       7674       7675       7686       7685  
      7554       7555       7566       7565       7675       7676       7687       7686  
      7555       7556       7567       7566       7676       7677       7688       7687  
      7556       7557       7568       7567       7677       7678       7689       7688  
      7558       7559       7570       7569       7679       7680       7691       7690  
      7559       7560       7571       7570       7680       7681       7692       7691  
      7560       7561       7572       7571       7681       7682       7693       7692  
      7561       7562       7573       7572       7682       7683       7694       7693  
      7562       7563       7574       7573       7683       7684       7695       7694  
      7563       7564       7575       7574       7684       7685       7696       7695  
      7564       7565       7576       7575       7685       7686       7697       7696  
      7565       7566       7577       7576       7686       7687       7698       7697  
      7566       7567       7578       7577       7687       7688       7699       7698  
      7567       7568       7579       7578       7688       7689       7700       7699  
      7569       7570       7581       7580       7690       7691       7702       7701  
      7570       7571       7582       7581       7691       7692       7703       7702  
      7571       7572       7583       7582       7692       7693       7704       7703  
      7572       7573       7584       7583       7693       7694       7705       7704  
      7573       7574       7585       7584       7694       7695       7706       7705  
      7574       7575       7586       7585       7695       7696       7707       7706  
      7575       7576       7587       7586       7696       7697       7708       7707  
      7576       7577       7588       7587       7697       7698       7709       7708  
      7577       7578       7589       7588       7698       7699       7710       7709  
      7578       7579       7590       7589       7699       7700       7711       7710  
      7580       7581       7592       7591       7701       7702       7713       7712  
      7581       7582       7593       7592       7702       7703       7714       7713  
      7582       7583       7594       7593       7703       7704       7715       7714  
      7583       7584       7595       7594       7704       7705       7716       7715  
      7584       7585       7596       7595       7705       7706       7717       7716  
      7585       7586       7597       7596       7706       7707       7718       7717  
      7586       7587       7598       7597       7707       7708       7719       7718  
      7587       7588       7599       7598       7708       7709       7720       7719  
      7588       7589       7600       7599       7709       7710       7721       7720  
      7589       7590       7601       7600       7710       7711       7722       7721  
      7591       7592       7603       7602       7712       7713       7724       7723  
      7592       7593       7604       7603       7713       7714       7725       7724  
      7593       7594       7605       7604       7714       7715       7726       7725  
      7594       7595       7606       7605       7715       7716       7727       7726  
      7595       7596       7607       7606       7716       7717       7728       7727  
      7596       7597       7608       7607       7717       7718       7729       7728  
      7597       7598       7609       7608       7718       7719       7730       7729  
      7598       7599       7610       7609       7719       7720       7731       7730  
      7599       7600       7611       7610       7720       7721       7732       7731  
      7600       7601       7612       7611       7721       7722       7733       7732  
      7602       7603       7614       7613       7723       7724       7735       7734  
      7603       7604       7615       7614       7724       7725       7736       7735  
      7604       7605       7616       7615       7725       7726       7737       7736  
      7605       7606       7617       7616       7726       7727       7738       7737  
      7606       7607       7618       7617       7727       7728       7739       7738  
      7607       7608       7619       7618       7728       7729       7740       7739  
      7608       7609       7620       7619       7729       7730       7741       7740  
      7609       7610       7621       7620       7730       7731       7742       7741  
      7610       7611       7622       7621       7731       7732       7743       7742  
      7611       7612       7623       7622       7732       7733       7744       7743  
      7624       7625       7636       7635       7745       7746       7757       7756  
      7625       7626       7637       7636       7746       7747       7758       7757  
      7626       7627       7638       7637       7747       7748       7759       7758  
      7627       7628       7639       7638       7748       7749       7760       7759  
      7628       7629       7640       7639       7749       7750       7761       7760  
      7629       7630       7641       7640       7750       7751       7762       7761  
      7630       7631       7642       7641       7751       7752       7763       7762  
      7631       7632       7643       7642       7752       7753       7764       7763  
      7632       7633       7644       7643       7753       7754       7765       7764  
      7633       7634       7645       7644       7754       7755       7766       7765  
      7635       7636       7647       7646       7756       7757       7768       7767  
      7636       7637       7648       7647       7757       7758       7769       7768  
      7637       7638       7649       7648       7758       7759       7770       7769  
      7638       7639       7650       7649       7759       7760       7771       7770  
      7639       7640       7651       7650       7760       7761       7772       7771  
      7640       7641       7652       7651       7761       7762       7773       7772  
      7641       7642       7653       7652       7762       7763       7774       7773  
      7642       7643       7654       7653       7763       7764       7775       7774  
      7643       7644       7655       7654       7764       7765       7776       7775  
      7644       7645       7656       7655       7765       7766       7777       7776  
      7646       7647       7658       7657       7767       7768       7779       7778  
      7647       7648       7659       7658       7768       7769       7780       7779  
      7648       7649       7660       7659       7769       7770       7781       7780  
      7649       7650       7661       7660       7770       7771       7782       7781  
      7650       7651       7662       7661       7771       7772       7783       7782  
      7651       7652       7663       7662       7772       7773       7784       7783  
      7652       7653       7664       7663       7773       7774       7785       7784  
      7653       7654       7665       7664       7774       7775       7786       7785  
      7654       7655       7666       7665       7775       7776       7787       7786  
      7655       7656       7667       7666       7776       7777       7788       7787  
      7657       7658       7669       7668       7778       7779       7790       7789  
      7658       7659       7670       7669       7779       7780       7791       7790  
      7659       7660       7671       7670       7780       7781       7792       7791  
      7660       7661       7672       7671       7781       7782       7793       7792  
      7661       7662       7673       7672       7782       7783       7794       7793  
      7662       7663       7674       7673       7783       7784       7795       7794  
      7663       7664       7675       7674       7784       7785       7796       7795  
      7664       7665       7676       7675       7785       7786       7797       7796  
      7665       7666       7677       7676       7786       7787       7798       7797  
      7666       7667       7678       7677       7787       7788       7799       7798  
      7668       7669       7680       7679       7789       7790       7801       7800  
      7669       7670       7681       7680       7790       7791       7802       7801  
      7670       7671       7682       7681       7791       7792       7803       7802  
      7671       7672       7683       7682       7792       7793       7804       7803  
      7672       7673       7684       7683       7793       7794       7805       7804  
      7673       7674       7685       7684       7794       7795       7806       7805  
      7674       7675       7686       7685       7795       7796       7807       7806  
      7675       7676       7687       7686       7796       7797       7808       7807  
      7676       7677       7688       7687       7797       7798       7809       7808  
      7677       7678       7689       7688       7798       7799       7810       7809  
      7679       7680       7691       7690       7800       7801       7812       7811  
      7680       7681       7692       7691       7801       7802       7813       7812  
      7681       7682       7693       7692       7802       7803       7814       7813  
      7682       7683       7694       7693       7803       7804       7815       7814  
      7683       7684       7695       7694       7804       7805       7816       7815  
      7684       7685       7696       7695       7805       7806       7817       7816  
      7685       7686       7697       7696       7806       7807       7818       7817  
      7686       7687       7698       7697       7807       7808       7819       7818  
      7687       7688       7699       7698       7808       7809       7820       7819  
      7688       7689       7700       7699       7809       7810       7821       7820  
      7690       7691       7702       7701       7811       7812       7823       7822  
      7691       7692       7703       7702       7812       7813       7824       7823  
      7692       7693       7704       7703       7813       7814       7825       7824  
      7693       7694       7705       7704       7814       7815       7826       7825  
      7694       7695       7706       7705       7815       7816       7827       7826  
      7695       7696       7707       7706       7816       7817       7828       7827  
      7696       7697       7708       7707       7817       7818       7829       7828  
      7697       7698       7709       7708       7818       7819       7830       7829  
      7698       7699       7710       7709       7819       7820       7831       7830  
      7699       7700       7711       7710       7820       7821       7832       7831  
      7701       7702       7713       7712       7822       7823       7834       7833  
      7702       7703       7714       7713       7823       7824       7835       7834  
      7703       7704       7715       7714       7824       7825       7836       7835  
      7704       7705       7716       7715       7825       7826       7837       7836  
      7705       7706       7717       7716       7826       7827       7838       7837  
      7706       7707       7718       7717       7827       7828       7839       7838  
      7707       7708       7719       7718       7828       7829       7840       7839  
      7708       7709       7720       7719       7829       7830       7841       7840  
      7709       7710       7721       7720       7830       7831       7842       7841  
      7710       7711       7722       7721       7831       7832       7843       7842  
      7712       7713       7724       7723       7833       7834       7845       7844  
      7713       7714       7725       7724       7834       7835       7846       7845  
      7714       7715       7726       7725       7835       7836       7847       7846  
      7715       7716       7727       7726       7836       7837       7848       7847  
      7716       7717       7728       7727       7837       7838       7849       7848  
      7717       7718       7729       7728       7838       7839       7850       7849  
      7718       7719       7730       7729       7839       7840       7851       7850  
      7719       7720       7731       7730       7840       7841       7852       7851  
      7720       7721       7732       7731       7841       7842       7853       7852  
      7721       7722       7733       7732       7842       7843       7854       7853  
      7723       7724       7735       7734       7844       7845       7856       7855  
      7724       7725       7736       7735       7845       7846       7857       7856  
      7725       7726       7737       7736       7846       7847       7858       7857  
      7726       7727       7738       7737       7847       7848       7859       7858  
      7727       7728       7739       7738       7848       7849       7860       7859  
      7728       7729       7740       7739       7849       7850       7861       7860  
      7729       7730       7741       7740       7850       7851       7862       7861  
      7730       7731       7742       7741       7851       7852       7863       7862  
      7731       7732       7743       7742       7852       7853       7864       7863  
      7732       7733       7744       7743       7853       7854       7865       7864  
      7745       7746       7757       7756       7866       7867       7878       7877  
      7746       7747       7758       7757       7867       7868       7879       7878  
      7747       7748       7759       7758       7868       7869       7880       7879  
      7748       7749       7760       7759       7869       7870       7881       7880  
      7749       7750       7761       7760       7870       7871       7882       7881  
      7750       7751       7762       7761       7871       7872       7883       7882  
      7751       7752       7763       7762       7872       7873       7884       7883  
      7752       7753       7764       7763       7873       7874       7885       7884  
      7753       7754       7765       7764       7874       7875       7886       7885  
      7754       7755       7766       7765       7875       7876       7887       7886  
      7756       7757       7768       7767       7877       7878       7889       7888  
      7757       7758       7769       7768       7878       7879       7890       7889  
      7758       7759       7770       7769       7879       7880       7891       7890  
      7759       7760       7771       7770       7880       7881       7892       7891  
      7760       7761       7772       7771       7881       7882       7893       7892  
      7761       7762       7773       7772       7882       7883       7894       7893  
      7762       7763       7774       7773       7883       7884       7895       7894  
      7763       7764       7775       7774       7884       7885       7896       7895  
      7764       7765       7776       7775       7885       7886       7897       7896  
      7765       7766       7777       7776       7886       7887       7898       7897  
      7767       7768       7779       7778       7888       7889       7900       7899  
      7768       7769       7780       7779       7889       7890       7901       7900  
      7769       7770       7781       7780       7890       7891       7902       7901  
      7770       7771       7782       7781       7891       7892       7903       7902  
      7771       7772       7783       7782       7892       7893       7904       7903  
      7772       7773       7784       7783       7893       7894       7905       7904  
      7773       7774       7785       7784       7894       7895       7906       7905  
      7774       7775       7786       7785       7895       7896       7907       7906  
      7775       7776       7787       7786       7896       7897       7908       7907  
      7776       7777       7788       7787       7897       7898       7909       7908  
      7778       7779       7790       7789       7899       7900       7911       7910  
      7779       7780       7791       7790       7900       7901       7912       7911  
      7780       7781       7792       7791       7901       7902       7913       7912  
      7781       7782       7793       7792       7902       7903       7914       7913  
      7782       7783       7794       7793       7903       7904       7915       7914  
      7783       7784       7795       7794       7904       7905       7916       7915  
      7784       7785       7796       7795       7905       7906       7917       7916  
      7785       7786       7797       7796       7906       7907       7918       7917  
      7786       7787       7798       7797       7907       7908       7919       7918  
      7787       7788       7799       7798       7908       7909       7920       7919  
      7789       7790       7801       7800       7910       7911       7922       7921  
      7790       7791       7802       7801       7911       7912       7923       7922  
      7791       7792       7803       7802       7912       7913       7924       7923  
      7792       7793       7804       7803       7913       7914       7925       7924  
      7793       7794       7805       7804       7914       7915       7926       7925  
      7794       7795       7806       7805       7915       7916       7927       7926  
      7795       7796       7807       7806       7916       7917       7928       7927  
      7796       7797       7808       7807       7917       7918       7929       7928  
      7797       7798       7809       7808       7918       7919       7930       7929  
      7798       7799       7810       7809       7919       7920       7931       7930  
      7800       7801       7812       7811       7921       7922       7933       7932  
      7801       7802       7813       7812       7922       7923       7934       7933  
      7802       7803       7814       7813       7923       7924       7935       7934  
      7803       7804       7815       7814       7924       7925       7936       7935  
      7804       7805       7816       7815       7925       7926       7937       7936  
      7805       7806       7817       7816       7926       7927       7938       7937  
      7806       7807       7818       7817       7927       7928       7939       7938  
      7807       7808       7819       7818       7928       7929       7940       7939  
      7808       7809       7820       7819       7929       7930       7941       7940  
      7809       7810       7821       7820       7930       7931       7942       7941  
      7811       7812       7823       7822       7932       7933       7944       7943  
      7812       7813       7824       7823       7933       7934       7945       7944  
      7813       7814       7825       7824       7934       7935       7946       7945  
      7814       7815       7826       7825       7935       7936       7947       7946  
      7815       7816       7827       7826       7936       7937       7948       7947  
      7816       7817       7828       7827       7937       7938       7949       7948  
      7817       7818       7829       7828       7938       7939       7950       7949  
      7818       7819       7830       7829       7939       7940       7951       7950  
      7819       7820       7831       7830       7940       7941       7952       7951  
      7820       7821       7832       7831       7941       7942       7953       7952  
      7822       7823       7834       7833       7943       7944       7955       7954  
      7823       7824       7835       7834       7944       7945       7956       7955  
      7824       7825       7836       7835       7945       7946       7957       7956  
      7825       7826       7837       7836       7946       7947       7958       7957  
      7826       7827       7838       7837       7947       7948       7959       7958  
      7827       7828       7839       7838       7948       7949       7960       7959  
      7828       7829       7840       7839       7949       7950       7961       7960  
      7829       7830       7841       7840       7950       7951       7962       7961  
      7830       7831       7842       7841       7951       7952       7963       7962  
      7831       7832       7843       7842       7952       7953       7964       7963  
      7833       7834       7845       7844       7954       7955       7966       7965  
      7834       7835       7846       7845       7955       7956       7967       7966  
      7835       7836       7847       7846       7956       7957       7968       7967  
      7836       7837       7848       7847       7957       7958       7969       7968  
      7837       7838       7849       7848       7958       7959       7970       7969  
      7838       7839       7850       7849       7959       7960       7971       7970  
      7839       7840       7851       7850       7960       7961       7972       7971  
      7840       7841       7852       7851       7961       7962       7973       7972  
      7841       7842       7853       7852       7962       7963       7974       7973  
      7842       7843       7854       7853       7963       7964       7975       7974  
      7844       7845       7856       7855       7965       7966       7977       7976  
      7845       7846       7857       7856       7966       7967       7978       7977  
      7846       7847       7858       7857       7967       7968       7979       7978  
      7847       7848       7859       7858       7968       7969       7980       7979  
      7848       7849       7860       7859       7969       7970       7981       7980  
      7849       7850       7861       7860       7970       7971       7982       7981  
      7850       7851       7862       7861       7971       7972       7983       7982  
      7851       7852       7863       7862       7972       7973       7984       7983  
      7852       7853       7864       7863       7973       7974       7985       7984  
      7853       7854       7865       7864       7974       7975       7986       7985  
      7866       7867       7878       7877       7987       7988       7999       7998  
      7867       7868       7879       7878       7988       7989       8000       7999  
      7868       7869       7880       7879       7989       7990       8001       8000  
      7869       7870       7881       7880       7990       7991       8002       8001  
      7870       7871       7882       7881       7991       7992       8003       8002  
      7871       7872       7883       7882       7992       7993       8004       8003  
      7872       7873       7884       7883       7993       7994       8005       8004  
      7873       7874       7885       7884       7994       7995       8006       8005  
      7874       7875       7886       7885       7995       7996       8007       8006  
      7875       7876       7887       7886       7996       7997       8008       8007  
      7877       7878       7889       7888       7998       7999       8010       8009  
      7878       7879       7890       7889       7999       8000       8011       8010  
      7879       7880       7891       7890       8000       8001       8012       8011  
      7880       7881       7892       7891       8001       8002       8013       8012  
      7881       7882       7893       7892       8002       8003       8014       8013  
      7882       7883       7894       7893       8003       8004       8015       8014  
      7883       7884       7895       7894       8004       8005       8016       8015  
      7884       7885       7896       7895       8005       8006       8017       8016  
      7885       7886       7897       7896       8006       8007       8018       8017  
      7886       7887       7898       7897       8007       8008       8019       8018  
      7888       7889       7900       7899       8009       8010       8021       8020  
      7889       7890       7901       7900       8010       8011       8022       8021  
      7890       7891       7902       7901       8011       8012       8023       8022  
      7891       7892       7903       7902       8012       8013       8024       8023  
      7892       7893       7904       7903       8013       8014       8025       8024  
      7893       7894       7905       7904       8014       8015       8026       8025  
      7894       7895       7906       7905       8015       8016       8027       8026  
      7895       7896       7907       7906       8016       8017       8028       8027  
      7896       7897       7908       7907       8017       8018       8029       8028  
      7897       7898       7909       7908       8018       8019       8030       8029  
      7899       7900       7911       7910       8020       8021       8032       8031  
      7900       7901       7912       7911       8021       8022       8033       8032  
      7901       7902       7913       7912       8022       8023       8034       8033  
      7902       7903       7914       7913       8023       8024       8035       8034  
      7903       7904       7915       7914       8024       8025       8036       8035  
      7904       7905       7916       7915       8025       8026       8037       8036  
      7905       7906       7917       7916       8026       8027       8038       8037  
      7906       7907       7918       7917       8027       8028       8039       8038  
      7907       7908       7919       7918       8028       8029       8040       8039  
      7908       7909       7920       7919       8029       8030       8041       8040  
      7910       7911       7922       7921       8031       8032       8043       8042  
      7911       7912       7923       7922       8032       8033       8044       8043  
      7912       7913       7924       7923       8033       8034       8045       8044  
      7913       7914       7925       7924       8034       8035       8046       8045  
      7914       7915       7926       7925       8035       8036       8047       8046  
      7915       7916       7927       7926       8036       8037       8048       8047  
      7916       7917       7928       7927       8037       8038       8049       8048  
      7917       7918       7929       7928       8038       8039       8050       8049  
      7918       7919       7930       7929       8039       8040       8051       8050  
      7919       7920       7931       7930       8040       8041       8052       8051  
      7921       7922       7933       7932       8042       8043       8054       8053  
      7922       7923       7934       7933       8043       8044       8055       8054  
      7923       7924       7935       7934       8044       8045       8056       8055  
      7924       7925       7936       7935       8045       8046       8057       8056  
      7925       7926       7937       7936       8046       8047       8058       8057  
      7926       7927       7938       7937       8047       8048       8059       8058  
      7927       7928       7939       7938       8048       8049       8060       8059  
      7928       7929       7940       7939       8049       8050       8061       8060  
      7929       7930       7941       7940       8050       8051       8062       8061  
      7930       7931       7942       7941       8051       8052       8063       8062  
      7932       7933       7944       7943       8053       8054       8065       8064  
      7933       7934       7945       7944       8054       8055       8066       8065  
      7934       7935       7946       7945       8055       8056       8067       8066  
      7935       7936       7947       7946       8056       8057       8068       8067  
      7936       7937       7948       7947       8057       8058       8069       8068  
      7937       7938       7949       7948       8058       8059       8070       8069  
      7938       7939       7950       7949       8059       8060       8071       8070  
      7939       7940       7951       7950       8060       8061       8072       8071  
      7940       7941       7952       7951       8061       8062       8073       8072  
      7941       7942       7953       7952       8062       8063       8074       8073  
      7943       7944       7955       7954       8064       8065       8076       8075  
      7944       7945       7956       7955       8065       8066       8077       8076  
      7945       7946       7957       7956       8066       8067       8078       8077  
      7946       7947       7958       7957       8067       8068       8079       8078  
      7947       7948       7959       7958       8068       8069       8080       8079  
      7948       7949       7960       7959       8069       8070       8081       8080  
      7949       7950       7961       7960       8070       8071       8082       8081  
      7950       7951       7962       7961       8071       8072       8083       8082  
      7951       7952       7963       7962       8072       8073       8084       8083  
      7952       7953       7964       7963       8073       8074       8085       8084  
      7954       7955       7966       7965       8075       8076       8087       8086  
      7955       7956       7967       7966       8076       8077       8088       8087  
      7956       7957       7968       7967       8077       8078       8089       8088  
      7957       7958       7969       7968       8078       8079       8090       8089  
      7958       7959       7970       7969       8079       8080       8091       8090  
      7959       7960       7971       7970       8080       8081       8092       8091  
      7960       7961       7972       7971       8081       8082       8093       8092  
      7961       7962       7973       7972       8082       8083       8094       8093  
      7962       7963       7974       7973       8083       8084       8095       8094  
      7963       7964       7975       7974       8084       8085       8096       8095  
      7965       7966       7977       7976       8086       8087       8098       8097  
      7966       7967       7978       7977       8087       8088       8099       8098  
      7967       7968       7979       7978       8088       8089       8100       8099  
      7968       7969       7980       7979       8089       8090       8101       8100  
      7969       7970       7981       7980       8090       8091       8102       8101  
      7970       7971       7982       7981       8091       8092       8103       8102  
      7971       7972       7983       7982       8092       8093       8104       8103  
      7972       7973       7984       7983       8093       8094       8105       8104  
      7973       7974       7985       7984       8094       8095       8106       8105  
      7974       7975       7986       7985       8095       8096       8107       8106  
      7987       7988       7999       7998       8108       8109       8120       8119  
      7988       7989       8000       7999       8109       8110       8121       8120  
      7989       7990       8001       8000       8110       8111       8122       8121  
      7990       7991       8002       8001       8111       8112       8123       8122  
      7991       7992       8003       8002       8112       8113       8124       8123  
      7992       7993       8004       8003       8113       8114       8125       8124  
      7993       7994       8005       8004       8114       8115       8126       8125  
      7994       7995       8006       8005       8115       8116       8127       8126  
      7995       7996       8007       8006       8116       8117       8128       8127  
      7996       7997       8008       8007       8117       8118       8129       8128  
      7998       7999       8010       8009       8119       8120       8131       8130  
      7999       8000       8011       8010       8120       8121       8132       8131  
      8000       8001       8012       8011       8121       8122       8133       8132  
      8001       8002       8013       8012       8122       8123       8134       8133  
      8002       8003       8014       8013       8123       8124       8135       8134  
      8003       8004       8015       8014       8124       8125       8136       8135  
      8004       8005       8016       8015       8125       8126       8137       8136  
      8005       8006       8017       8016       8126       8127       8138       8137  
      8006       8007       8018       8017       8127       8128       8139       8138  
      8007       8008       8019       8018       8128       8129       8140       8139  
      8009       8010       8021       8020       8130       8131       8142       8141  
      8010       8011       8022       8021       8131       8132       8143       8142  
      8011       8012       8023       8022       8132       8133       8144       8143  
      8012       8013       8024       8023       8133       8134       8145       8144  
      8013       8014       8025       8024       8134       8135       8146       8145  
      8014       8015       8026       8025       8135       8136       8147       8146  
      8015       8016       8027       8026       8136       8137       8148       8147  
      8016       8017       8028       8027       8137       8138       8149       8148  
      8017       8018       8029       8028       8138       8139       8150       8149  
      8018       8019       8030       8029       8139       8140       8151       8150  
      8020       8021       8032       8031       8141       8142       8153       8152  
      8021       8022       8033       8032       8142       8143       8154       8153  
      8022       8023       8034       8033       8143       8144       8155       8154  
      8023       8024       8035       8034       8144       8145       8156       8155  
      8024       8025       8036       8035       8145       8146       8157       8156  
      8025       8026       8037       8036       8146       8147       8158       8157  
      8026       8027       8038       8037       8147       8148       8159       8158  
      8027       8028       8039       8038       8148       8149       8160       8159  
      8028       8029       8040       8039       8149       8150       8161       8160  
      8029       8030       8041       8040       8150       8151       8162       8161  
      8031       8032       8043       8042       8152       8153       8164       8163  
      8032       8033       8044       8043       8153       8154       8165       8164  
      8033       8034       8045       8044       8154       8155       8166       8165  
      8034       8035       8046       8045       8155       8156       8167       8166  
      8035       8036       8047       8046       8156       8157       8168       8167  
      8036       8037       8048       8047       8157       8158       8169       8168  
      8037       8038       8049       8048       8158       8159       8170       8169  
      8038       8039       8050       8049       8159       8160       8171       8170  
      8039       8040       8051       8050       8160       8161       8172       8171  
      8040       8041       8052       8051       8161       8162       8173       8172  
      8042       8043       8054       8053       8163       8164       8175       8174  
      8043       8044       8055       8054       8164       8165       8176       8175  
      8044       8045       8056       8055       8165       8166       8177       8176  
      8045       8046       8057       8056       8166       8167       8178       8177  
      8046       8047       8058       8057       8167       8168       8179       8178  
      8047       8048       8059       8058       8168       8169       8180       8179  
      8048       8049       8060       8059       8169       8170       8181       8180  
      8049       8050       8061       8060       8170       8171       8182       8181  
      8050       8051       8062       8061       8171       8172       8183       8182  
      8051       8052       8063       8062       8172       8173       8184       8183  
      8053       8054       8065       8064       8174       8175       8186       8185  
      8054       8055       8066       8065       8175       8176       8187       8186  
      8055       8056       8067       8066       8176       8177       8188       8187  
      8056       8057       8068       8067       8177       8178       8189       8188  
      8057       8058       8069       8068       8178       8179       8190       8189  
      8058       8059       8070       8069       8179       8180       8191       8190  
      8059       8060       8071       8070       8180       8181       8192       8191  
      8060       8061       8072       8071       8181       8182       8193       8192  
      8061       8062       8073       8072       8182       8183       8194       8193  
      8062       8063       8074       8073       8183       8184       8195       8194  
      8064       8065       8076       8075       8185       8186       8197       8196  
      8065       8066       8077       8076       8186       8187       8198       8197  
      8066       8067       8078       8077       8187       8188       8199       8198  
      8067       8068       8079       8078       8188       8189       8200       8199  
      8068       8069       8080       8079       8189       8190       8201       8200  
      8069       8070       8081       8080       8190       8191       8202       8201  
      8070       8071       8082       8081       8191       8192       8203       8202  
      8071       8072       8083       8082       8192       8193       8204       8203  
      8072       8073       8084       8083       8193       8194       8205       8204  
      8073       8074       8085       8084       8194       8195       8206       8205  
      8075       8076       8087       8086       8196       8197       8208       8207  
      8076       8077       8088       8087       8197       8198       8209       8208  
      8077       8078       8089       8088       8198       8199       8210       8209  
      8078       8079       8090       8089       8199       8200       8211       8210  
      8079       8080       8091       8090       8200       8201       8212       8211  
      8080       8081       8092       8091       8201       8202       8213       8212  
      8081       8082       8093       8092       8202       8203       8214       8213  
      8082       8083       8094       8093       8203       8204       8215       8214  
      8083       8084       8095       8094       8204       8205       8216       8215  
      8084       8085       8096       8095       8205       8206       8217       8216  
      8086       8087       8098       8097       8207       8208       8219       8218  
      8087       8088       8099       8098       8208       8209       8220       8219  
      8088       8089       8100       8099       8209       8210       8221       8220  
      8089       8090       8101       8100       8210       8211       8222       8221  
      8090       8091       8102       8101       8211       8212       8223       8222  
      8091       8092       8103       8102       8212       8213       8224       8223  
      8092       8093       8104       8103       8213       8214       8225       8224  
      8093       8094       8105       8104       8214       8215       8226       8225  
      8094       8095       8106       8105       8215       8216       8227       8226  
      8095       8096       8107       8106       8216       8217       8228       8227  
      8108       8109       8120       8119       8229       8230       8241       8240  
      8109       8110       8121       8120       8230       8231       8242       8241  
      8110       8111       8122       8121       8231       8232       8243       8242  
      8111       8112       8123       8122       8232       8233       8244       8243  
      8112       8113       8124       8123       8233       8234       8245       8244  
      8113       8114       8125       8124       8234       8235       8246       8245  
      8114       8115       8126       8125       8235       8236       8247       8246  
      8115       8116       8127       8126       8236       8237       8248       8247  
      8116       8117       8128       8127       8237       8238       8249       8248  
      8117       8118       8129       8128       8238       8239       8250       8249  
      8119       8120       8131       8130       8240       8241       8252       8251  
      8120       8121       8132       8131       8241       8242       8253       8252  
      8121       8122       8133       8132       8242       8243       8254       8253  
      8122       8123       8134       8133       8243       8244       8255       8254  
      8123       8124       8135       8134       8244       8245       8256       8255  
      8124       8125       8136       8135       8245       8246       8257       8256  
      8125       8126       8137       8136       8246       8247       8258       8257  
      8126       8127       8138       8137       8247       8248       8259       8258  
      8127       8128       8139       8138       8248       8249       8260       8259  
      8128       8129       8140       8139       8249       8250       8261       8260  
      8130       8131       8142       8141       8251       8252       8263       8262  
      8131       8132       8143       8142       8252       8253       8264       8263  
      8132       8133       8144       8143       8253       8254       8265       8264  
      8133       8134       8145       8144       8254       8255       8266       8265  
      8134       8135       8146       8145       8255       8256       8267       8266  
      8135       8136       8147       8146       8256       8257       8268       8267  
      8136       8137       8148       8147       8257       8258       8269       8268  
      8137       8138       8149       8148       8258       8259       8270       8269  
      8138       8139       8150       8149       8259       8260       8271       8270  
      8139       8140       8151       8150       8260       8261       8272       8271  
      8141       8142       8153       8152       8262       8263       8274       8273  
      8142       8143       8154       8153       8263       8264       8275       8274  
      8143       8144       8155       8154       8264       8265       8276       8275  
      8144       8145       8156       8155       8265       8266       8277       8276  
      8145       8146       8157       8156       8266       8267       8278       8277  
      8146       8147       8158       8157       8267       8268       8279       8278  
      8147       8148       8159       8158       8268       8269       8280       8279  
      8148       8149       8160       8159       8269       8270       8281       8280  
      8149       8150       8161       8160       8270       8271       8282       8281  
      8150       8151       8162       8161       8271       8272       8283       8282  
      8152       8153       8164       8163       8273       8274       8285       8284  
      8153       8154       8165       8164       8274       8275       8286       8285  
      8154       8155       8166       8165       8275       8276       8287       8286  
      8155       8156       8167       8166       8276       8277       8288       8287  
      8156       8157       8168       8167       8277       8278       8289       8288  
      8157       8158       8169       8168       8278       8279       8290       8289  
      8158       8159       8170       8169       8279       8280       8291       8290  
      8159       8160       8171       8170       8280       8281       8292       8291  
      8160       8161       8172       8171       8281       8282       8293       8292  
      8161       8162       8173       8172       8282       8283       8294       8293  
      8163       8164       8175       8174       8284       8285       8296       8295  
      8164       8165       8176       8175       8285       8286       8297       8296  
      8165       8166       8177       8176       8286       8287       8298       8297  
      8166       8167       8178       8177       8287       8288       8299       8298  
      8167       8168       8179       8178       8288       8289       8300       8299  
      8168       8169       8180       8179       8289       8290       8301       8300  
      8169       8170       8181       8180       8290       8291       8302       8301  
      8170       8171       8182       8181       8291       8292       8303       8302  
      8171       8172       8183       8182       8292       8293       8304       8303  
      8172       8173       8184       8183       8293       8294       8305       8304  
      8174       8175       8186       8185       8295       8296       8307       8306  
      8175       8176       8187       8186       8296       8297       8308       8307  
      8176       8177       8188       8187       8297       8298       8309       8308  
      8177       8178       8189       8188       8298       8299       8310       8309  
      8178       8179       8190       8189       8299       8300       8311       8310  
      8179       8180       8191       8190       8300       8301       8312       8311  
      8180       8181       8192       8191       8301       8302       8313       8312  
      8181       8182       8193       8192       8302       8303       8314       8313  
      8182       8183       8194       8193       8303       8304       8315       8314  
      8183       8184       8195       8194       8304       8305       8316       8315  
      8185       8186       8197       8196       8306       8307       8318       8317  
      8186       8187       8198       8197       8307       8308       8319       8318  
      8187       8188       8199       8198       8308       8309       8320       8319  
      8188       8189       8200       8199       8309       8310       8321       8320  
      8189       8190       8201       8200       8310       8311       8322       8321  
      8190       8191       8202       8201       8311       8312       8323       8322  
      8191       8192       8203       8202       8312       8313       8324       8323  
      8192       8193       8204       8203       8313       8314       8325       8324  
      8193       8194       8205       8204       8314       8315       8326       8325  
      8194       8195       8206       8205       8315       8316       8327       8326  
      8196       8197       8208       8207       8317       8318       8329       8328  
      8197       8198       8209       8208       8318       8319       8330       8329  
      8198       8199       8210       8209       8319       8320       8331       8330  
      8199       8200       8211       8210       8320       8321       8332       8331  
      8200       8201       8212       8211       8321       8322       8333       8332  
      8201       8202       8213       8212       8322       8323       8334       8333  
      8202       8203       8214       8213       8323       8324       8335       8334  
      8203       8204       8215       8214       8324       8325       8336       8335  
      8204       8205       8216       8215       8325       8326       8337       8336  
      8205       8206       8217       8216       8326       8327       8338       8337  
      8207       8208       8219       8218       8328       8329       8340       8339  
      8208       8209       8220       8219       8329       8330       8341       8340  
      8209       8210       8221       8220       8330       8331       8342       8341  
      8210       8211       8222       8221       8331       8332       8343       8342  
      8211       8212       8223       8222       8332       8333       8344       8343  
      8212       8213       8224       8223       8333       8334       8345       8344  
      8213       8214       8225       8224       8334       8335       8346       8345  
      8214       8215       8226       8225       8335       8336       8347       8346  
      8215       8216       8227       8226       8336       8337       8348       8347  
      8216       8217       8228       8227       8337       8338       8349       8348  
      8229       8230       8241       8240       8350       8351       8362       8361  
      8230       8231       8242       8241       8351       8352       8363       8362  
      8231       8232       8243       8242       8352       8353       8364       8363  
      8232       8233       8244       8243       8353       8354       8365       8364  
      8233       8234       8245       8244       8354       8355       8366       8365  
      8234       8235       8246       8245       8355       8356       8367       8366  
      8235       8236       8247       8246       8356       8357       8368       8367  
      8236       8237       8248       8247       8357       8358       8369       8368  
      8237       8238       8249       8248       8358       8359       8370       8369  
      8238       8239       8250       8249       8359       8360       8371       8370  
      8240       8241       8252       8251       8361       8362       8373       8372  
      8241       8242       8253       8252       8362       8363       8374       8373  
      8242       8243       8254       8253       8363       8364       8375       8374  
      8243       8244       8255       8254       8364       8365       8376       8375  
      8244       8245       8256       8255       8365       8366       8377       8376  
      8245       8246       8257       8256       8366       8367       8378       8377  
      8246       8247       8258       8257       8367       8368       8379       8378  
      8247       8248       8259       8258       8368       8369       8380       8379  
      8248       8249       8260       8259       8369       8370       8381       8380  
      8249       8250       8261       8260       8370       8371       8382       8381  
      8251       8252       8263       8262       8372       8373       8384       8383  
      8252       8253       8264       8263       8373       8374       8385       8384  
      8253       8254       8265       8264       8374       8375       8386       8385  
      8254       8255       8266       8265       8375       8376       8387       8386  
      8255       8256       8267       8266       8376       8377       8388       8387  
      8256       8257       8268       8267       8377       8378       8389       8388  
      8257       8258       8269       8268       8378       8379       8390       8389  
      8258       8259       8270       8269       8379       8380       8391       8390  
      8259       8260       8271       8270       8380       8381       8392       8391  
      8260       8261       8272       8271       8381       8382       8393       8392  
      8262       8263       8274       8273       8383       8384       8395       8394  
      8263       8264       8275       8274       8384       8385       8396       8395  
      8264       8265       8276       8275       8385       8386       8397       8396  
      8265       8266       8277       8276       8386       8387       8398       8397  
      8266       8267       8278       8277       8387       8388       8399       8398  
      8267       8268       8279       8278       8388       8389       8400       8399  
      8268       8269       8280       8279       8389       8390       8401       8400  
      8269       8270       8281       8280       8390       8391       8402       8401  
      8270       8271       8282       8281       8391       8392       8403       8402  
      8271       8272       8283       8282       8392       8393       8404       8403  
      8273       8274       8285       8284       8394       8395       8406       8405  
      8274       8275       8286       8285       8395       8396       8407       8406  
      8275       8276       8287       8286       8396       8397       8408       8407  
      8276       8277       8288       8287       8397       8398       8409       8408  
      8277       8278       8289       8288       8398       8399       8410       8409  
      8278       8279       8290       8289       8399       8400       8411       8410  
      8279       8280       8291       8290       8400       8401       8412       8411  
      8280       8281       8292       8291       8401       8402       8413       8412  
      8281       8282       8293       8292       8402       8403       8414       8413  
      8282       8283       8294       8293       8403       8404       8415       8414  
      8284       8285       8296       8295       8405       8406       8417       8416  
      8285       8286       8297       8296       8406       8407       8418       8417  
      8286       8287       8298       8297       8407       8408       8419       8418  
      8287       8288       8299       8298       8408       8409       8420       8419  
      8288       8289       8300       8299       8409       8410       8421       8420  
      8289       8290       8301       8300       8410       8411       8422       8421  
      8290       8291       8302       8301       8411       8412       8423       8422  
      8291       8292       8303       8302       8412       8413       8424       8423  
      8292       8293       8304       8303       8413       8414       8425       8424  
      8293       8294       8305       8304       8414       8415       8426       8425  
      8295       8296       8307       8306       8416       8417       8428       8427  
      8296       8297       8308       8307       8417       8418       8429       8428  
      8297       8298       8309       8308       8418       8419       8430       8429  
      8298       8299       8310       8309       8419       8420       8431       8430  
      8299       8300       8311       8310       8420       8421       8432       8431  
      8300       8301       8312       8311       8421       8422       8433       8432  
      8301       8302       8313       8312       8422       8423       8434       8433  
      8302       8303       8314       8313       8423       8424       8435       8434  
      8303       8304       8315       8314       8424       8425       8436       8435  
      8304       8305       8316       8315       8425       8426       8437       8436  
      8306       8307       8318       8317       8427       8428       8439       8438  
      8307       8308       8319       8318       8428       8429       8440       8439  
      8308       8309       8320       8319       8429       8430       8441       8440  
      8309       8310       8321       8320       8430       8431       8442       8441  
      8310       8311       8322       8321       8431       8432       8443       8442  
      8311       8312       8323       8322       8432       8433       8444       8443  
      8312       8313       8324       8323       8433       8434       8445       8444  
      8313       8314       8325       8324       8434       8435       8446       8445  
      8314       8315       8326       8325       8435       8436       8447       8446  
      8315       8316       8327       8326       8436       8437       8448       8447  
      8317       8318       8329       8328       8438       8439       8450       8449  
      8318       8319       8330       8329       8439       8440       8451       8450  
      8319       8320       8331       8330       8440       8441       8452       8451  
      8320       8321       8332       8331       8441       8442       8453       8452  
      8321       8322       8333       8332       8442       8443       8454       8453  
      8322       8323       8334       8333       8443       8444       8455       8454  
      8323       8324       8335       8334       8444       8445       8456       8455  
      8324       8325       8336       8335       8445       8446       8457       8456  
      8325       8326       8337       8336       8446       8447       8458       8457  
      8326       8327       8338       8337       8447       8448       8459       8458  
      8328       8329       8340       8339       8449       8450       8461       8460  
      8329       8330       8341       8340       8450       8451       8462       8461  
      8330       8331       8342       8341       8451       8452       8463       8462  
      8331       8332       8343       8342       8452       8453       8464       8463  
      8332       8333       8344       8343       8453       8454       8465       8464  
      8333       8334       8345       8344       8454       8455       8466       8465  
      8334       8335       8346       8345       8455       8456       8467       8466  
      8335       8336       8347       8346       8456       8457       8468       8467  
      8336       8337       8348       8347       8457       8458       8469       8468  
      8337       8338       8349       8348       8458       8459       8470       8469  
      8350       8351       8362       8361       8471       8472       8483       8482  
      8351       8352       8363       8362       8472       8473       8484       8483  
      8352       8353       8364       8363       8473       8474       8485       8484  
      8353       8354       8365       8364       8474       8475       8486       8485  
      8354       8355       8366       8365       8475       8476       8487       8486  
      8355       8356       8367       8366       8476       8477       8488       8487  
      8356       8357       8368       8367       8477       8478       8489       8488  
      8357       8358       8369       8368       8478       8479       8490       8489  
      8358       8359       8370       8369       8479       8480       8491       8490  
      8359       8360       8371       8370       8480       8481       8492       8491  
      8361       8362       8373       8372       8482       8483       8494       8493  
      8362       8363       8374       8373       8483       8484       8495       8494  
      8363       8364       8375       8374       8484       8485       8496       8495  
      8364       8365       8376       8375       8485       8486       8497       8496  
      8365       8366       8377       8376       8486       8487       8498       8497  
      8366       8367       8378       8377       8487       8488       8499       8498  
      8367       8368       8379       8378       8488       8489       8500       8499  
      8368       8369       8380       8379       8489       8490       8501       8500  
      8369       8370       8381       8380       8490       8491       8502       8501  
      8370       8371       8382       8381       8491       8492       8503       8502  
      8372       8373       8384       8383       8493       8494       8505       8504  
      8373       8374       8385       8384       8494       8495       8506       8505  
      8374       8375       8386       8385       8495       8496       8507       8506  
      8375       8376       8387       8386       8496       8497       8508       8507  
      8376       8377       8388       8387       8497       8498       8509       8508  
      8377       8378       8389       8388       8498       8499       8510       8509  
      8378       8379       8390       8389       8499       8500       8511       8510  
      8379       8380       8391       8390       8500       8501       8512       8511  
      8380       8381       8392       8391       8501       8502       8513       8512  
      8381       8382       8393       8392       8502       8503       8514       8513  
      8383       8384       8395       8394       8504       8505       8516       8515  
      8384       8385       8396       8395       8505       8506       8517       8516  
      8385       8386       8397       8396       8506       8507       8518       8517  
      8386       8387       8398       8397       8507       8508       8519       8518  
      8387       8388       8399       8398       8508       8509       8520       8519  
      8388       8389       8400       8399       8509       8510       8521       8520  
      8389       8390       8401       8400       8510       8511       8522       8521  
      8390       8391       8402       8401       8511       8512       8523       8522  
      8391       8392       8403       8402       8512       8513       8524       8523  
      8392       8393       8404       8403       8513       8514       8525       8524  
      8394       8395       8406       8405       8515       8516       8527       8526  
      8395       8396       8407       8406       8516       8517       8528       8527  
      8396       8397       8408       8407       8517       8518       8529       8528  
      8397       8398       8409       8408       8518       8519       8530       8529  
      8398       8399       8410       8409       8519       8520       8531       8530  
      8399       8400       8411       8410       8520       8521       8532       8531  
      8400       8401       8412       8411       8521       8522       8533       8532  
      8401       8402       8413       8412       8522       8523       8534       8533  
      8402       8403       8414       8413       8523       8524       8535       8534  
      8403       8404       8415       8414       8524       8525       8536       8535  
      8405       8406       8417       8416       8526       8527       8538       8537  
      8406       8407       8418       8417       8527       8528       8539       8538  
      8407       8408       8419       8418       8528       8529       8540       8539  
      8408       8409       8420       8419       8529       8530       8541       8540  
      8409       8410       8421       8420       8530       8531       8542       8541  
      8410       8411       8422       8421       8531       8532       8543       8542  
      8411       8412       8423       8422       8532       8533       8544       8543  
      8412       8413       8424       8423       8533       8534       8545       8544  
      8413       8414       8425       8424       8534       8535       8546       8545  
      8414       8415       8426       8425       8535       8536       8547       8546  
      8416       8417       8428       8427       8537       8538       8549       8548  
      8417       8418       8429       8428       8538       8539       8550       8549  
      8418       8419       8430       8429       8539       8540       8551       8550  
      8419       8420       8431       8430       8540       8541       8552       8551  
      8420       8421       8432       8431       8541       8542       8553       8552  
      8421       8422       8433       8432       8542       8543       8554       8553  
      8422       8423       8434       8433       8543       8544       8555       8554  
      8423       8424       8435       8434       8544       8545       8556       8555  
      8424       8425       8436       8435       8545       8546       8557       8556  
      8425       8426       8437       8436       8546       8547       8558       8557  
      8427       8428       8439       8438       8548       8549       8560       8559  
      8428       8429       8440       8439       8549       8550       8561       8560  
      8429       8430       8441       8440       8550       8551       8562       8561  
      8430       8431       8442       8441       8551       8552       8563       8562  
      8431       8432       8443       8442       8552       8553       8564       8563  
      8432       8433       8444       8443       8553       8554       8565       8564  
      8433       8434       8445       8444       8554       8555       8566       8565  
      8434       8435       8446       8445       8555       8556       8567       8566  
      8435       8436       8447       8446       8556       8557       8568       8567  
      8436       8437       8448       8447       8557       8558       8569       8568  
      8438       8439       8450       8449       8559       8560       8571       8570  
      8439       8440       8451       8450       8560       8561       8572       8571  
      8440       8441       8452       8451       8561       8562       8573       8572  
      8441       8442       8453       8452       8562       8563       8574       8573  
      8442       8443       8454       8453       8563       8564       8575       8574  
      8443       8444       8455       8454       8564       8565       8576       8575  
      8444       8445       8456       8455       8565       8566       8577       8576  
      8445       8446       8457       8456       8566       8567       8578       8577  
      8446       8447       8458       8457       8567       8568       8579       8578  
      8447       8448       8459       8458       8568       8569       8580       8579  
      8449       8450       8461       8460       8570       8571       8582       8581  
      8450       8451       8462       8461       8571       8572       8583       8582  
      8451       8452       8463       8462       8572       8573       8584       8583  
      8452       8453       8464       8463       8573       8574       8585       8584  
      8453       8454       8465       8464       8574       8575       8586       8585  
      8454       8455       8466       8465       8575       8576       8587       8586  
      8455       8456       8467       8466       8576       8577       8588       8587  
      8456       8457       8468       8467       8577       8578       8589       8588  
      8457       8458       8469       8468       8578       8579       8590       8589  
      8458       8459       8470       8469       8579       8580       8591       8590  
      8471       8472       8483       8482       8592       8593       8604       8603  
      8472       8473       8484       8483       8593       8594       8605       8604  
      8473       8474       8485       8484       8594       8595       8606       8605  
      8474       8475       8486       8485       8595       8596       8607       8606  
      8475       8476       8487       8486       8596       8597       8608       8607  
      8476       8477       8488       8487       8597       8598       8609       8608  
      8477       8478       8489       8488       8598       8599       8610       8609  
      8478       8479       8490       8489       8599       8600       8611       8610  
      8479       8480       8491       8490       8600       8601       8612       8611  
      8480       8481       8492       8491       8601       8602       8613       8612  
      8482       8483       8494       8493       8603       8604       8615       8614  
      8483       8484       8495       8494       8604       8605       8616       8615  
      8484       8485       8496       8495       8605       8606       8617       8616  
      8485       8486       8497       8496       8606       8607       8618       8617  
      8486       8487       8498       8497       8607       8608       8619       8618  
      8487       8488       8499       8498       8608       8609       8620       8619  
      8488       8489       8500       8499       8609       8610       8621       8620  
      8489       8490       8501       8500       8610       8611       8622       8621  
      8490       8491       8502       8501       8611       8612       8623       8622  
      8491       8492       8503       8502       8612       8613       8624       8623  
      8493       8494       8505       8504       8614       8615       8626       8625  
      8494       8495       8506       8505       8615       8616       8627       8626  
      8495       8496       8507       8506       8616       8617       8628       8627  
      8496       8497       8508       8507       8617       8618       8629       8628  
      8497       8498       8509       8508       8618       8619       8630       8629  
      8498       8499       8510       8509       8619       8620       8631       8630  
      8499       8500       8511       8510       8620       8621       8632       8631  
      8500       8501       8512       8511       8621       8622       8633       8632  
      8501       8502       8513       8512       8622       8623       8634       8633  
      8502       8503       8514       8513       8623       8624       8635       8634  
      8504       8505       8516       8515       8625       8626       8637       8636  
      8505       8506       8517       8516       8626       8627       8638       8637  
      8506       8507       8518       8517       8627       8628       8639       8638  
      8507       8508       8519       8518       8628       8629       8640       8639  
      8508       8509       8520       8519       8629       8630       8641       8640  
      8509       8510       8521       8520       8630       8631       8642       8641  
      8510       8511       8522       8521       8631       8632       8643       8642  
      8511       8512       8523       8522       8632       8633       8644       8643  
      8512       8513       8524       8523       8633       8634       8645       8644  
      8513       8514       8525       8524       8634       8635       8646       8645  
      8515       8516       8527       8526       8636       8637       8648       8647  
      8516       8517       8528       8527       8637       8638       8649       8648  
      8517       8518       8529       8528       8638       8639       8650       8649  
      8518       8519       8530       8529       8639       8640       8651       8650  
      8519       8520       8531       8530       8640       8641       8652       8651  
      8520       8521       8532       8531       8641       8642       8653       8652  
      8521       8522       8533       8532       8642       8643       8654       8653  
      8522       8523       8534       8533       8643       8644       8655       8654  
      8523       8524       8535       8534       8644       8645       8656       8655  
      8524       8525       8536       8535       8645       8646       8657       8656  
      8526       8527       8538       8537       8647       8648       8659       8658  
      8527       8528       8539       8538       8648       8649       8660       8659  
      8528       8529       8540       8539       8649       8650       8661       8660  
      8529       8530       8541       8540       8650       8651       8662       8661  
      8530       8531       8542       8541       8651       8652       8663       8662  
      8531       8532       8543       8542       8652       8653       8664       8663  
      8532       8533       8544       8543       8653       8654       8665       8664  
      8533       8534       8545       8544       8654       8655       8666       8665  
      8534       8535       8546       8545       8655       8656       8667       8666  
      8535       8536       8547       8546       8656       8657       8668       8667  
      8537       8538       8549       8548       8658       8659       8670       8669  
      8538       8539       8550       8549       8659       8660       8671       8670  
      8539       8540       8551       8550       8660       8661       8672       8671  
      8540       8541       8552       8551       8661       8662       8673       8672  
      8541       8542       8553       8552       8662       8663       8674       8673  
      8542       8543       8554       8553       8663       8664       8675       8674  
      8543       8544       8555       8554       8664       8665       8676       8675  
      8544       8545       8556       8555       8665       8666       8677       8676  
      8545       8546       8557       8556       8666       8667       8678       8677  
      8546       8547       8558       8557       8667       8668       8679       8678  
      8548       8549       8560       8559       8669       8670       8681       8680  
      8549       8550       8561       8560       8670       8671       8682       8681  
      8550       8551       8562       8561       8671       8672       8683       8682  
      8551       8552       8563       8562       8672       8673       8684       8683  
      8552       8553       8564       8563       8673       8674       8685       8684  
      8553       8554       8565       8564       8674       8675       8686       8685  
      8554       8555       8566       8565       8675       8676       8687       8686  
      8555       8556       8567       8566       8676       8677       8688       8687  
      8556       8557       8568       8567       8677       8678       8689       8688  
      8557       8558       8569       8568       8678       8679       8690       8689  
      8559       8560       8571       8570       8680       8681       8692       8691  
      8560       8561       8572       8571       8681       8682       8693       8692  
      8561       8562       8573       8572       8682       8683       8694       8693  
      8562       8563       8574       8573       8683       8684       8695       8694  
      8563       8564       8575       8574       8684       8685       8696       8695  
      8564       8565       8576       8575       8685       8686       8697       8696  
      8565       8566       8577       8576       8686       8687       8698       8697  
      8566       8567       8578       8577       8687       8688       8699       8698  
      8567       8568       8579       8578       8688       8689       8700       8699  
      8568       8569       8580       8579       8689       8690       8701       8700  
      8570       8571       8582       8581       8691       8692       8703       8702  
      8571       8572       8583       8582       8692       8693       8704       8703  
      8572       8573       8584       8583       8693       8694       8705       8704  
      8573       8574       8585       8584       8694       8695       8706       8705  
      8574       8575       8586       8585       8695       8696       8707       8706  
      8575       8576       8587       8586       8696       8697       8708       8707  
      8576       8577       8588       8587       8697       8698       8709       8708  
      8577       8578       8589       8588       8698       8699       8710       8709  
      8578       8579       8590       8589       8699       8700       8711       8710  
      8579       8580       8591       8590       8700       8701       8712       8711  
      8592       8593       8604       8603       8713       8714       8725       8724  
      8593       8594       8605       8604       8714       8715       8726       8725  
      8594       8595       8606       8605       8715       8716       8727       8726  
      8595       8596       8607       8606       8716       8717       8728       8727  
      8596       8597       8608       8607       8717       8718       8729       8728  
      8597       8598       8609       8608       8718       8719       8730       8729  
      8598       8599       8610       8609       8719       8720       8731       8730  
      8599       8600       8611       8610       8720       8721       8732       8731  
      8600       8601       8612       8611       8721       8722       8733       8732  
      8601       8602       8613       8612       8722       8723       8734       8733  
      8603       8604       8615       8614       8724       8725       8736       8735  
      8604       8605       8616       8615       8725       8726       8737       8736  
      8605       8606       8617       8616       8726       8727       8738       8737  
      8606       8607       8618       8617       8727       8728       8739       8738  
      8607       8608       8619       8618       8728       8729       8740       8739  
      8608       8609       8620       8619       8729       8730       8741       8740  
      8609       8610       8621       8620       8730       8731       8742       8741  
      8610       8611       8622       8621       8731       8732       8743       8742  
      8611       8612       8623       8622       8732       8733       8744       8743  
      8612       8613       8624       8623       8733       8734       8745       8744  
      8614       8615       8626       8625       8735       8736       8747       8746  
      8615       8616       8627       8626       8736       8737       8748       8747  
      8616       8617       8628       8627       8737       8738       8749       8748  
      8617       8618       8629       8628       8738       8739       8750       8749  
      8618       8619       8630       8629       8739       8740       8751       8750  
      8619       8620       8631       8630       8740       8741       8752       8751  
      8620       8621       8632       8631       8741       8742       8753       8752  
      8621       8622       8633       8632       8742       8743       8754       8753  
      8622       8623       8634       8633       8743       8744       8755       8754  
      8623       8624       8635       8634       8744       8745       8756       8755  
      8625       8626       8637       8636       8746       8747       8758       8757  
      8626       8627       8638       8637       8747       8748       8759       8758  
      8627       8628       8639       8638       8748       8749       8760       8759  
      8628       8629       8640       8639       8749       8750       8761       8760  
      8629       8630       8641       8640       8750       8751       8762       8761  
      8630       8631       8642       8641       8751       8752       8763       8762  
      8631       8632       8643       8642       8752       8753       8764       8763  
      8632       8633       8644       8643       8753       8754       8765       8764  
      8633       8634       8645       8644       8754       8755       8766       8765  
      8634       8635       8646       8645       8755       8756       8767       8766  
      8636       8637       8648       8647       8757       8758       8769       8768  
      8637       8638       8649       8648       8758       8759       8770       8769  
      8638       8639       8650       8649       8759       8760       8771       8770  
      8639       8640       8651       8650       8760       8761       8772       8771  
      8640       8641       8652       8651       8761       8762       8773       8772  
      8641       8642       8653       8652       8762       8763       8774       8773  
      8642       8643       8654       8653       8763       8764       8775       8774  
      8643       8644       8655       8654       8764       8765       8776       8775  
      8644       8645       8656       8655       8765       8766       8777       8776  
      8645       8646       8657       8656       8766       8767       8778       8777  
      8647       8648       8659       8658       8768       8769       8780       8779  
      8648       8649       8660       8659       8769       8770       8781       8780  
      8649       8650       8661       8660       8770       8771       8782       8781  
      8650       8651       8662       8661       8771       8772       8783       8782  
      8651       8652       8663       8662       8772       8773       8784       8783  
      8652       8653       8664       8663       8773       8774       8785       8784  
      8653       8654       8665       8664       8774       8775       8786       8785  
      8654       8655       8666       8665       8775       8776       8787       8786  
      8655       8656       8667       8666       8776       8777       8788       8787  
      8656       8657       8668       8667       8777       8778       8789       8788  
      8658       8659       8670       8669       8779       8780       8791       8790  
      8659       8660       8671       8670       8780       8781       8792       8791  
      8660       8661       8672       8671       8781       8782       8793       8792  
      8661       8662       8673       8672       8782       8783       8794       8793  
      8662       8663       8674       8673       8783       8784       8795       8794  
      8663       8664       8675       8674       8784       8785       8796       8795  
      8664       8665       8676       8675       8785       8786       8797       8796  
      8665       8666       8677       8676       8786       8787       8798       8797  
      8666       8667       8678       8677       8787       8788       8799       8798  
      8667       8668       8679       8678       8788       8789       8800       8799  
      8669       8670       8681       8680       8790       8791       8802       8801  
      8670       8671       8682       8681       8791       8792       8803       8802  
      8671       8672       8683       8682       8792       8793       8804       8803  
      8672       8673       8684       8683       8793       8794       8805       8804  
      8673       8674       8685       8684       8794       8795       8806       8805  
      8674       8675       8686       8685       8795       8796       8807       8806  
      8675       8676       8687       8686       8796       8797       8808       8807  
      8676       8677       8688       8687       8797       8798       8809       8808  
      8677       8678       8689       8688       8798       8799       8810       8809  
      8678       8679       8690       8689       8799       8800       8811       8810  
      8680       8681       8692       8691       8801       8802       8813       8812  
      8681       8682       8693       8692       8802       8803       8814       8813  
      8682       8683       8694       8693       8803       8804       8815       8814  
      8683       8684       8695       8694       8804       8805       8816       8815  
      8684       8685       8696       8695       8805       8806       8817       8816  
      8685       8686       8697       8696       8806       8807       8818       8817  
      8686       8687       8698       8697       8807       8808       8819       8818  
      8687       8688       8699       8698       8808       8809       8820       8819  
      8688       8689       8700       8699       8809       8810       8821       8820  
      8689       8690       8701       8700       8810       8811       8822       8821  
      8691       8692       8703       8702       8812       8813       8824       8823  
      8692       8693       8704       8703       8813       8814       8825       8824  
      8693       8694       8705       8704       8814       8815       8826       8825  
      8694       8695       8706       8705       8815       8816       8827       8826  
      8695       8696       8707       8706       8816       8817       8828       8827  
      8696       8697       8708       8707       8817       8818       8829       8828  
      8697       8698       8709       8708       8818       8819       8830       8829  
      8698       8699       8710       8709       8819       8820       8831       8830  
      8699       8700       8711       8710       8820       8821       8832       8831  
      8700       8701       8712       8711       8821       8822       8833       8832  
      8713       8714       8725       8724       8834       8835       8846       8845  
      8714       8715       8726       8725       8835       8836       8847       8846  
      8715       8716       8727       8726       8836       8837       8848       8847  
      8716       8717       8728       8727       8837       8838       8849       8848  
      8717       8718       8729       8728       8838       8839       8850       8849  
      8718       8719       8730       8729       8839       8840       8851       8850  
      8719       8720       8731       8730       8840       8841       8852       8851  
      8720       8721       8732       8731       8841       8842       8853       8852  
      8721       8722       8733       8732       8842       8843       8854       8853  
      8722       8723       8734       8733       8843       8844       8855       8854  
      8724       8725       8736       8735       8845       8846       8857       8856  
      8725       8726       8737       8736       8846       8847       8858       8857  
      8726       8727       8738       8737       8847       8848       8859       8858  
      8727       8728       8739       8738       8848       8849       8860       8859  
      8728       8729       8740       8739       8849       8850       8861       8860  
      8729       8730       8741       8740       8850       8851       8862       8861  
      8730       8731       8742       8741       8851       8852       8863       8862  
      8731       8732       8743       8742       8852       8853       8864       8863  
      8732       8733       8744       8743       8853       8854       8865       8864  
      8733       8734       8745       8744       8854       8855       8866       8865  
      8735       8736       8747       8746       8856       8857       8868       8867  
      8736       8737       8748       8747       8857       8858       8869       8868  
      8737       8738       8749       8748       8858       8859       8870       8869  
      8738       8739       8750       8749       8859       8860       8871       8870  
      8739       8740       8751       8750       8860       8861       8872       8871  
      8740       8741       8752       8751       8861       8862       8873       8872  
      8741       8742       8753       8752       8862       8863       8874       8873  
      8742       8743       8754       8753       8863       8864       8875       8874  
      8743       8744       8755       8754       8864       8865       8876       8875  
      8744       8745       8756       8755       8865       8866       8877       8876  
      8746       8747       8758       8757       8867       8868       8879       8878  
      8747       8748       8759       8758       8868       8869       8880       8879  
      8748       8749       8760       8759       8869       8870       8881       8880  
      8749       8750       8761       8760       8870       8871       8882       8881  
      8750       8751       8762       8761       8871       8872       8883       8882  
      8751       8752       8763       8762       8872       8873       8884       8883  
      8752       8753       8764       8763       8873       8874       8885       8884  
      8753       8754       8765       8764       8874       8875       8886       8885  
      8754       8755       8766       8765       8875       8876       8887       8886  
      8755       8756       8767       8766       8876       8877       8888       8887  
      8757       8758       8769       8768       8878       8879       8890       8889  
      8758       8759       8770       8769       8879       8880       8891       8890  
      8759       8760       8771       8770       8880       8881       8892       8891  
      8760       8761       8772       8771       8881       8882       8893       8892  
      8761       8762       8773       8772       8882       8883       8894       8893  
      8762       8763       8774       8773       8883       8884       8895       8894  
      8763       8764       8775       8774       8884       8885       8896       8895  
      8764       8765       8776       8775       8885       8886       8897       8896  
      8765       8766       8777       8776       8886       8887       8898       8897  
      8766       8767       8778       8777       8887       8888       8899       8898  
      8768       8769       8780       8779       8889       8890       8901       8900  
      8769       8770       8781       8780       8890       8891       8902       8901  
      8770       8771       8782       8781       8891       8892       8903       8902  
      8771       8772       8783       8782       8892       8893       8904       8903  
      8772       8773       8784       8783       8893       8894       8905       8904  
      8773       8774       8785       8784       8894       8895       8906       8905  
      8774       8775       8786       8785       8895       8896       8907       8906  
      8775       8776       8787       8786       8896       8897       8908       8907  
      8776       8777       8788       8787       8897       8898       8909       8908  
      8777       8778       8789       8788       8898       8899       8910       8909  
      8779       8780       8791       8790       8900       8901       8912       8911  
      8780       8781       8792       8791       8901       8902       8913       8912  
      8781       8782       8793       8792       8902       8903       8914       8913  
      8782       8783       8794       8793       8903       8904       8915       8914  
      8783       8784       8795       8794       8904       8905       8916       8915  
      8784       8785       8796       8795       8905       8906       8917       8916  
      8785       8786       8797       8796       8906       8907       8918       8917  
      8786       8787       8798       8797       8907       8908       8919       8918  
      8787       8788       8799       8798       8908       8909       8920       8919  
      8788       8789       8800       8799       8909       8910       8921       8920  
      8790       8791       8802       8801       8911       8912       8923       8922  
      8791       8792       8803       8802       8912       8913       8924       8923  
      8792       8793       8804       8803       8913       8914       8925       8924  
      8793       8794       8805       8804       8914       8915       8926       8925  
      8794       8795       8806       8805       8915       8916       8927       8926  
      8795       8796       8807       8806       8916       8917       8928       8927  
      8796       8797       8808       8807       8917       8918       8929       8928  
      8797       8798       8809       8808       8918       8919       8930       8929  
      8798       8799       8810       8809       8919       8920       8931       8930  
      8799       8800       8811       8810       8920       8921       8932       8931  
      8801       8802       8813       8812       8922       8923       8934       8933  
      8802       8803       8814       8813       8923       8924       8935       8934  
      8803       8804       8815       8814       8924       8925       8936       8935  
      8804       8805       8816       8815       8925       8926       8937       8936  
      8805       8806       8817       8816       8926       8927       8938       8937  
      8806       8807       8818       8817       8927       8928       8939       8938  
      8807       8808       8819       8818       8928       8929       8940       8939  
      8808       8809       8820       8819       8929       8930       8941       8940  
      8809       8810       8821       8820       8930       8931       8942       8941  
      8810       8811       8822       8821       8931       8932       8943       8942  
      8812       8813       8824       8823       8933       8934       8945       8944  
      8813       8814       8825       8824       8934       8935       8946       8945  
      8814       8815       8826       8825       8935       8936       8947       8946  
      8815       8816       8827       8826       8936       8937       8948       8947  
      8816       8817       8828       8827       8937       8938       8949       8948  
      8817       8818       8829       8828       8938       8939       8950       8949  
      8818       8819       8830       8829       8939       8940       8951       8950  
      8819       8820       8831       8830       8940       8941       8952       8951  
      8820       8821       8832       8831       8941       8942       8953       8952  
      8821       8822       8833       8832       8942       8943       8954       8953  
      8834       8835       8846       8845       8955       8956       8967       8966  
      8835       8836       8847       8846       8956       8957       8968       8967  
      8836       8837       8848       8847       8957       8958       8969       8968  
      8837       8838       8849       8848       8958       8959       8970       8969  
      8838       8839       8850       8849       8959       8960       8971       8970  
      8839       8840       8851       8850       8960       8961       8972       8971  
      8840       8841       8852       8851       8961       8962       8973       8972  
      8841       8842       8853       8852       8962       8963       8974       8973  
      8842       8843       8854       8853       8963       8964       8975       8974  
      8843       8844       8855       8854       8964       8965       8976       8975  
      8845       8846       8857       8856       8966       8967       8978       8977  
      8846       8847       8858       8857       8967       8968       8979       8978  
      8847       8848       8859       8858       8968       8969       8980       8979  
      8848       8849       8860       8859       8969       8970       8981       8980  
      8849       8850       8861       8860       8970       8971       8982       8981  
      8850       8851       8862       8861       8971       8972       8983       8982  
      8851       8852       8863       8862       8972       8973       8984       8983  
      8852       8853       8864       8863       8973       8974       8985       8984  
      8853       8854       8865       8864       8974       8975       8986       8985  
      8854       8855       8866       8865       8975       8976       8987       8986  
      8856       8857       8868       8867       8977       8978       8989       8988  
      8857       8858       8869       8868       8978       8979       8990       8989  
      8858       8859       8870       8869       8979       8980       8991       8990  
      8859       8860       8871       8870       8980       8981       8992       8991  
      8860       8861       8872       8871       8981       8982       8993       8992  
      8861       8862       8873       8872       8982       8983       8994       8993  
      8862       8863       8874       8873       8983       8984       8995       8994  
      8863       8864       8875       8874       8984       8985       8996       8995  
      8864       8865       8876       8875       8985       8986       8997       8996  
      8865       8866       8877       8876       8986       8987       8998       8997  
      8867       8868       8879       8878       8988       8989       9000       8999  
      8868       8869       8880       8879       8989       8990       9001       9000  
      8869       8870       8881       8880       8990       8991       9002       9001  
      8870       8871       8882       8881       8991       8992       9003       9002  
      8871       8872       8883       8882       8992       8993       9004       9003  
      8872       8873       8884       8883       8993       8994       9005       9004  
      8873       8874       8885       8884       8994       8995       9006       9005  
      8874       8875       8886       8885       8995       8996       9007       9006  
      8875       8876       8887       8886       8996       8997       9008       9007  
      8876       8877       8888       8887       8997       8998       9009       9008  
      8878       8879       8890       8889       8999       9000       9011       9010  
      8879       8880       8891       8890       9000       9001       9012       9011  
      8880       8881       8892       8891       9001       9002       9013       9012  
      8881       8882       8893       8892       9002       9003       9014       9013  
      8882       8883       8894       8893       9003       9004       9015       9014  
      8883       8884       8895       8894       9004       9005       9016       9015  
      8884       8885       8896       8895       9005       9006       9017       9016  
      8885       8886       8897       8896       9006       9007       9018       9017  
      8886       8887       8898       8897       9007       9008       9019       9018  
      8887       8888       8899       8898       9008       9009       9020       9019  
      8889       8890       8901       8900       9010       9011       9022       9021  
      8890       8891       8902       8901       9011       9012       9023       9022  
      8891       8892       8903       8902       9012       9013       9024       9023  
      8892       8893       8904       8903       9013       9014       9025       9024  
      8893       8894       8905       8904       9014       9015       9026       9025  
      8894       8895       8906       8905       9015       9016       9027       9026  
      8895       8896       8907       8906       9016       9017       9028       9027  
      8896       8897       8908       8907       9017       9018       9029       9028  
      8897       8898       8909       8908       9018       9019       9030       9029  
      8898       8899       8910       8909       9019       9020       9031       9030  
      8900       8901       8912       8911       9021       9022       9033       9032  
      8901       8902       8913       8912       9022       9023       9034       9033  
      8902       8903       8914       8913       9023       9024       9035       9034  
      8903       8904       8915       8914       9024       9025       9036       9035  
      8904       8905       8916       8915       9025       9026       9037       9036  
      8905       8906       8917       8916       9026       9027       9038       9037  
      8906       8907       8918       8917       9027       9028       9039       9038  
      8907       8908       8919       8918       9028       9029       9040       9039  
      8908       8909       8920       8919       9029       9030       9041       9040  
      8909       8910       8921       8920       9030       9031       9042       9041  
      8911       8912       8923       8922       9032       9033       9044       9043  
      8912       8913       8924       8923       9033       9034       9045       9044  
      8913       8914       8925       8924       9034       9035       9046       9045  
      8914       8915       8926       8925       9035       9036       9047       9046  
      8915       8916       8927       8926       9036       9037       9048       9047  
      8916       8917       8928       8927       9037       9038       9049       9048  
      8917       8918       8929       8928       9038       9039       9050       9049  
      8918       8919       8930       8929       9039       9040       9051       9050  
      8919       8920       8931       8930       9040       9041       9052       9051  
      8920       8921       8932       8931       9041       9042       9053       9052  
      8922       8923       8934       8933       9043       9044       9055       9054  
      8923       8924       8935       8934       9044       9045       9056       9055  
      8924       8925       8936       8935       9045       9046       9057       9056  
      8925       8926       8937       8936       9046       9047       9058       9057  
      8926       8927       8938       8937       9047       9048       9059       9058  
      8927       8928       8939       8938       9048       9049       9060       9059  
      8928       8929       8940       8939       9049       9050       9061       9060  
      8929       8930       8941       8940       9050       9051       9062       9061  
      8930       8931       8942       8941       9051       9052       9063       9062  
      8931       8932       8943       8942       9052       9053       9064       9063  
      8933       8934       8945       8944       9054       9055       9066       9065  
      8934       8935       8946       8945       9055       9056       9067       9066  
      8935       8936       8947       8946       9056       9057       9068       9067  
      8936       8937       8948       8947       9057       9058       9069       9068  
      8937       8938       8949       8948       9058       9059       9070       9069  
      8938       8939       8950       8949       9059       9060       9071       9070  
      8939       8940       8951       8950       9060       9061       9072       9071  
      8940       8941       8952       8951       9061       9062       9073       9072  
      8941       8942       8953       8952       9062       9063       9074       9073  
      8942       8943       8954       8953       9063       9064       9075       9074  
      8955       8956       8967       8966       9076       9077       9088       9087  
      8956       8957       8968       8967       9077       9078       9089       9088  
      8957       8958       8969       8968       9078       9079       9090       9089  
      8958       8959       8970       8969       9079       9080       9091       9090  
      8959       8960       8971       8970       9080       9081       9092       9091  
      8960       8961       8972       8971       9081       9082       9093       9092  
      8961       8962       8973       8972       9082       9083       9094       9093  
      8962       8963       8974       8973       9083       9084       9095       9094  
      8963       8964       8975       8974       9084       9085       9096       9095  
      8964       8965       8976       8975       9085       9086       9097       9096  
      8966       8967       8978       8977       9087       9088       9099       9098  
      8967       8968       8979       8978       9088       9089       9100       9099  
      8968       8969       8980       8979       9089       9090       9101       9100  
      8969       8970       8981       8980       9090       9091       9102       9101  
      8970       8971       8982       8981       9091       9092       9103       9102  
      8971       8972       8983       8982       9092       9093       9104       9103  
      8972       8973       8984       8983       9093       9094       9105       9104  
      8973       8974       8985       8984       9094       9095       9106       9105  
      8974       8975       8986       8985       9095       9096       9107       9106  
      8975       8976       8987       8986       9096       9097       9108       9107  
      8977       8978       8989       8988       9098       9099       9110       9109  
      8978       8979       8990       8989       9099       9100       9111       9110  
      8979       8980       8991       8990       9100       9101       9112       9111  
      8980       8981       8992       8991       9101       9102       9113       9112  
      8981       8982       8993       8992       9102       9103       9114       9113  
      8982       8983       8994       8993       9103       9104       9115       9114  
      8983       8984       8995       8994       9104       9105       9116       9115  
      8984       8985       8996       8995       9105       9106       9117       9116  
      8985       8986       8997       8996       9106       9107       9118       9117  
      8986       8987       8998       8997       9107       9108       9119       9118  
      8988       8989       9000       8999       9109       9110       9121       9120  
      8989       8990       9001       9000       9110       9111       9122       9121  
      8990       8991       9002       9001       9111       9112       9123       9122  
      8991       8992       9003       9002       9112       9113       9124       9123  
      8992       8993       9004       9003       9113       9114       9125       9124  
      8993       8994       9005       9004       9114       9115       9126       9125  
      8994       8995       9006       9005       9115       9116       9127       9126  
      8995       8996       9007       9006       9116       9117       9128       9127  
      8996       8997       9008       9007       9117       9118       9129       9128  
      8997       8998       9009       9008       9118       9119       9130       9129  
      8999       9000       9011       9010       9120       9121       9132       9131  
      9000       9001       9012       9011       9121       9122       9133       9132  
      9001       9002       9013       9012       9122       9123       9134       9133  
      9002       9003       9014       9013       9123       9124       9135       9134  
      9003       9004       9015       9014       9124       9125       9136       9135  
      9004       9005       9016       9015       9125       9126       9137       9136  
      9005       9006       9017       9016       9126       9127       9138       9137  
      9006       9007       9018       9017       9127       9128       9139       9138  
      9007       9008       9019       9018       9128       9129       9140       9139  
      9008       9009       9020       9019       9129       9130       9141       9140  
      9010       9011       9022       9021       9131       9132       9143       9142  
      9011       9012       9023       9022       9132       9133       9144       9143  
      9012       9013       9024       9023       9133       9134       9145       9144  
      9013       9014       9025       9024       9134       9135       9146       9145  
      9014       9015       9026       9025       9135       9136       9147       9146  
      9015       9016       9027       9026       9136       9137       9148       9147  
      9016       9017       9028       9027       9137       9138       9149       9148  
      9017       9018       9029       9028       9138       9139       9150       9149  
      9018       9019       9030       9029       9139       9140       9151       9150  
      9019       9020       9031       9030       9140       9141       9152       9151  
      9021       9022       9033       9032       9142       9143       9154       9153  
      9022       9023       9034       9033       9143       9144       9155       9154  
      9023       9024       9035       9034       9144       9145       9156       9155  
      9024       9025       9036       9035       9145       9146       9157       9156  
      9025       9026       9037       9036       9146       9147       9158       9157  
      9026       9027       9038       9037       9147       9148       9159       9158  
      9027       9028       9039       9038       9148       9149       9160       9159  
      9028       9029       9040       9039       9149       9150       9161       9160  
      9029       9030       9041       9040       9150       9151       9162       9161  
      9030       9031       9042       9041       9151       9152       9163       9162  
      9032       9033       9044       9043       9153       9154       9165       9164  
      9033       9034       9045       9044       9154       9155       9166       9165  
      9034       9035       9046       9045       9155       9156       9167       9166  
      9035       9036       9047       9046       9156       9157       9168       9167  
      9036       9037       9048       9047       9157       9158       9169       9168  
      9037       9038       9049       9048       9158       9159       9170       9169  
      9038       9039       9050       9049       9159       9160       9171       9170  
      9039       9040       9051       9050       9160       9161       9172       9171  
      9040       9041       9052       9051       9161       9162       9173       9172  
      9041       9042       9053       9052       9162       9163       9174       9173  
      9043       9044       9055       9054       9164       9165       9176       9175  
      9044       9045       9056       9055       9165       9166       9177       9176  
      9045       9046       9057       9056       9166       9167       9178       9177  
      9046       9047       9058       9057       9167       9168       9179       9178  
      9047       9048       9059       9058       9168       9169       9180       9179  
      9048       9049       9060       9059       9169       9170       9181       9180  
      9049       9050       9061       9060       9170       9171       9182       9181  
      9050       9051       9062       9061       9171       9172       9183       9182  
      9051       9052       9063       9062       9172       9173       9184       9183  
      9052       9053       9064       9063       9173       9174       9185       9184  
      9054       9055       9066       9065       9175       9176       9187       9186  
      9055       9056       9067       9066       9176       9177       9188       9187  
      9056       9057       9068       9067       9177       9178       9189       9188  
      9057       9058       9069       9068       9178       9179       9190       9189  
      9058       9059       9070       9069       9179       9180       9191       9190  
      9059       9060       9071       9070       9180       9181       9192       9191  
      9060       9061       9072       9071       9181       9182       9193       9192  
      9061       9062       9073       9072       9182       9183       9194       9193  
      9062       9063       9074       9073       9183       9184       9195       9194  
      9063       9064       9075       9074       9184       9185       9196       9195  
      9076       9077       9088       9087       9197       9198       9209       9208  
      9077       9078       9089       9088       9198       9199       9210       9209  
      9078       9079       9090       9089       9199       9200       9211       9210  
      9079       9080       9091       9090       9200       9201       9212       9211  
      9080       9081       9092       9091       9201       9202       9213       9212  
      9081       9082       9093       9092       9202       9203       9214       9213  
      9082       9083       9094       9093       9203       9204       9215       9214  
      9083       9084       9095       9094       9204       9205       9216       9215  
      9084       9085       9096       9095       9205       9206       9217       9216  
      9085       9086       9097       9096       9206       9207       9218       9217  
      9087       9088       9099       9098       9208       9209       9220       9219  
      9088       9089       9100       9099       9209       9210       9221       9220  
      9089       9090       9101       9100       9210       9211       9222       9221  
      9090       9091       9102       9101       9211       9212       9223       9222  
      9091       9092       9103       9102       9212       9213       9224       9223  
      9092       9093       9104       9103       9213       9214       9225       9224  
      9093       9094       9105       9104       9214       9215       9226       9225  
      9094       9095       9106       9105       9215       9216       9227       9226  
      9095       9096       9107       9106       9216       9217       9228       9227  
      9096       9097       9108       9107       9217       9218       9229       9228  
      9098       9099       9110       9109       9219       9220       9231       9230  
      9099       9100       9111       9110       9220       9221       9232       9231  
      9100       9101       9112       9111       9221       9222       9233       9232  
      9101       9102       9113       9112       9222       9223       9234       9233  
      9102       9103       9114       9113       9223       9224       9235       9234  
      9103       9104       9115       9114       9224       9225       9236       9235  
      9104       9105       9116       9115       9225       9226       9237       9236  
      9105       9106       9117       9116       9226       9227       9238       9237  
      9106       9107       9118       9117       9227       9228       9239       9238  
      9107       9108       9119       9118       9228       9229       9240       9239  
      9109       9110       9121       9120       9230       9231       9242       9241  
      9110       9111       9122       9121       9231       9232       9243       9242  
      9111       9112       9123       9122       9232       9233       9244       9243  
      9112       9113       9124       9123       9233       9234       9245       9244  
      9113       9114       9125       9124       9234       9235       9246       9245  
      9114       9115       9126       9125       9235       9236       9247       9246  
      9115       9116       9127       9126       9236       9237       9248       9247  
      9116       9117       9128       9127       9237       9238       9249       9248  
      9117       9118       9129       9128       9238       9239       9250       9249  
      9118       9119       9130       9129       9239       9240       9251       9250  
      9120       9121       9132       9131       9241       9242       9253       9252  
      9121       9122       9133       9132       9242       9243       9254       9253  
      9122       9123       9134       9133       9243       9244       9255       9254  
      9123       9124       9135       9134       9244       9245       9256       9255  
      9124       9125       9136       9135       9245       9246       9257       9256  
      9125       9126       9137       9136       9246       9247       9258       9257  
      9126       9127       9138       9137       9247       9248       9259       9258  
      9127       9128       9139       9138       9248       9249       9260       9259  
      9128       9129       9140       9139       9249       9250       9261       9260  
      9129       9130       9141       9140       9250       9251       9262       9261  
      9131       9132       9143       9142       9252       9253       9264       9263  
      9132       9133       9144       9143       9253       9254       9265       9264  
      9133       9134       9145       9144       9254       9255       9266       9265  
      9134       9135       9146       9145       9255       9256       9267       9266  
      9135       9136       9147       9146       9256       9257       9268       9267  
      9136       9137       9148       9147       9257       9258       9269       9268  
      9137       9138       9149       9148       9258       9259       9270       9269  
      9138       9139       9150       9149       9259       9260       9271       9270  
      9139       9140       9151       9150       9260       9261       9272       9271  
      9140       9141       9152       9151       9261       9262       9273       9272  
      9142       9143       9154       9153       9263       9264       9275       9274  
      9143       9144       9155       9154       9264       9265       9276       9275  
      9144       9145       9156       9155       9265       9266       9277       9276  
      9145       9146       9157       9156       9266       9267       9278       9277  
      9146       9147       9158       9157       9267       9268       9279       9278  
      9147       9148       9159       9158       9268       9269       9280       9279  
      9148       9149       9160       9159       9269       9270       9281       9280  
      9149       9150       9161       9160       9270       9271       9282       9281  
      9150       9151       9162       9161       9271       9272       9283       9282  
      9151       9152       9163       9162       9272       9273       9284       9283  
      9153       9154       9165       9164       9274       9275       9286       9285  
      9154       9155       9166       9165       9275       9276       9287       9286  
      9155       9156       9167       9166       9276       9277       9288       9287  
      9156       9157       9168       9167       9277       9278       9289       9288  
      9157       9158       9169       9168       9278       9279       9290       9289  
      9158       9159       9170       9169       9279       9280       9291       9290  
      9159       9160       9171       9170       9280       9281       9292       9291  
      9160       9161       9172       9171       9281       9282       9293       9292  
      9161       9162       9173       9172       9282       9283       9294       9293  
      9162       9163       9174       9173       9283       9284       9295       9294  
      9164       9165       9176       9175       9285       9286       9297       9296  
      9165       9166       9177       9176       9286       9287       9298       9297  
      9166       9167       9178       9177       9287       9288       9299       9298  
      9167       9168       9179       9178       9288       9289       9300       9299  
      9168       9169       9180       9179       9289       9290       9301       9300  
      9169       9170       9181       9180       9290       9291       9302       9301  
      9170       9171       9182       9181       9291       9292       9303       9302  
      9171       9172       9183       9182       9292       9293       9304       9303  
      9172       9173       9184       9183       9293       9294       9305       9304  
      9173       9174       9185       9184       9294       9295       9306       9305  
      9175       9176       9187       9186       9296       9297       9308       9307  
      9176       9177       9188       9187       9297       9298       9309       9308  
      9177       9178       9189       9188       9298       9299       9310       9309  
      9178       9179       9190       9189       9299       9300       9311       9310  
      9179       9180       9191       9190       9300       9301       9312       9311  
      9180       9181       9192       9191       9301       9302       9313       9312  
      9181       9182       9193       9192       9302       9303       9314       9313  
      9182       9183       9194       9193       9303       9304       9315       9314  
      9183       9184       9195       9194       9304       9305       9316       9315  
      9184       9185       9196       9195       9305       9306       9317       9316  
      9197       9198       9209       9208       9318       9319       9330       9329  
      9198       9199       9210       9209       9319       9320       9331       9330  
      9199       9200       9211       9210       9320       9321       9332       9331  
      9200       9201       9212       9211       9321       9322       9333       9332  
      9201       9202       9213       9212       9322       9323       9334       9333  
      9202       9203       9214       9213       9323       9324       9335       9334  
      9203       9204       9215       9214       9324       9325       9336       9335  
      9204       9205       9216       9215       9325       9326       9337       9336  
      9205       9206       9217       9216       9326       9327       9338       9337  
      9206       9207       9218       9217       9327       9328       9339       9338  
      9208       9209       9220       9219       9329       9330       9341       9340  
      9209       9210       9221       9220       9330       9331       9342       9341  
      9210       9211       9222       9221       9331       9332       9343       9342  
      9211       9212       9223       9222       9332       9333       9344       9343  
      9212       9213       9224       9223       9333       9334       9345       9344  
      9213       9214       9225       9224       9334       9335       9346       9345  
      9214       9215       9226       9225       9335       9336       9347       9346  
      9215       9216       9227       9226       9336       9337       9348       9347  
      9216       9217       9228       9227       9337       9338       9349       9348  
      9217       9218       9229       9228       9338       9339       9350       9349  
      9219       9220       9231       9230       9340       9341       9352       9351  
      9220       9221       9232       9231       9341       9342       9353       9352  
      9221       9222       9233       9232       9342       9343       9354       9353  
      9222       9223       9234       9233       9343       9344       9355       9354  
      9223       9224       9235       9234       9344       9345       9356       9355  
      9224       9225       9236       9235       9345       9346       9357       9356  
      9225       9226       9237       9236       9346       9347       9358       9357  
      9226       9227       9238       9237       9347       9348       9359       9358  
      9227       9228       9239       9238       9348       9349       9360       9359  
      9228       9229       9240       9239       9349       9350       9361       9360  
      9230       9231       9242       9241       9351       9352       9363       9362  
      9231       9232       9243       9242       9352       9353       9364       9363  
      9232       9233       9244       9243       9353       9354       9365       9364  
      9233       9234       9245       9244       9354       9355       9366       9365  
      9234       9235       9246       9245       9355       9356       9367       9366  
      9235       9236       9247       9246       9356       9357       9368       9367  
      9236       9237       9248       9247       9357       9358       9369       9368  
      9237       9238       9249       9248       9358       9359       9370       9369  
      9238       9239       9250       9249       9359       9360       9371       9370  
      9239       9240       9251       9250       9360       9361       9372       9371  
      9241       9242       9253       9252       9362       9363       9374       9373  
      9242       9243       9254       9253       9363       9364       9375       9374  
      9243       9244       9255       9254       9364       9365       9376       9375  
      9244       9245       9256       9255       9365       9366       9377       9376  
      9245       9246       9257       9256       9366       9367       9378       9377  
      9246       9247       9258       9257       9367       9368       9379       9378  
      9247       9248       9259       9258       9368       9369       9380       9379  
      9248       9249       9260       9259       9369       9370       9381       9380  
      9249       9250       9261       9260       9370       9371       9382       9381  
      9250       9251       9262       9261       9371       9372       9383       9382  
      9252       9253       9264       9263       9373       9374       9385       9384  
      9253       9254       9265       9264       9374       9375       9386       9385  
      9254       9255       9266       9265       9375       9376       9387       9386  
      9255       9256       9267       9266       9376       9377       9388       9387  
      9256       9257       9268       9267       9377       9378       9389       9388  
      9257       9258       9269       9268       9378       9379       9390       9389  
      9258       9259       9270       9269       9379       9380       9391       9390  
      9259       9260       9271       9270       9380       9381       9392       9391  
      9260       9261       9272       9271       9381       9382       9393       9392  
      9261       9262       9273       9272       9382       9383       9394       9393  
      9263       9264       9275       9274       9384       9385       9396       9395  
      9264       9265       9276       9275       9385       9386       9397       9396  
      9265       9266       9277       9276       9386       9387       9398       9397  
      9266       9267       9278       9277       9387       9388       9399       9398  
      9267       9268       9279       9278       9388       9389       9400       9399  
      9268       9269       9280       9279       9389       9390       9401       9400  
      9269       9270       9281       9280       9390       9391       9402       9401  
      9270       9271       9282       9281       9391       9392       9403       9402  
      9271       9272       9283       9282       9392       9393       9404       9403  
      9272       9273       9284       9283       9393       9394       9405       9404  
      9274       9275       9286       9285       9395       9396       9407       9406  
      9275       9276       9287       9286       9396       9397       9408       9407  
      9276       9277       9288       9287       9397       9398       9409       9408  
      9277       9278       9289       9288       9398       9399       9410       9409  
      9278       9279       9290       9289       9399       9400       9411       9410  
      9279       9280       9291       9290       9400       9401       9412       9411  
      9280       9281       9292       9291       9401       9402       9413       9412  
      9281       9282       9293       9292       9402       9403       9414       9413  
      9282       9283       9294       9293       9403       9404       9415       9414  
      9283       9284       9295       9294       9404       9405       9416       9415  
      9285       9286       9297       9296       9406       9407       9418       9417  
      9286       9287       9298       9297       9407       9408       9419       9418  
      9287       9288       9299       9298       9408       9409       9420       9419  
      9288       9289       9300       9299       9409       9410       9421       9420  
      9289       9290       9301       9300       9410       9411       9422       9421  
      9290       9291       9302       9301       9411       9412       9423       9422  
      9291       9292       9303       9302       9412       9413       9424       9423  
      9292       9293       9304       9303       9413       9414       9425       9424  
      9293       9294       9305       9304       9414       9415       9426       9425  
      9294       9295       9306       9305       9415       9416       9427       9426  
      9296       9297       9308       9307       9417       9418       9429       9428  
      9297       9298       9309       9308       9418       9419       9430       9429  
      9298       9299       9310       9309       9419       9420       9431       9430  
      9299       9300       9311       9310       9420       9421       9432       9431  
      9300       9301       9312       9311       9421       9422       9433       9432  
      9301       9302       9313       9312       9422       9423       9434       9433  
      9302       9303       9314       9313       9423       9424       9435       9434  
      9303       9304       9315       9314       9424       9425       9436       9435  
      9304       9305       9316       9315       9425       9426       9437       9436  
      9305       9306       9317       9316       9426       9427       9438       9437  
      9318       9319       9330       9329       9439       9440       9451       9450  
      9319       9320       9331       9330       9440       9441       9452       9451  
      9320       9321       9332       9331       9441       9442       9453       9452  
      9321       9322       9333       9332       9442       9443       9454       9453  
      9322       9323       9334       9333       9443       9444       9455       9454  
      9323       9324       9335       9334       9444       9445       9456       9455  
      9324       9325       9336       9335       9445       9446       9457       9456  
      9325       9326       9337       9336       9446       9447       9458       9457  
      9326       9327       9338       9337       9447       9448       9459       9458  
      9327       9328       9339       9338       9448       9449       9460       9459  
      9329       9330       9341       9340       9450       9451       9462       9461  
      9330       9331       9342       9341       9451       9452       9463       9462  
      9331       9332       9343       9342       9452       9453       9464       9463  
      9332       9333       9344       9343       9453       9454       9465       9464  
      9333       9334       9345       9344       9454       9455       9466       9465  
      9334       9335       9346       9345       9455       9456       9467       9466  
      9335       9336       9347       9346       9456       9457       9468       9467  
      9336       9337       9348       9347       9457       9458       9469       9468  
      9337       9338       9349       9348       9458       9459       9470       9469  
      9338       9339       9350       9349       9459       9460       9471       9470  
      9340       9341       9352       9351       9461       9462       9473       9472  
      9341       9342       9353       9352       9462       9463       9474       9473  
      9342       9343       9354       9353       9463       9464       9475       9474  
      9343       9344       9355       9354       9464       9465       9476       9475  
      9344       9345       9356       9355       9465       9466       9477       9476  
      9345       9346       9357       9356       9466       9467       9478       9477  
      9346       9347       9358       9357       9467       9468       9479       9478  
      9347       9348       9359       9358       9468       9469       9480       9479  
      9348       9349       9360       9359       9469       9470       9481       9480  
      9349       9350       9361       9360       9470       9471       9482       9481  
      9351       9352       9363       9362       9472       9473       9484       9483  
      9352       9353       9364       9363       9473       9474       9485       9484  
      9353       9354       9365       9364       9474       9475       9486       9485  
      9354       9355       9366       9365       9475       9476       9487       9486  
      9355       9356       9367       9366       9476       9477       9488       9487  
      9356       9357       9368       9367       9477       9478       9489       9488  
      9357       9358       9369       9368       9478       9479       9490       9489  
      9358       9359       9370       9369       9479       9480       9491       9490  
      9359       9360       9371       9370       9480       9481       9492       9491  
      9360       9361       9372       9371       9481       9482       9493       9492  
      9362       9363       9374       9373       9483       9484       9495       9494  
      9363       9364       9375       9374       9484       9485       9496       9495  
      9364       9365       9376       9375       9485       9486       9497       9496  
      9365       9366       9377       9376       9486       9487       9498       9497  
      9366       9367       9378       9377       9487       9488       9499       9498  
      9367       9368       9379       9378       9488       9489       9500       9499  
      9368       9369       9380       9379       9489       9490       9501       9500  
      9369       9370       9381       9380       9490       9491       9502       9501  
      9370       9371       9382       9381       9491       9492       9503       9502  
      9371       9372       9383       9382       9492       9493       9504       9503  
      9373       9374       9385       9384       9494       9495       9506       9505  
      9374       9375       9386       9385       9495       9496       9507       9506  
      9375       9376       9387       9386       9496       9497       9508       9507  
      9376       9377       9388       9387       9497       9498       9509       9508  
      9377       9378       9389       9388       9498       9499       9510       9509  
      9378       9379       9390       9389       9499       9500       9511       9510  
      9379       9380       9391       9390       9500       9501       9512       9511  
      9380       9381       9392       9391       9501       9502       9513       9512  
      9381       9382       9393       9392       9502       9503       9514       9513  
      9382       9383       9394       9393       9503       9504       9515       9514  
      9384       9385       9396       9395       9505       9506       9517       9516  
      9385       9386       9397       9396       9506       9507       9518       9517  
      9386       9387       9398       9397       9507       9508       9519       9518  
      9387       9388       9399       9398       9508       9509       9520       9519  
      9388       9389       9400       9399       9509       9510       9521       9520  
      9389       9390       9401       9400       9510       9511       9522       9521  
      9390       9391       9402       9401       9511       9512       9523       9522  
      9391       9392       9403       9402       9512       9513       9524       9523  
      9392       9393       9404       9403       9513       9514       9525       9524  
      9393       9394       9405       9404       9514       9515       9526       9525  
      9395       9396       9407       9406       9516       9517       9528       9527  
      9396       9397       9408       9407       9517       9518       9529       9528  
      9397       9398       9409       9408       9518       9519       9530       9529  
      9398       9399       9410       9409       9519       9520       9531       9530  
      9399       9400       9411       9410       9520       9521       9532       9531  
      9400       9401       9412       9411       9521       9522       9533       9532  
      9401       9402       9413       9412       9522       9523       9534       9533  
      9402       9403       9414       9413       9523       9524       9535       9534  
      9403       9404       9415       9414       9524       9525       9536       9535  
      9404       9405       9416       9415       9525       9526       9537       9536  
      9406       9407       9418       9417       9527       9528       9539       9538  
      9407       9408       9419       9418       9528       9529       9540       9539  
      9408       9409       9420       9419       9529       9530       9541       9540  
      9409       9410       9421       9420       9530       9531       9542       9541  
      9410       9411       9422       9421       9531       9532       9543       9542  
      9411       9412       9423       9422       9532       9533       9544       9543  
      9412       9413       9424       9423       9533       9534       9545       9544  
      9413       9414       9425       9424       9534       9535       9546       9545  
      9414       9415       9426       9425       9535       9536       9547       9546  
      9415       9416       9427       9426       9536       9537       9548       9547  
      9417       9418       9429       9428       9538       9539       9550       9549  
      9418       9419       9430       9429       9539       9540       9551       9550  
      9419       9420       9431       9430       9540       9541       9552       9551  
      9420       9421       9432       9431       9541       9542       9553       9552  
      9421       9422       9433       9432       9542       9543       9554       9553  
      9422       9423       9434       9433       9543       9544       9555       9554  
      9423       9424       9435       9434       9544       9545       9556       9555  
      9424       9425       9436       9435       9545       9546       9557       9556  
      9425       9426       9437       9436       9546       9547       9558       9557  
      9426       9427       9438       9437       9547       9548       9559       9558  
      9439       9440       9451       9450       9560       9561       9572       9571  
      9440       9441       9452       9451       9561       9562       9573       9572  
      9441       9442       9453       9452       9562       9563       9574       9573  
      9442       9443       9454       9453       9563       9564       9575       9574  
      9443       9444       9455       9454       9564       9565       9576       9575  
      9444       9445       9456       9455       9565       9566       9577       9576  
      9445       9446       9457       9456       9566       9567       9578       9577  
      9446       9447       9458       9457       9567       9568       9579       9578  
      9447       9448       9459       9458       9568       9569       9580       9579  
      9448       9449       9460       9459       9569       9570       9581       9580  
      9450       9451       9462       9461       9571       9572       9583       9582  
      9451       9452       9463       9462       9572       9573       9584       9583  
      9452       9453       9464       9463       9573       9574       9585       9584  
      9453       9454       9465       9464       9574       9575       9586       9585  
      9454       9455       9466       9465       9575       9576       9587       9586  
      9455       9456       9467       9466       9576       9577       9588       9587  
      9456       9457       9468       9467       9577       9578       9589       9588  
      9457       9458       9469       9468       9578       9579       9590       9589  
      9458       9459       9470       9469       9579       9580       9591       9590  
      9459       9460       9471       9470       9580       9581       9592       9591  
      9461       9462       9473       9472       9582       9583       9594       9593  
      9462       9463       9474       9473       9583       9584       9595       9594  
      9463       9464       9475       9474       9584       9585       9596       9595  
      9464       9465       9476       9475       9585       9586       9597       9596  
      9465       9466       9477       9476       9586       9587       9598       9597  
      9466       9467       9478       9477       9587       9588       9599       9598  
      9467       9468       9479       9478       9588       9589       9600       9599  
      9468       9469       9480       9479       9589       9590       9601       9600  
      9469       9470       9481       9480       9590       9591       9602       9601  
      9470       9471       9482       9481       9591       9592       9603       9602  
      9472       9473       9484       9483       9593       9594       9605       9604  
      9473       9474       9485       9484       9594       9595       9606       9605  
      9474       9475       9486       9485       9595       9596       9607       9606  
      9475       9476       9487       9486       9596       9597       9608       9607  
      9476       9477       9488       9487       9597       9598       9609       9608  
      9477       9478       9489       9488       9598       9599       9610       9609  
      9478       9479       9490       9489       9599       9600       9611       9610  
      9479       9480       9491       9490       9600       9601       9612       9611  
      9480       9481       9492       9491       9601       9602       9613       9612  
      9481       9482       9493       9492       9602       9603       9614       9613  
      9483       9484       9495       9494       9604       9605       9616       9615  
      9484       9485       9496       9495       9605       9606       9617       9616  
      9485       9486       9497       9496       9606       9607       9618       9617  
      9486       9487       9498       9497       9607       9608       9619       9618  
      9487       9488       9499       9498       9608       9609       9620       9619  
      9488       9489       9500       9499       9609       9610       9621       9620  
      9489       9490       9501       9500       9610       9611       9622       9621  
      9490       9491       9502       9501       9611       9612       9623       9622  
      9491       9492       9503       9502       9612       9613       9624       9623  
      9492       9493       9504       9503       9613       9614       9625       9624  
      9494       9495       9506       9505       9615       9616       9627       9626  
      9495       9496       9507       9506       9616       9617       9628       9627  
      9496       9497       9508       9507       9617       9618       9629       9628  
      9497       9498       9509       9508       9618       9619       9630       9629  
      9498       9499       9510       9509       9619       9620       9631       9630  
      9499       9500       9511       9510       9620       9621       9632       9631  
      9500       9501       9512       9511       9621       9622       9633       9632  
      9501       9502       9513       9512       9622       9623       9634       9633  
      9502       9503       9514       9513       9623       9624       9635       9634  
      9503       9504       9515       9514       9624       9625       9636       9635  
      9505       9506       9517       9516       9626       9627       9638       9637  
      9506       9507       9518       9517       9627       9628       9639       9638  
      9507       9508       9519       9518       9628       9629       9640       9639  
      9508       9509       9520       9519       9629       9630       9641       9640  
      9509       9510       9521       9520       9630       9631       9642       9641  
      9510       9511       9522       9521       9631       9632       9643       9642  
      9511       9512       9523       9522       9632       9633       9644       9643  
      9512       9513       9524       9523       9633       9634       9645       9644  
      9513       9514       9525       9524       9634       9635       9646       9645  
      9514       9515       9526       9525       9635       9636       9647       9646  
      9516       9517       9528       9527       9637       9638       9649       9648  
      9517       9518       9529       9528       9638       9639       9650       9649  
      9518       9519       9530       9529       9639       9640       9651       9650  
      9519       9520       9531       9530       9640       9641       9652       9651  
      9520       9521       9532       9531       9641       9642       9653       9652  
      9521       9522       9533       9532       9642       9643       9654       9653  
      9522       9523       9534       9533       9643       9644       9655       9654  
      9523       9524       9535       9534       9644       9645       9656       9655  
      9524       9525       9536       9535       9645       9646       9657       9656  
      9525       9526       9537       9536       9646       9647       9658       9657  
      9527       9528       9539       9538       9648       9649       9660       9659  
      9528       9529       9540       9539       9649       9650       9661       9660  
      9529       9530       9541       9540       9650       9651       9662       9661  
      9530       9531       9542       9541       9651       9652       9663       9662  
      9531       9532       9543       9542       9652       9653       9664       9663  
      9532       9533       9544       9543       9653       9654       9665       9664  
      9533       9534       9545       9544       9654       9655       9666       9665  
      9534       9535       9546       9545       9655       9656       9667       9666  
      9535       9536       9547       9546       9656       9657       9668       9667  
      9536       9537       9548       9547       9657       9658       9669       9668  
      9538       9539       9550       9549       9659       9660       9671       9670  
      9539       9540       9551       9550       9660       9661       9672       9671  
      9540       9541       9552       9551       9661       9662       9673       9672  
      9541       9542       9553       9552       9662       9663       9674       9673  
      9542       9543       9554       9553       9663       9664       9675       9674  
      9543       9544       9555       9554       9664       9665       9676       9675  
      9544       9545       9556       9555       9665       9666       9677       9676  
      9545       9546       9557       9556       9666       9667       9678       9677  
      9546       9547       9558       9557       9667       9668       9679       9678  
      9547       9548       9559       9558       9668       9669       9680       9679  
      9560       9561       9572       9571       9681       9682       9693       9692  
      9561       9562       9573       9572       9682       9683       9694       9693  
      9562       9563       9574       9573       9683       9684       9695       9694  
      9563       9564       9575       9574       9684       9685       9696       9695  
      9564       9565       9576       9575       9685       9686       9697       9696  
      9565       9566       9577       9576       9686       9687       9698       9697  
      9566       9567       9578       9577       9687       9688       9699       9698  
      9567       9568       9579       9578       9688       9689       9700       9699  
      9568       9569       9580       9579       9689       9690       9701       9700  
      9569       9570       9581       9580       9690       9691       9702       9701  
      9571       9572       9583       9582       9692       9693       9704       9703  
      9572       9573       9584       9583       9693       9694       9705       9704  
      9573       9574       9585       9584       9694       9695       9706       9705  
      9574       9575       9586       9585       9695       9696       9707       9706  
      9575       9576       9587       9586       9696       9697       9708       9707  
      9576       9577       9588       9587       9697       9698       9709       9708  
      9577       9578       9589       9588       9698       9699       9710       9709  
      9578       9579       9590       9589       9699       9700       9711       9710  
      9579       9580       9591       9590       9700       9701       9712       9711  
      9580       9581       9592       9591       9701       9702       9713       9712  
      9582       9583       9594       9593       9703       9704       9715       9714  
      9583       9584       9595       9594       9704       9705       9716       9715  
      9584       9585       9596       9595       9705       9706       9717       9716  
      9585       9586       9597       9596       9706       9707       9718       9717  
      9586       9587       9598       9597       9707       9708       9719       9718  
      9587       9588       9599       9598       9708       9709       9720       9719  
      9588       9589       9600       9599       9709       9710       9721       9720  
      9589       9590       9601       9600       9710       9711       9722       9721  
      9590       9591       9602       9601       9711       9712       9723       9722  
      9591       9592       9603       9602       9712       9713       9724       9723  
      9593       9594       9605       9604       9714       9715       9726       9725  
      9594       9595       9606       9605       9715       9716       9727       9726  
      9595       9596       9607       9606       9716       9717       9728       9727  
      9596       9597       9608       9607       9717       9718       9729       9728  
      9597       9598       9609       9608       9718       9719       9730       9729  
      9598       9599       9610       9609       9719       9720       9731       9730  
      9599       9600       9611       9610       9720       9721       9732       9731  
      9600       9601       9612       9611       9721       9722       9733       9732  
      9601       9602       9613       9612       9722       9723       9734       9733  
      9602       9603       9614       9613       9723       9724       9735       9734  
      9604       9605       9616       9615       9725       9726       9737       9736  
      9605       9606       9617       9616       9726       9727       9738       9737  
      9606       9607       9618       9617       9727       9728       9739       9738  
      9607       9608       9619       9618       9728       9729       9740       9739  
      9608       9609       9620       9619       9729       9730       9741       9740  
      9609       9610       9621       9620       9730       9731       9742       9741  
      9610       9611       9622       9621       9731       9732       9743       9742  
      9611       9612       9623       9622       9732       9733       9744       9743  
      9612       9613       9624       9623       9733       9734       9745       9744  
      9613       9614       9625       9624       9734       9735       9746       9745  
      9615       9616       9627       9626       9736       9737       9748       9747  
      9616       9617       9628       9627       9737       9738       9749       9748  
      9617       9618       9629       9628       9738       9739       9750       9749  
      9618       9619       9630       9629       9739       9740       9751       9750  
      9619       9620       9631       9630       9740       9741       9752       9751  
      9620       9621       9632       9631       9741       9742       9753       9752  
      9621       9622       9633       9632       9742       9743       9754       9753  
      9622       9623       9634       9633       9743       9744       9755       9754  
      9623       9624       9635       9634       9744       9745       9756       9755  
      9624       9625       9636       9635       9745       9746       9757       9756  
      9626       9627       9638       9637       9747       9748       9759       9758  
      9627       9628       9639       9638       9748       9749       9760       9759  
      9628       9629       9640       9639       9749       9750       9761       9760  
      9629       9630       9641       9640       9750       9751       9762       9761  
      9630       9631       9642       9641       9751       9752       9763       9762  
      9631       9632       9643       9642       9752       9753       9764       9763  
      9632       9633       9644       9643       9753       9754       9765       9764  
      9633       9634       9645       9644       9754       9755       9766       9765  
      9634       9635       9646       9645       9755       9756       9767       9766  
      9635       9636       9647       9646       9756       9757       9768       9767  
      9637       9638       9649       9648       9758       9759       9770       9769  
      9638       9639       9650       9649       9759       9760       9771       9770  
      9639       9640       9651       9650       9760       9761       9772       9771  
      9640       9641       9652       9651       9761       9762       9773       9772  
      9641       9642       9653       9652       9762       9763       9774       9773  
      9642       9643       9654       9653       9763       9764       9775       9774  
      9643       9644       9655       9654       9764       9765       9776       9775  
      9644       9645       9656       9655       9765       9766       9777       9776  
      9645       9646       9657       9656       9766       9767       9778       9777  
      9646       9647       9658       9657       9767       9768       9779       9778  
      9648       9649       9660       9659       9769       9770       9781       9780  
      9649       9650       9661       9660       9770       9771       9782       9781  
      9650       9651       9662       9661       9771       9772       9783       9782  
      9651       9652       9663       9662       9772       9773       9784       9783  
      9652       9653       9664       9663       9773       9774       9785       9784  
      9653       9654       9665       9664       9774       9775       9786       9785  
      9654       9655       9666       9665       9775       9776       9787       9786  
      9655       9656       9667       9666       9776       9777       9788       9787  
      9656       9657       9668       9667       9777       9778       9789       9788  
      9657       9658       9669       9668       9778       9779       9790       9789  
      9659       9660       9671       9670       9780       9781       9792       9791  
      9660       9661       9672       9671       9781       9782       9793       9792  
      9661       9662       9673       9672       9782       9783       9794       9793  
      9662       9663       9674       9673       9783       9784       9795       9794  
      9663       9664       9675       9674       9784       9785       9796       9795  
      9664       9665       9676       9675       9785       9786       9797       9796  
      9665       9666       9677       9676       9786       9787       9798       9797  
      9666       9667       9678       9677       9787       9788       9799       9798  
      9667       9668       9679       9678       9788       9789       9800       9799  
      9668       9669       9680       9679       9789       9790       9801       9800  
      9681       9682       9693       9692       9802       9803       9814       9813  
      9682       9683       9694       9693       9803       9804       9815       9814  
      9683       9684       9695       9694       9804       9805       9816       9815  
      9684       9685       9696       9695       9805       9806       9817       9816  
      9685       9686       9697       9696       9806       9807       9818       9817  
      9686       9687       9698       9697       9807       9808       9819       9818  
      9687       9688       9699       9698       9808       9809       9820       9819  
      9688       9689       9700       9699       9809       9810       9821       9820  
      9689       9690       9701       9700       9810       9811       9822       9821  
      9690       9691       9702       9701       9811       9812       9823       9822  
      9692       9693       9704       9703       9813       9814       9825       9824  
      9693       9694       9705       9704       9814       9815       9826       9825  
      9694       9695       9706       9705       9815       9816       9827       9826  
      9695       9696       9707       9706       9816       9817       9828       9827  
      9696       9697       9708       9707       9817       9818       9829       9828  
      9697       9698       9709       9708       9818       9819       9830       9829  
      9698       9699       9710       9709       9819       9820       9831       9830  
      9699       9700       9711       9710       9820       9821       9832       9831  
      9700       9701       9712       9711       9821       9822       9833       9832  
      9701       9702       9713       9712       9822       9823       9834       9833  
      9703       9704       9715       9714       9824       9825       9836       9835  
      9704       9705       9716       9715       9825       9826       9837       9836  
      9705       9706       9717       9716       9826       9827       9838       9837  
      9706       9707       9718       9717       9827       9828       9839       9838  
      9707       9708       9719       9718       9828       9829       9840       9839  
      9708       9709       9720       9719       9829       9830       9841       9840  
      9709       9710       9721       9720       9830       9831       9842       9841  
      9710       9711       9722       9721       9831       9832       9843       9842  
      9711       9712       9723       9722       9832       9833       9844       9843  
      9712       9713       9724       9723       9833       9834       9845       9844  
      9714       9715       9726       9725       9835       9836       9847       9846  
      9715       9716       9727       9726       9836       9837       9848       9847  
      9716       9717       9728       9727       9837       9838       9849       9848  
      9717       9718       9729       9728       9838       9839       9850       9849  
      9718       9719       9730       9729       9839       9840       9851       9850  
      9719       9720       9731       9730       9840       9841       9852       9851  
      9720       9721       9732       9731       9841       9842       9853       9852  
      9721       9722       9733       9732       9842       9843       9854       9853  
      9722       9723       9734       9733       9843       9844       9855       9854  
      9723       9724       9735       9734       9844       9845       9856       9855  
      9725       9726       9737       9736       9846       9847       9858       9857  
      9726       9727       9738       9737       9847       9848       9859       9858  
      9727       9728       9739       9738       9848       9849       9860       9859  
      9728       9729       9740       9739       9849       9850       9861       9860  
      9729       9730       9741       9740       9850       9851       9862       9861  
      9730       9731       9742       9741       9851       9852       9863       9862  
      9731       9732       9743       9742       9852       9853       9864       9863  
      9732       9733       9744       9743       9853       9854       9865       9864  
      9733       9734       9745       9744       9854       9855       9866       9865  
      9734       9735       9746       9745       9855       9856       9867       9866  
      9736       9737       9748       9747       9857       9858       9869       9868  
      9737       9738       9749       9748       9858       9859       9870       9869  
      9738       9739       9750       9749       9859       9860       9871       9870  
      9739       9740       9751       9750       9860       9861       9872       9871  
      9740       9741       9752       9751       9861       9862       9873       9872  
      9741       9742       9753       9752       9862       9863       9874       9873  
      9742       9743       9754       9753       9863       9864       9875       9874  
      9743       9744       9755       9754       9864       9865       9876       9875  
      9744       9745       9756       9755       9865       9866       9877       9876  
      9745       9746       9757       9756       9866       9867       9878       9877  
      9747       9748       9759       9758       9868       9869       9880       9879  
      9748       9749       9760       9759       9869       9870       9881       9880  
      9749       9750       9761       9760       9870       9871       9882       9881  
      9750       9751       9762       9761       9871       9872       9883       9882  
      9751       9752       9763       9762       9872       9873       9884       9883  
      9752       9753       9764       9763       9873       9874       9885       9884  
      9753       9754       9765       9764       9874       9875       9886       9885  
      9754       9755       9766       9765       9875       9876       9887       9886  
      9755       9756       9767       9766       9876       9877       9888       9887  
      9756       9757       9768       9767       9877       9878       9889       9888  
      9758       9759       9770       9769       9879       9880       9891       9890  
      9759       9760       9771       9770       9880       9881       9892       9891  
      9760       9761       9772       9771       9881       9882       9893       9892  
      9761       9762       9773       9772       9882       9883       9894       9893  
      9762       9763       9774       9773       9883       9884       9895       9894  
      9763       9764       9775       9774       9884       9885       9896       9895  
      9764       9765       9776       9775       9885       9886       9897       9896  
      9765       9766       9777       9776       9886       9887       9898       9897  
      9766       9767       9778       9777       9887       9888       9899       9898  
      9767       9768       9779       9778       9888       9889       9900       9899  
      9769       9770       9781       9780       9890       9891       9902       9901  
      9770       9771       9782       9781       9891       9892       9903       9902  
      9771       9772       9783       9782       9892       9893       9904       9903  
      9772       9773       9784       9783       9893       9894       9905       9904  
      9773       9774       9785       9784       9894       9895       9906       9905  
      9774       9775       9786       9785       9895       9896       9907       9906  
      9775       9776       9787       9786       9896       9897       9908       9907  
      9776       9777       9788       9787       9897       9898       9909       9908  
      9777       9778       9789       9788       9898       9899       9910       9909  
      9778       9779       9790       9789       9899       9900       9911       9910  
      9780       9781       9792       9791       9901       9902       9913       9912  
      9781       9782       9793       9792       9902       9903       9914       9913  
      9782       9783       9794       9793       9903       9904       9915       9914  
      9783       9784       9795       9794       9904       9905       9916       9915  
      9784       9785       9796       9795       9905       9906       9917       9916  
      9785       9786       9797       9796       9906       9907       9918       9917  
      9786       9787       9798       9797       9907       9908       9919       9918  
      9787       9788       9799       9798       9908       9909       9920       9919  
      9788       9789       9800       9799       9909       9910       9921       9920  
      9789       9790       9801       9800       9910       9911       9922       9921  
      9802       9803       9814       9813       9923       9924       9935       9934  
      9803       9804       9815       9814       9924       9925       9936       9935  
      9804       9805       9816       9815       9925       9926       9937       9936  
      9805       9806       9817       9816       9926       9927       9938       9937  
      9806       9807       9818       9817       9927       9928       9939       9938  
      9807       9808       9819       9818       9928       9929       9940       9939  
      9808       9809       9820       9819       9929       9930       9941       9940  
      9809       9810       9821       9820       9930       9931       9942       9941  
      9810       9811       9822       9821       9931       9932       9943       9942  
      9811       9812       9823       9822       9932       9933       9944       9943  
      9813       9814       9825       9824       9934       9935       9946       9945  
      9814       9815       9826       9825       9935       9936       9947       9946  
      9815       9816       9827       9826       9936       9937       9948       9947  
      9816       9817       9828       9827       9937       9938       9949       9948  
      9817       9818       9829       9828       9938       9939       9950       9949  
      9818       9819       9830       9829       9939       9940       9951       9950  
      9819       9820       9831       9830       9940       9941       9952       9951  
      9820       9821       9832       9831       9941       9942       9953       9952  
      9821       9822       9833       9832       9942       9943       9954       9953  
      9822       9823       9834       9833       9943       9944       9955       9954  
      9824       9825       9836       9835       9945       9946       9957       9956  
      9825       9826       9837       9836       9946       9947       9958       9957  
      9826       9827       9838       9837       9947       9948       9959       9958  
      9827       9828       9839       9838       9948       9949       9960       9959  
      9828       9829       9840       9839       9949       9950       9961       9960  
      9829       9830       9841       9840       9950       9951       9962       9961  
      9830       9831       9842       9841       9951       9952       9963       9962  
      9831       9832       9843       9842       9952       9953       9964       9963  
      9832       9833       9844       9843       9953       9954       9965       9964  
      9833       9834       9845       9844       9954       9955       9966       9965  
      9835       9836       9847       9846       9956       9957       9968       9967  
      9836       9837       9848       9847       9957       9958       9969       9968  
      9837       9838       9849       9848       9958       9959       9970       9969  
      9838       9839       9850       9849       9959       9960       9971       9970  
      9839       9840       9851       9850       9960       9961       9972       9971  
      9840       9841       9852       9851       9961       9962       9973       9972  
      9841       9842       9853       9852       9962       9963       9974       9973  
      9842       9843       9854       9853       9963       9964       9975       9974  
      9843       9844       9855       9854       9964       9965       9976       9975  
      9844       9845       9856       9855       9965       9966       9977       9976  
      9846       9847       9858       9857       9967       9968       9979       9978  
      9847       9848       9859       9858       9968       9969       9980       9979  
      9848       9849       9860       9859       9969       9970       9981       9980  
      9849       9850       9861       9860       9970       9971       9982       9981  
      9850       9851       9862       9861       9971       9972       9983       9982  
      9851       9852       9863       9862       9972       9973       9984       9983  
      9852       9853       9864       9863       9973       9974       9985       9984  
      9853       9854       9865       9864       9974       9975       9986       9985  
      9854       9855       9866       9865       9975       9976       9987       9986  
      9855       9856       9867       9866       9976       9977       9988       9987  
      9857       9858       9869       9868       9978       9979       9990       9989  
      9858       9859       9870       9869       9979       9980       9991       9990  
      9859       9860       9871       9870       9980       9981       9992       9991  
      9860       9861       9872       9871       9981       9982       9993       9992  
      9861       9862       9873       9872       9982       9983       9994       9993  
      9862       9863       9874       9873       9983       9984       9995       9994  
      9863       9864       9875       9874       9984       9985       9996       9995  
      9864       9865       9876       9875       9985       9986       9997       9996  
      9865       9866       9877       9876       9986       9987       9998       9997  
      9866       9867       9878       9877       9987       9988       9999       9998  
      9868       9869       9880       9879       9989       9990      10001      10000  
      9869       9870       9881       9880       9990       9991      10002      10001  
      9870       9871       9882       9881       9991       9992      10003      10002  
      9871       9872       9883       9882       9992       9993      10004      10003  
      9872       9873       9884       9883       9993       9994      10005      10004  
      9873       9874       9885       9884       9994       9995      10006      10005  
      9874       9875       9886       9885       9995       9996      10007      10006  
      9875       9876       9887       9886       9996       9997      10008      10007  
      9876       9877       9888       9887       9997       9998      10009      10008  
      9877       9878       9889       9888       9998       9999      10010      10009  
      9879       9880       9891       9890      10000      10001      10012      10011  
      9880       9881       9892       9891      10001      10002      10013      10012  
      9881       9882       9893       9892      10002      10003      10014      10013  
      9882       9883       9894       9893      10003      10004      10015      10014  
      9883       9884       9895       9894      10004      10005      10016      10015  
      9884       9885       9896       9895      10005      10006      10017      10016  
      9885       9886       9897       9896      10006      10007      10018      10017  
      9886       9887       9898       9897      10007      10008      10019      10018  
      9887       9888       9899       9898      10008      10009      10020      10019  
      9888       9889       9900       9899      10009      10010      10021      10020  
      9890       9891       9902       9901      10011      10012      10023      10022  
      9891       9892       9903       9902      10012      10013      10024      10023  
      9892       9893       9904       9903      10013      10014      10025      10024  
      9893       9894       9905       9904      10014      10015      10026      10025  
      9894       9895       9906       9905      10015      10016      10027      10026  
      9895       9896       9907       9906      10016      10017      10028      10027  
      9896       9897       9908       9907      10017      10018      10029      10028  
      9897       9898       9909       9908      10018      10019      10030      10029  
      9898       9899       9910       9909      10019      10020      10031      10030  
      9899       9900       9911       9910      10020      10021      10032      10031  
      9901       9902       9913       9912      10022      10023      10034      10033  
      9902       9903       9914       9913      10023      10024      10035      10034  
      9903       9904       9915       9914      10024      10025      10036      10035  
      9904       9905       9916       9915      10025      10026      10037      10036  
      9905       9906       9917       9916      10026      10027      10038      10037  
      9906       9907       9918       9917      10027      10028      10039      10038  
      9907       9908       9919       9918      10028      10029      10040      10039  
      9908       9909       9920       9919      10029      10030      10041      10040  
      9909       9910       9921       9920      10030      10031      10042      10041  
      9910       9911       9922       9921      10031      10032      10043      10042  
      9923       9924       9935       9934      10044      10045      10056      10055  
      9924       9925       9936       9935      10045      10046      10057      10056  
      9925       9926       9937       9936      10046      10047      10058      10057  
      9926       9927       9938       9937      10047      10048      10059      10058  
      9927       9928       9939       9938      10048      10049      10060      10059  
      9928       9929       9940       9939      10049      10050      10061      10060  
      9929       9930       9941       9940      10050      10051      10062      10061  
      9930       9931       9942       9941      10051      10052      10063      10062  
      9931       9932       9943       9942      10052      10053      10064      10063  
      9932       9933       9944       9943      10053      10054      10065      10064  
      9934       9935       9946       9945      10055      10056      10067      10066  
      9935       9936       9947       9946      10056      10057      10068      10067  
      9936       9937       9948       9947      10057      10058      10069      10068  
      9937       9938       9949       9948      10058      10059      10070      10069  
      9938       9939       9950       9949      10059      10060      10071      10070  
      9939       9940       9951       9950      10060      10061      10072      10071  
      9940       9941       9952       9951      10061      10062      10073      10072  
      9941       9942       9953       9952      10062      10063      10074      10073  
      9942       9943       9954       9953      10063      10064      10075      10074  
      9943       9944       9955       9954      10064      10065      10076      10075  
      9945       9946       9957       9956      10066      10067      10078      10077  
      9946       9947       9958       9957      10067      10068      10079      10078  
      9947       9948       9959       9958      10068      10069      10080      10079  
      9948       9949       9960       9959      10069      10070      10081      10080  
      9949       9950       9961       9960      10070      10071      10082      10081  
      9950       9951       9962       9961      10071      10072      10083      10082  
      9951       9952       9963       9962      10072      10073      10084      10083  
      9952       9953       9964       9963      10073      10074      10085      10084  
      9953       9954       9965       9964      10074      10075      10086      10085  
      9954       9955       9966       9965      10075      10076      10087      10086  
      9956       9957       9968       9967      10077      10078      10089      10088  
      9957       9958       9969       9968      10078      10079      10090      10089  
      9958       9959       9970       9969      10079      10080      10091      10090  
      9959       9960       9971       9970      10080      10081      10092      10091  
      9960       9961       9972       9971      10081      10082      10093      10092  
      9961       9962       9973       9972      10082      10083      10094      10093  
      9962       9963       9974       9973      10083      10084      10095      10094  
      9963       9964       9975       9974      10084      10085      10096      10095  
      9964       9965       9976       9975      10085      10086      10097      10096  
      9965       9966       9977       9976      10086      10087      10098      10097  
      9967       9968       9979       9978      10088      10089      10100      10099  
      9968       9969       9980       9979      10089      10090      10101      10100  
      9969       9970       9981       9980      10090      10091      10102      10101  
      9970       9971       9982       9981      10091      10092      10103      10102  
      9971       9972       9983       9982      10092      10093      10104      10103  
      9972       9973       9984       9983      10093      10094      10105      10104  
      9973       9974       9985       9984      10094      10095      10106      10105  
      9974       9975       9986       9985      10095      10096      10107      10106  
      9975       9976       9987       9986      10096      10097      10108      10107  
      9976       9977       9988       9987      10097      10098      10109      10108  
      9978       9979       9990       9989      10099      10100      10111      10110  
      9979       9980       9991       9990      10100      10101      10112      10111  
      9980       9981       9992       9991      10101      10102      10113      10112  
      9981       9982       9993       9992      10102      10103      10114      10113  
      9982       9983       9994       9993      10103      10104      10115      10114  
      9983       9984       9995       9994      10104      10105      10116      10115  
      9984       9985       9996       9995      10105      10106      10117      10116  
      9985       9986       9997       9996      10106      10107      10118      10117  
      9986       9987       9998       9997      10107      10108      10119      10118  
      9987       9988       9999       9998      10108      10109      10120      10119  
      9989       9990      10001      10000      10110      10111      10122      10121  
      9990       9991      10002      10001      10111      10112      10123      10122  
      9991       9992      10003      10002      10112      10113      10124      10123  
      9992       9993      10004      10003      10113      10114      10125      10124  
      9993       9994      10005      10004      10114      10115      10126      10125  
      9994       9995      10006      10005      10115      10116      10127      10126  
      9995       9996      10007      10006      10116      10117      10128      10127  
      9996       9997      10008      10007      10117      10118      10129      10128  
      9997       9998      10009      10008      10118      10119      10130      10129  
      9998       9999      10010      10009      10119      10120      10131      10130  
     10000      10001      10012      10011      10121      10122      10133      10132  
     10001      10002      10013      10012      10122      10123      10134      10133  
     10002      10003      10014      10013      10123      10124      10135      10134  
     10003      10004      10015      10014      10124      10125      10136      10135  
     10004      10005      10016      10015      10125      10126      10137      10136  
     10005      10006      10017      10016      10126      10127      10138      10137  
     10006      10007      10018      10017      10127      10128      10139      10138  
     10007      10008      10019      10018      10128      10129      10140      10139  
     10008      10009      10020      10019      10129      10130      10141      10140  
     10009      10010      10021      10020      10130      10131      10142      10141  
     10011      10012      10023      10022      10132      10133      10144      10143  
     10012      10013      10024      10023      10133      10134      10145      10144  
     10013      10014      10025      10024      10134      10135      10146      10145  
     10014      10015      10026      10025      10135      10136      10147      10146  
     10015      10016      10027      10026      10136      10137      10148      10147  
     10016      10017      10028      10027      10137      10138      10149      10148  
     10017      10018      10029      10028      10138      10139      10150      10149  
     10018      10019      10030      10029      10139      10140      10151      10150  
     10019      10020      10031      10030      10140      10141      10152      10151  
     10020      10021      10032      10031      10141      10142      10153      10152  
     10022      10023      10034      10033      10143      10144      10155      10154  
     10023      10024      10035      10034      10144      10145      10156      10155  
     10024      10025      10036      10035      10145      10146      10157      10156  
     10025      10026      10037      10036      10146      10147      10158      10157  
     10026      10027      10038      10037      10147      10148      10159      10158  
     10027      10028      10039      10038      10148      10149      10160      10159  
     10028      10029      10040      10039      10149      10150      10161      10160  
     10029      10030      10041      10040      10150      10151      10162      10161  
     10030      10031      10042      10041      10151      10152      10163      10162  
     10031      10032      10043      10042      10152      10153      10164      10163  
     10044      10045      10056      10055      10165      10166      10177      10176  
     10045      10046      10057      10056      10166      10167      10178      10177  
     10046      10047      10058      10057      10167      10168      10179      10178  
     10047      10048      10059      10058      10168      10169      10180      10179  
     10048      10049      10060      10059      10169      10170      10181      10180  
     10049      10050      10061      10060      10170      10171      10182      10181  
     10050      10051      10062      10061      10171      10172      10183      10182  
     10051      10052      10063      10062      10172      10173      10184      10183  
     10052      10053      10064      10063      10173      10174      10185      10184  
     10053      10054      10065      10064      10174      10175      10186      10185  
     10055      10056      10067      10066      10176      10177      10188      10187  
     10056      10057      10068      10067      10177      10178      10189      10188  
     10057      10058      10069      10068      10178      10179      10190      10189  
     10058      10059      10070      10069      10179      10180      10191      10190  
     10059      10060      10071      10070      10180      10181      10192      10191  
     10060      10061      10072      10071      10181      10182      10193      10192  
     10061      10062      10073      10072      10182      10183      10194      10193  
     10062      10063      10074      10073      10183      10184      10195      10194  
     10063      10064      10075      10074      10184      10185      10196      10195  
     10064      10065      10076      10075      10185      10186      10197      10196  
     10066      10067      10078      10077      10187      10188      10199      10198  
     10067      10068      10079      10078      10188      10189      10200      10199  
     10068      10069      10080      10079      10189      10190      10201      10200  
     10069      10070      10081      10080      10190      10191      10202      10201  
     10070      10071      10082      10081      10191      10192      10203      10202  
     10071      10072      10083      10082      10192      10193      10204      10203  
     10072      10073      10084      10083      10193      10194      10205      10204  
     10073      10074      10085      10084      10194      10195      10206      10205  
     10074      10075      10086      10085      10195      10196      10207      10206  
     10075      10076      10087      10086      10196      10197      10208      10207  
     10077      10078      10089      10088      10198      10199      10210      10209  
     10078      10079      10090      10089      10199      10200      10211      10210  
     10079      10080      10091      10090      10200      10201      10212      10211  
     10080      10081      10092      10091      10201      10202      10213      10212  
     10081      10082      10093      10092      10202      10203      10214      10213  
     10082      10083      10094      10093      10203      10204      10215      10214  
     10083      10084      10095      10094      10204      10205      10216      10215  
     10084      10085      10096      10095      10205      10206      10217      10216  
     10085      10086      10097      10096      10206      10207      10218      10217  
     10086      10087      10098      10097      10207      10208      10219      10218  
     10088      10089      10100      10099      10209      10210      10221      10220  
     10089      10090      10101      10100      10210      10211      10222      10221  
     10090      10091      10102      10101      10211      10212      10223      10222  
     10091      10092      10103      10102      10212      10213      10224      10223  
     10092      10093      10104      10103      10213      10214      10225      10224  
     10093      10094      10105      10104      10214      10215      10226      10225  
     10094      10095      10106      10105      10215      10216      10227      10226  
     10095      10096      10107      10106      10216      10217      10228      10227  
     10096      10097      10108      10107      10217      10218      10229      10228  
     10097      10098      10109      10108      10218      10219      10230      10229  
     10099      10100      10111      10110      10220      10221      10232      10231  
     10100      10101      10112      10111      10221      10222      10233      10232  
     10101      10102      10113      10112      10222      10223      10234      10233  
     10102      10103      10114      10113      10223      10224      10235      10234  
     10103      10104      10115      10114      10224      10225      10236      10235  
     10104      10105      10116      10115      10225      10226      10237      10236  
     10105      10106      10117      10116      10226      10227      10238      10237  
     10106      10107      10118      10117      10227      10228      10239      10238  
     10107      10108      10119      10118      10228      10229      10240      10239  
     10108      10109      10120      10119      10229      10230      10241      10240  
     10110      10111      10122      10121      10231      10232      10243      10242  
     10111      10112      10123      10122      10232      10233      10244      10243  
     10112      10113      10124      10123      10233      10234      10245      10244  
     10113      10114      10125      10124      10234      10235      10246      10245  
     10114      10115      10126      10125      10235      10236      10247      10246  
     10115      10116      10127      10126      10236      10237      10248      10247  
     10116      10117      10128      10127      10237      10238      10249      10248  
     10117      10118      10129      10128      10238      10239      10250      10249  
     10118      10119      10130      10129      10239      10240      10251      10250  
     10119      10120      10131      10130      10240      10241      10252      10251  
     10121      10122      10133      10132      10242      10243      10254      10253  
     10122      10123      10134      10133      10243      10244      10255      10254  
     10123      10124      10135      10134      10244      10245      10256      10255  
     10124      10125      10136      10135      10245      10246      10257      10256  
     10125      10126      10137      10136      10246      10247      10258      10257  
     10126      10127      10138      10137      10247      10248      10259      10258  
     10127      10128      10139      10138      10248      10249      10260      10259  
     10128      10129      10140      10139      10249      10250      10261      10260  
     10129      10130      10141      10140      10250      10251      10262      10261  
     10130      10131      10142      10141      10251      10252      10263      10262  
     10132      10133      10144      10143      10253      10254      10265      10264  
     10133      10134      10145      10144      10254      10255      10266      10265  
     10134      10135      10146      10145      10255      10256      10267      10266  
     10135      10136      10147      10146      10256      10257      10268      10267  
     10136      10137      10148      10147      10257      10258      10269      10268  
     10137      10138      10149      10148      10258      10259      10270      10269  
     10138      10139      10150      10149      10259      10260      10271      10270  
     10139      10140      10151      10150      10260      10261      10272      10271  
     10140      10141      10152      10151      10261      10262      10273      10272  
     10141      10142      10153      10152      10262      10263      10274      10273  
     10143      10144      10155      10154      10264      10265      10276      10275  
     10144      10145      10156      10155      10265      10266      10277      10276  
     10145      10146      10157      10156      10266      10267      10278      10277  
     10146      10147      10158      10157      10267      10268      10279      10278  
     10147      10148      10159      10158      10268      10269      10280      10279  
     10148      10149      10160      10159      10269      10270      10281      10280  
     10149      10150      10161      10160      10270      10271      10282      10281  
     10150      10151      10162      10161      10271      10272      10283      10282  
     10151      10152      10163      10162      10272      10273      10284      10283  
     10152      10153      10164      10163      10273      10274      10285      10284  
     10165      10166      10177      10176      10286      10287      10298      10297  
     10166      10167      10178      10177      10287      10288      10299      10298  
     10167      10168      10179      10178      10288      10289      10300      10299  
     10168      10169      10180      10179      10289      10290      10301      10300  
     10169      10170      10181      10180      10290      10291      10302      10301  
     10170      10171      10182      10181      10291      10292      10303      10302  
     10171      10172      10183      10182      10292      10293      10304      10303  
     10172      10173      10184      10183      10293      10294      10305      10304  
     10173      10174      10185      10184      10294      10295      10306      10305  
     10174      10175      10186      10185      10295      10296      10307      10306  
     10176      10177      10188      10187      10297      10298      10309      10308  
     10177      10178      10189      10188      10298      10299      10310      10309  
     10178      10179      10190      10189      10299      10300      10311      10310  
     10179      10180      10191      10190      10300      10301      10312      10311  
     10180      10181      10192      10191      10301      10302      10313      10312  
     10181      10182      10193      10192      10302      10303      10314      10313  
     10182      10183      10194      10193      10303      10304      10315      10314  
     10183      10184      10195      10194      10304      10305      10316      10315  
     10184      10185      10196      10195      10305      10306      10317      10316  
     10185      10186      10197      10196      10306      10307      10318      10317  
     10187      10188      10199      10198      10308      10309      10320      10319  
     10188      10189      10200      10199      10309      10310      10321      10320  
     10189      10190      10201      10200      10310      10311      10322      10321  
     10190      10191      10202      10201      10311      10312      10323      10322  
     10191      10192      10203      10202      10312      10313      10324      10323  
     10192      10193      10204      10203      10313      10314      10325      10324  
     10193      10194      10205      10204      10314      10315      10326      10325  
     10194      10195      10206      10205      10315      10316      10327      10326  
     10195      10196      10207      10206      10316      10317      10328      10327  
     10196      10197      10208      10207      10317      10318      10329      10328  
     10198      10199      10210      10209      10319      10320      10331      10330  
     10199      10200      10211      10210      10320      10321      10332      10331  
     10200      10201      10212      10211      10321      10322      10333      10332  
     10201      10202      10213      10212      10322      10323      10334      10333  
     10202      10203      10214      10213      10323      10324      10335      10334  
     10203      10204      10215      10214      10324      10325      10336      10335  
     10204      10205      10216      10215      10325      10326      10337      10336  
     10205      10206      10217      10216      10326      10327      10338      10337  
     10206      10207      10218      10217      10327      10328      10339      10338  
     10207      10208      10219      10218      10328      10329      10340      10339  
     10209      10210      10221      10220      10330      10331      10342      10341  
     10210      10211      10222      10221      10331      10332      10343      10342  
     10211      10212      10223      10222      10332      10333      10344      10343  
     10212      10213      10224      10223      10333      10334      10345      10344  
     10213      10214      10225      10224      10334      10335      10346      10345  
     10214      10215      10226      10225      10335      10336      10347      10346  
     10215      10216      10227      10226      10336      10337      10348      10347  
     10216      10217      10228      10227      10337      10338      10349      10348  
     10217      10218      10229      10228      10338      10339      10350      10349  
     10218      10219      10230      10229      10339      10340      10351      10350  
     10220      10221      10232      10231      10341      10342      10353      10352  
     10221      10222      10233      10232      10342      10343      10354      10353  
     10222      10223      10234      10233      10343      10344      10355      10354  
     10223      10224      10235      10234      10344      10345      10356      10355  
     10224      10225      10236      10235      10345      10346      10357      10356  
     10225      10226      10237      10236      10346      10347      10358      10357  
     10226      10227      10238      10237      10347      10348      10359      10358  
     10227      10228      10239      10238      10348      10349      10360      10359  
     10228      10229      10240      10239      10349      10350      10361      10360  
     10229      10230      10241      10240      10350      10351      10362      10361  
     10231      10232      10243      10242      10352      10353      10364      10363  
     10232      10233      10244      10243      10353      10354      10365      10364  
     10233      10234      10245      10244      10354      10355      10366      10365  
     10234      10235      10246      10245      10355      10356      10367      10366  
     10235      10236      10247      10246      10356      10357      10368      10367  
     10236      10237      10248      10247      10357      10358      10369      10368  
     10237      10238      10249      10248      10358      10359      10370      10369  
     10238      10239      10250      10249      10359      10360      10371      10370  
     10239      10240      10251      10250      10360      10361      10372      10371  
     10240      10241      10252      10251      10361      10362      10373      10372  
     10242      10243      10254      10253      10363      10364      10375      10374  
     10243      10244      10255      10254      10364      10365      10376      10375  
     10244      10245      10256      10255      10365      10366      10377      10376  
     10245      10246      10257      10256      10366      10367      10378      10377  
     10246      10247      10258      10257      10367      10368      10379      10378  
     10247      10248      10259      10258      10368      10369      10380      10379  
     10248      10249      10260      10259      10369      10370      10381      10380  
     10249      10250      10261      10260      10370      10371      10382      10381  
     10250      10251      10262      10261      10371      10372      10383      10382  
     10251      10252      10263      10262      10372      10373      10384      10383  
     10253      10254      10265      10264      10374      10375      10386      10385  
     10254      10255      10266      10265      10375      10376      10387      10386  
     10255      10256      10267      10266      10376      10377      10388      10387  
     10256      10257      10268      10267      10377      10378      10389      10388  
     10257      10258      10269      10268      10378      10379      10390      10389  
     10258      10259      10270      10269      10379      10380      10391      10390  
     10259      10260      10271      10270      10380      10381      10392      10391  
     10260      10261      10272      10271      10381      10382      10393      10392  
     10261      10262      10273      10272      10382      10383      10394      10393  
     10262      10263      10274      10273      10383      10384      10395      10394  
     10264      10265      10276      10275      10385      10386      10397      10396  
     10265      10266      10277      10276      10386      10387      10398      10397  
     10266      10267      10278      10277      10387      10388      10399      10398  
     10267      10268      10279      10278      10388      10389      10400      10399  
     10268      10269      10280      10279      10389      10390      10401      10400  
     10269      10270      10281      10280      10390      10391      10402      10401  
     10270      10271      10282      10281      10391      10392      10403      10402  
     10271      10272      10283      10282      10392      10393      10404      10403  
     10272      10273      10284      10283      10393      10394      10405      10404  
     10273      10274      10285      10284      10394      10395      10406      10405  
     10286      10287      10298      10297      10407      10408      10419      10418  
     10287      10288      10299      10298      10408      10409      10420      10419  
     10288      10289      10300      10299      10409      10410      10421      10420  
     10289      10290      10301      10300      10410      10411      10422      10421  
     10290      10291      10302      10301      10411      10412      10423      10422  
     10291      10292      10303      10302      10412      10413      10424      10423  
     10292      10293      10304      10303      10413      10414      10425      10424  
     10293      10294      10305      10304      10414      10415      10426      10425  
     10294      10295      10306      10305      10415      10416      10427      10426  
     10295      10296      10307      10306      10416      10417      10428      10427  
     10297      10298      10309      10308      10418      10419      10430      10429  
     10298      10299      10310      10309      10419      10420      10431      10430  
     10299      10300      10311      10310      10420      10421      10432      10431  
     10300      10301      10312      10311      10421      10422      10433      10432  
     10301      10302      10313      10312      10422      10423      10434      10433  
     10302      10303      10314      10313      10423      10424      10435      10434  
     10303      10304      10315      10314      10424      10425      10436      10435  
     10304      10305      10316      10315      10425      10426      10437      10436  
     10305      10306      10317      10316      10426      10427      10438      10437  
     10306      10307      10318      10317      10427      10428      10439      10438  
     10308      10309      10320      10319      10429      10430      10441      10440  
     10309      10310      10321      10320      10430      10431      10442      10441  
     10310      10311      10322      10321      10431      10432      10443      10442  
     10311      10312      10323      10322      10432      10433      10444      10443  
     10312      10313      10324      10323      10433      10434      10445      10444  
     10313      10314      10325      10324      10434      10435      10446      10445  
     10314      10315      10326      10325      10435      10436      10447      10446  
     10315      10316      10327      10326      10436      10437      10448      10447  
     10316      10317      10328      10327      10437      10438      10449      10448  
     10317      10318      10329      10328      10438      10439      10450      10449  
     10319      10320      10331      10330      10440      10441      10452      10451  
     10320      10321      10332      10331      10441      10442      10453      10452  
     10321      10322      10333      10332      10442      10443      10454      10453  
     10322      10323      10334      10333      10443      10444      10455      10454  
     10323      10324      10335      10334      10444      10445      10456      10455  
     10324      10325      10336      10335      10445      10446      10457      10456  
     10325      10326      10337      10336      10446      10447      10458      10457  
     10326      10327      10338      10337      10447      10448      10459      10458  
     10327      10328      10339      10338      10448      10449      10460      10459  
     10328      10329      10340      10339      10449      10450      10461      10460  
     10330      10331      10342      10341      10451      10452      10463      10462  
     10331      10332      10343      10342      10452      10453      10464      10463  
     10332      10333      10344      10343      10453      10454      10465      10464  
     10333      10334      10345      10344      10454      10455      10466      10465  
     10334      10335      10346      10345      10455      10456      10467      10466  
     10335      10336      10347      10346      10456      10457      10468      10467  
     10336      10337      10348      10347      10457      10458      10469      10468  
     10337      10338      10349      10348      10458      10459      10470      10469  
     10338      10339      10350      10349      10459      10460      10471      10470  
     10339      10340      10351      10350      10460      10461      10472      10471  
     10341      10342      10353      10352      10462      10463      10474      10473  
     10342      10343      10354      10353      10463      10464      10475      10474  
     10343      10344      10355      10354      10464      10465      10476      10475  
     10344      10345      10356      10355      10465      10466      10477      10476  
     10345      10346      10357      10356      10466      10467      10478      10477  
     10346      10347      10358      10357      10467      10468      10479      10478  
     10347      10348      10359      10358      10468      10469      10480      10479  
     10348      10349      10360      10359      10469      10470      10481      10480  
     10349      10350      10361      10360      10470      10471      10482      10481  
     10350      10351      10362      10361      10471      10472      10483      10482  
     10352      10353      10364      10363      10473      10474      10485      10484  
     10353      10354      10365      10364      10474      10475      10486      10485  
     10354      10355      10366      10365      10475      10476      10487      10486  
     10355      10356      10367      10366      10476      10477      10488      10487  
     10356      10357      10368      10367      10477      10478      10489      10488  
     10357      10358      10369      10368      10478      10479      10490      10489  
     10358      10359      10370      10369      10479      10480      10491      10490  
     10359      10360      10371      10370      10480      10481      10492      10491  
     10360      10361      10372      10371      10481      10482      10493      10492  
     10361      10362      10373      10372      10482      10483      10494      10493  
     10363      10364      10375      10374      10484      10485      10496      10495  
     10364      10365      10376      10375      10485      10486      10497      10496  
     10365      10366      10377      10376      10486      10487      10498      10497  
     10366      10367      10378      10377      10487      10488      10499      10498  
     10367      10368      10379      10378      10488      10489      10500      10499  
     10368      10369      10380      10379      10489      10490      10501      10500  
     10369      10370      10381      10380      10490      10491      10502      10501  
     10370      10371      10382      10381      10491      10492      10503      10502  
     10371      10372      10383      10382      10492      10493      10504      10503  
     10372      10373      10384      10383      10493      10494      10505      10504  
     10374      10375      10386      10385      10495      10496      10507      10506  
     10375      10376      10387      10386      10496      10497      10508      10507  
     10376      10377      10388      10387      10497      10498      10509      10508  
     10377      10378      10389      10388      10498      10499      10510      10509  
     10378      10379      10390      10389      10499      10500      10511      10510  
     10379      10380      10391      10390      10500      10501      10512      10511  
     10380      10381      10392      10391      10501      10502      10513      10512  
     10381      10382      10393      10392      10502      10503      10514      10513  
     10382      10383      10394      10393      10503      10504      10515      10514  
     10383      10384      10395      10394      10504      10505      10516      10515  
     10385      10386      10397      10396      10506      10507      10518      10517  
     10386      10387      10398      10397      10507      10508      10519      10518  
     10387      10388      10399      10398      10508      10509      10520      10519  
     10388      10389      10400      10399      10509      10510      10521      10520  
     10389      10390      10401      10400      10510      10511      10522      10521  
     10390      10391      10402      10401      10511      10512      10523      10522  
     10391      10392      10403      10402      10512      10513      10524      10523  
     10392      10393      10404      10403      10513      10514      10525      10524  
     10393      10394      10405      10404      10514      10515      10526      10525  
     10394      10395      10406      10405      10515      10516      10527      10526  
     10407      10408      10419      10418      10528      10529      10540      10539  
     10408      10409      10420      10419      10529      10530      10541      10540  
     10409      10410      10421      10420      10530      10531      10542      10541  
     10410      10411      10422      10421      10531      10532      10543      10542  
     10411      10412      10423      10422      10532      10533      10544      10543  
     10412      10413      10424      10423      10533      10534      10545      10544  
     10413      10414      10425      10424      10534      10535      10546      10545  
     10414      10415      10426      10425      10535      10536      10547      10546  
     10415      10416      10427      10426      10536      10537      10548      10547  
     10416      10417      10428      10427      10537      10538      10549      10548  
     10418      10419      10430      10429      10539      10540      10551      10550  
     10419      10420      10431      10430      10540      10541      10552      10551  
     10420      10421      10432      10431      10541      10542      10553      10552  
     10421      10422      10433      10432      10542      10543      10554      10553  
     10422      10423      10434      10433      10543      10544      10555      10554  
     10423      10424      10435      10434      10544      10545      10556      10555  
     10424      10425      10436      10435      10545      10546      10557      10556  
     10425      10426      10437      10436      10546      10547      10558      10557  
     10426      10427      10438      10437      10547      10548      10559      10558  
     10427      10428      10439      10438      10548      10549      10560      10559  
     10429      10430      10441      10440      10550      10551      10562      10561  
     10430      10431      10442      10441      10551      10552      10563      10562  
     10431      10432      10443      10442      10552      10553      10564      10563  
     10432      10433      10444      10443      10553      10554      10565      10564  
     10433      10434      10445      10444      10554      10555      10566      10565  
     10434      10435      10446      10445      10555      10556      10567      10566  
     10435      10436      10447      10446      10556      10557      10568      10567  
     10436      10437      10448      10447      10557      10558      10569      10568  
     10437      10438      10449      10448      10558      10559      10570      10569  
     10438      10439      10450      10449      10559      10560      10571      10570  
     10440      10441      10452      10451      10561      10562      10573      10572  
     10441      10442      10453      10452      10562      10563      10574      10573  
     10442      10443      10454      10453      10563      10564      10575      10574  
     10443      10444      10455      10454      10564      10565      10576      10575  
     10444      10445      10456      10455      10565      10566      10577      10576  
     10445      10446      10457      10456      10566      10567      10578      10577  
     10446      10447      10458      10457      10567      10568      10579      10578  
     10447      10448      10459      10458      10568      10569      10580      10579  
     10448      10449      10460      10459      10569      10570      10581      10580  
     10449      10450      10461      10460      10570      10571      10582      10581  
     10451      10452      10463      10462      10572      10573      10584      10583  
     10452      10453      10464      10463      10573      10574      10585      10584  
     10453      10454      10465      10464      10574      10575      10586      10585  
     10454      10455      10466      10465      10575      10576      10587      10586  
     10455      10456      10467      10466      10576      10577      10588      10587  
     10456      10457      10468      10467      10577      10578      10589      10588  
     10457      10458      10469      10468      10578      10579      10590      10589  
     10458      10459      10470      10469      10579      10580      10591      10590  
     10459      10460      10471      10470      10580      10581      10592      10591  
     10460      10461      10472      10471      10581      10582      10593      10592  
     10462      10463      10474      10473      10583      10584      10595      10594  
     10463      10464      10475      10474      10584      10585      10596      10595  
     10464      10465      10476      10475      10585      10586      10597      10596  
     10465      10466      10477      10476      10586      10587      10598      10597  
     10466      10467      10478      10477      10587      10588      10599      10598  
     10467      10468      10479      10478      10588      10589      10600      10599  
     10468      10469      10480      10479      10589      10590      10601      10600  
     10469      10470      10481      10480      10590      10591      10602      10601  
     10470      10471      10482      10481      10591      10592      10603      10602  
     10471      10472      10483      10482      10592      10593      10604      10603  
     10473      10474      10485      10484      10594      10595      10606      10605  
     10474      10475      10486      10485      10595      10596      10607      10606  
     10475      10476      10487      10486      10596      10597      10608      10607  
     10476      10477      10488      10487      10597      10598      10609      10608  
     10477      10478      10489      10488      10598      10599      10610      10609  
     10478      10479      10490      10489      10599      10600      10611      10610  
     10479      10480      10491      10490      10600      10601      10612      10611  
     10480      10481      10492      10491      10601      10602      10613      10612  
     10481      10482      10493      10492      10602      10603      10614      10613  
     10482      10483      10494      10493      10603      10604      10615      10614  
     10484      10485      10496      10495      10605      10606      10617      10616  
     10485      10486      10497      10496      10606      10607      10618      10617  
     10486      10487      10498      10497      10607      10608      10619      10618  
     10487      10488      10499      10498      10608      10609      10620      10619  
     10488      10489      10500      10499      10609      10610      10621      10620  
     10489      10490      10501      10500      10610      10611      10622      10621  
     10490      10491      10502      10501      10611      10612      10623      10622  
     10491      10492      10503      10502      10612      10613      10624      10623  
     10492      10493      10504      10503      10613      10614      10625      10624  
     10493      10494      10505      10504      10614      10615      10626      10625  
     10495      10496      10507      10506      10616      10617      10628      10627  
     10496      10497      10508      10507      10617      10618      10629      10628  
     10497      10498      10509      10508      10618      10619      10630      10629  
     10498      10499      10510      10509      10619      10620      10631      10630  
     10499      10500      10511      10510      10620      10621      10632      10631  
     10500      10501      10512      10511      10621      10622      10633      10632  
     10501      10502      10513      10512      10622      10623      10634      10633  
     10502      10503      10514      10513      10623      10624      10635      10634  
     10503      10504      10515      10514      10624      10625      10636      10635  
     10504      10505      10516      10515      10625      10626      10637      10636  
     10506      10507      10518      10517      10627      10628      10639      10638  
     10507      10508      10519      10518      10628      10629      10640      10639  
     10508      10509      10520      10519      10629      10630      10641      10640  
     10509      10510      10521      10520      10630      10631      10642      10641  
     10510      10511      10522      10521      10631      10632      10643      10642  
     10511      10512      10523      10522      10632      10633      10644      10643  
     10512      10513      10524      10523      10633      10634      10645      10644  
     10513      10514      10525      10524      10634      10635      10646      10645  
     10514      10515      10526      10525      10635      10636      10647      10646  
     10515      10516      10527      10526      10636      10637      10648      10647  
     10528      10529      10540      10539      10649      10650      10661      10660  
     10529      10530      10541      10540      10650      10651      10662      10661  
     10530      10531      10542      10541      10651      10652      10663      10662  
     10531      10532      10543      10542      10652      10653      10664      10663  
     10532      10533      10544      10543      10653      10654      10665      10664  
     10533      10534      10545      10544      10654      10655      10666      10665  
     10534      10535      10546      10545      10655      10656      10667      10666  
     10535      10536      10547      10546      10656      10657      10668      10667  
     10536      10537      10548      10547      10657      10658      10669      10668  
     10537      10538      10549      10548      10658      10659      10670      10669  
     10539      10540      10551      10550      10660      10661      10672      10671  
     10540      10541      10552      10551      10661      10662      10673      10672  
     10541      10542      10553      10552      10662      10663      10674      10673  
     10542      10543      10554      10553      10663      10664      10675      10674  
     10543      10544      10555      10554      10664      10665      10676      10675  
     10544      10545      10556      10555      10665      10666      10677      10676  
     10545      10546      10557      10556      10666      10667      10678      10677  
     10546      10547      10558      10557      10667      10668      10679      10678  
     10547      10548      10559      10558      10668      10669      10680      10679  
     10548      10549      10560      10559      10669      10670      10681      10680  
     10550      10551      10562      10561      10671      10672      10683      10682  
     10551      10552      10563      10562      10672      10673      10684      10683  
     10552      10553      10564      10563      10673      10674      10685      10684  
     10553      10554      10565      10564      10674      10675      10686      10685  
     10554      10555      10566      10565      10675      10676      10687      10686  
     10555      10556      10567      10566      10676      10677      10688      10687  
     10556      10557      10568      10567      10677      10678      10689      10688  
     10557      10558      10569      10568      10678      10679      10690      10689  
     10558      10559      10570      10569      10679      10680      10691      10690  
     10559      10560      10571      10570      10680      10681      10692      10691  
     10561      10562      10573      10572      10682      10683      10694      10693  
     10562      10563      10574      10573      10683      10684      10695      10694  
     10563      10564      10575      10574      10684      10685      10696      10695  
     10564      10565      10576      10575      10685      10686      10697      10696  
     10565      10566      10577      10576      10686      10687      10698      10697  
     10566      10567      10578      10577      10687      10688      10699      10698  
     10567      10568      10579      10578      10688      10689      10700      10699  
     10568      10569      10580      10579      10689      10690      10701      10700  
     10569      10570      10581      10580      10690      10691      10702      10701  
     10570      10571      10582      10581      10691      10692      10703      10702  
     10572      10573      10584      10583      10693      10694      10705      10704  
     10573      10574      10585      10584      10694      10695      10706      10705  
     10574      10575      10586      10585      10695      10696      10707      10706  
     10575      10576      10587      10586      10696      10697      10708      10707  
     10576      10577      10588      10587      10697      10698      10709      10708  
     10577      10578      10589      10588      10698      10699      10710      10709  
     10578      10579      10590      10589      10699      10700      10711      10710  
     10579      10580      10591      10590      10700      10701      10712      10711  
     10580      10581      10592      10591      10701      10702      10713      10712  
     10581      10582      10593      10592      10702      10703      10714      10713  
     10583      10584      10595      10594      10704      10705      10716      10715  
     10584      10585      10596      10595      10705      10706      10717      10716  
     10585      10586      10597      10596      10706      10707      10718      10717  
     10586      10587      10598      10597      10707      10708      10719      10718  
     10587      10588      10599      10598      10708      10709      10720      10719  
     10588      10589      10600      10599      10709      10710      10721      10720  
     10589      10590      10601      10600      10710      10711      10722      10721  
     10590      10591      10602      10601      10711      10712      10723      10722  
     10591      10592      10603      10602      10712      10713      10724      10723  
     10592      10593      10604      10603      10713      10714      10725      10724  
     10594      10595      10606      10605      10715      10716      10727      10726  
     10595      10596      10607      10606      10716      10717      10728      10727  
     10596      10597      10608      10607      10717      10718      10729      10728  
     10597      10598      10609      10608      10718      10719      10730      10729  
     10598      10599      10610      10609      10719      10720      10731      10730  
     10599      10600      10611      10610      10720      10721      10732      10731  
     10600      10601      10612      10611      10721      10722      10733      10732  
     10601      10602      10613      10612      10722      10723      10734      10733  
     10602      10603      10614      10613      10723      10724      10735      10734  
     10603      10604      10615      10614      10724      10725      10736      10735  
     10605      10606      10617      10616      10726      10727      10738      10737  
     10606      10607      10618      10617      10727      10728      10739      10738  
     10607      10608      10619      10618      10728      10729      10740      10739  
     10608      10609      10620      10619      10729      10730      10741      10740  
     10609      10610      10621      10620      10730      10731      10742      10741  
     10610      10611      10622      10621      10731      10732      10743      10742  
     10611      10612      10623      10622      10732      10733      10744      10743  
     10612      10613      10624      10623      10733      10734      10745      10744  
     10613      10614      10625      10624      10734      10735      10746      10745  
     10614      10615      10626      10625      10735      10736      10747      10746  
     10616      10617      10628      10627      10737      10738      10749      10748  
     10617      10618      10629      10628      10738      10739      10750      10749  
     10618      10619      10630      10629      10739      10740      10751      10750  
     10619      10620      10631      10630      10740      10741      10752      10751  
     10620      10621      10632      10631      10741      10742      10753      10752  
     10621      10622      10633      10632      10742      10743      10754      10753  
     10622      10623      10634      10633      10743      10744      10755      10754  
     10623      10624      10635      10634      10744      10745      10756      10755  
     10624      10625      10636      10635      10745      10746      10757      10756  
     10625      10626      10637      10636      10746      10747      10758      10757  
     10627      10628      10639      10638      10748      10749      10760      10759  
     10628      10629      10640      10639      10749      10750      10761      10760  
     10629      10630      10641      10640      10750      10751      10762      10761  
     10630      10631      10642      10641      10751      10752      10763      10762  
     10631      10632      10643      10642      10752      10753      10764      10763  
     10632      10633      10644      10643      10753      10754      10765      10764  
     10633      10634      10645      10644      10754      10755      10766      10765  
     10634      10635      10646      10645      10755      10756      10767      10766  
     10635      10636      10647      10646      10756      10757      10768      10767  
     10636      10637      10648      10647      10757      10758      10769      10768  
     10649      10650      10661      10660      10770      10771      10782      10781  
     10650      10651      10662      10661      10771      10772      10783      10782  
     10651      10652      10663      10662      10772      10773      10784      10783  
     10652      10653      10664      10663      10773      10774      10785      10784  
     10653      10654      10665      10664      10774      10775      10786      10785  
     10654      10655      10666      10665      10775      10776      10787      10786  
     10655      10656      10667      10666      10776      10777      10788      10787  
     10656      10657      10668      10667      10777      10778      10789      10788  
     10657      10658      10669      10668      10778      10779      10790      10789  
     10658      10659      10670      10669      10779      10780      10791      10790  
     10660      10661      10672      10671      10781      10782      10793      10792  
     10661      10662      10673      10672      10782      10783      10794      10793  
     10662      10663      10674      10673      10783      10784      10795      10794  
     10663      10664      10675      10674      10784      10785      10796      10795  
     10664      10665      10676      10675      10785      10786      10797      10796  
     10665      10666      10677      10676      10786      10787      10798      10797  
     10666      10667      10678      10677      10787      10788      10799      10798  
     10667      10668      10679      10678      10788      10789      10800      10799  
     10668      10669      10680      10679      10789      10790      10801      10800  
     10669      10670      10681      10680      10790      10791      10802      10801  
     10671      10672      10683      10682      10792      10793      10804      10803  
     10672      10673      10684      10683      10793      10794      10805      10804  
     10673      10674      10685      10684      10794      10795      10806      10805  
     10674      10675      10686      10685      10795      10796      10807      10806  
     10675      10676      10687      10686      10796      10797      10808      10807  
     10676      10677      10688      10687      10797      10798      10809      10808  
     10677      10678      10689      10688      10798      10799      10810      10809  
     10678      10679      10690      10689      10799      10800      10811      10810  
     10679      10680      10691      10690      10800      10801      10812      10811  
     10680      10681      10692      10691      10801      10802      10813      10812  
     10682      10683      10694      10693      10803      10804      10815      10814  
     10683      10684      10695      10694      10804      10805      10816      10815  
     10684      10685      10696      10695      10805      10806      10817      10816  
     10685      10686      10697      10696      10806      10807      10818      10817  
     10686      10687      10698      10697      10807      10808      10819      10818  
     10687      10688      10699      10698      10808      10809      10820      10819  
     10688      10689      10700      10699      10809      10810      10821      10820  
     10689      10690      10701      10700      10810      10811      10822      10821  
     10690      10691      10702      10701      10811      10812      10823      10822  
     10691      10692      10703      10702      10812      10813      10824      10823  
     10693      10694      10705      10704      10814      10815      10826      10825  
     10694      10695      10706      10705      10815      10816      10827      10826  
     10695      10696      10707      10706      10816      10817      10828      10827  
     10696      10697      10708      10707      10817      10818      10829      10828  
     10697      10698      10709      10708      10818      10819      10830      10829  
     10698      10699      10710      10709      10819      10820      10831      10830  
     10699      10700      10711      10710      10820      10821      10832      10831  
     10700      10701      10712      10711      10821      10822      10833      10832  
     10701      10702      10713      10712      10822      10823      10834      10833  
     10702      10703      10714      10713      10823      10824      10835      10834  
     10704      10705      10716      10715      10825      10826      10837      10836  
     10705      10706      10717      10716      10826      10827      10838      10837  
     10706      10707      10718      10717      10827      10828      10839      10838  
     10707      10708      10719      10718      10828      10829      10840      10839  
     10708      10709      10720      10719      10829      10830      10841      10840  
     10709      10710      10721      10720      10830      10831      10842      10841  
     10710      10711      10722      10721      10831      10832      10843      10842  
     10711      10712      10723      10722      10832      10833      10844      10843  
     10712      10713      10724      10723      10833      10834      10845      10844  
     10713      10714      10725      10724      10834      10835      10846      10845  
     10715      10716      10727      10726      10836      10837      10848      10847  
     10716      10717      10728      10727      10837      10838      10849      10848  
     10717      10718      10729      10728      10838      10839      10850      10849  
     10718      10719      10730      10729      10839      10840      10851      10850  
     10719      10720      10731      10730      10840      10841      10852      10851  
     10720      10721      10732      10731      10841      10842      10853      10852  
     10721      10722      10733      10732      10842      10843      10854      10853  
     10722      10723      10734      10733      10843      10844      10855      10854  
     10723      10724      10735      10734      10844      10845      10856      10855  
     10724      10725      10736      10735      10845      10846      10857      10856  
     10726      10727      10738      10737      10847      10848      10859      10858  
     10727      10728      10739      10738      10848      10849      10860      10859  
     10728      10729      10740      10739      10849      10850      10861      10860  
     10729      10730      10741      10740      10850      10851      10862      10861  
     10730      10731      10742      10741      10851      10852      10863      10862  
     10731      10732      10743      10742      10852      10853      10864      10863  
     10732      10733      10744      10743      10853      10854      10865      10864  
     10733      10734      10745      10744      10854      10855      10866      10865  
     10734      10735      10746      10745      10855      10856      10867      10866  
     10735      10736      10747      10746      10856      10857      10868      10867  
     10737      10738      10749      10748      10858      10859      10870      10869  
     10738      10739      10750      10749      10859      10860      10871      10870  
     10739      10740      10751      10750      10860      10861      10872      10871  
     10740      10741      10752      10751      10861      10862      10873      10872  
     10741      10742      10753      10752      10862      10863      10874      10873  
     10742      10743      10754      10753      10863      10864      10875      10874  
     10743      10744      10755      10754      10864      10865      10876      10875  
     10744      10745      10756      10755      10865      10866      10877      10876  
     10745      10746      10757      10756      10866      10867      10878      10877  
     10746      10747      10758      10757      10867      10868      10879      10878  
     10748      10749      10760      10759      10869      10870      10881      10880  
     10749      10750      10761      10760      10870      10871      10882      10881  
     10750      10751      10762      10761      10871      10872      10883      10882  
     10751      10752      10763      10762      10872      10873      10884      10883  
     10752      10753      10764      10763      10873      10874      10885      10884  
     10753      10754      10765      10764      10874      10875      10886      10885  
     10754      10755      10766      10765      10875      10876      10887      10886  
     10755      10756      10767      10766      10876      10877      10888      10887  
     10756      10757      10768      10767      10877      10878      10889      10888  
     10757      10758      10769      10768      10878      10879      10890      10889  
     10770      10771      10782      10781      10891      10892      10903      10902  
     10771      10772      10783      10782      10892      10893      10904      10903  
     10772      10773      10784      10783      10893      10894      10905      10904  
     10773      10774      10785      10784      10894      10895      10906      10905  
     10774      10775      10786      10785      10895      10896      10907      10906  
     10775      10776      10787      10786      10896      10897      10908      10907  
     10776      10777      10788      10787      10897      10898      10909      10908  
     10777      10778      10789      10788      10898      10899      10910      10909  
     10778      10779      10790      10789      10899      10900      10911      10910  
     10779      10780      10791      10790      10900      10901      10912      10911  
     10781      10782      10793      10792      10902      10903      10914      10913  
     10782      10783      10794      10793      10903      10904      10915      10914  
     10783      10784      10795      10794      10904      10905      10916      10915  
     10784      10785      10796      10795      10905      10906      10917      10916  
     10785      10786      10797      10796      10906      10907      10918      10917  
     10786      10787      10798      10797      10907      10908      10919      10918  
     10787      10788      10799      10798      10908      10909      10920      10919  
     10788      10789      10800      10799      10909      10910      10921      10920  
     10789      10790      10801      10800      10910      10911      10922      10921  
     10790      10791      10802      10801      10911      10912      10923      10922  
     10792      10793      10804      10803      10913      10914      10925      10924  
     10793      10794      10805      10804      10914      10915      10926      10925  
     10794      10795      10806      10805      10915      10916      10927      10926  
     10795      10796      10807      10806      10916      10917      10928      10927  
     10796      10797      10808      10807      10917      10918      10929      10928  
     10797      10798      10809      10808      10918      10919      10930      10929  
     10798      10799      10810      10809      10919      10920      10931      10930  
     10799      10800      10811      10810      10920      10921      10932      10931  
     10800      10801      10812      10811      10921      10922      10933      10932  
     10801      10802      10813      10812      10922      10923      10934      10933  
     10803      10804      10815      10814      10924      10925      10936      10935  
     10804      10805      10816      10815      10925      10926      10937      10936  
     10805      10806      10817      10816      10926      10927      10938      10937  
     10806      10807      10818      10817      10927      10928      10939      10938  
     10807      10808      10819      10818      10928      10929      10940      10939  
     10808      10809      10820      10819      10929      10930      10941      10940  
     10809      10810      10821      10820      10930      10931      10942      10941  
     10810      10811      10822      10821      10931      10932      10943      10942  
     10811      10812      10823      10822      10932      10933      10944      10943  
     10812      10813      10824      10823      10933      10934      10945      10944  
     10814      10815      10826      10825      10935      10936      10947      10946  
     10815      10816      10827      10826      10936      10937      10948      10947  
     10816      10817      10828      10827      10937      10938      10949      10948  
     10817      10818      10829      10828      10938      10939      10950      10949  
     10818      10819      10830      10829      10939      10940      10951      10950  
     10819      10820      10831      10830      10940      10941      10952      10951  
     10820      10821      10832      10831      10941      10942      10953      10952  
     10821      10822      10833      10832      10942      10943      10954      10953  
     10822      10823      10834      10833      10943      10944      10955      10954  
     10823      10824      10835      10834      10944      10945      10956      10955  
     10825      10826      10837      10836      10946      10947      10958      10957  
     10826      10827      10838      10837      10947      10948      10959      10958  
     10827      10828      10839      10838      10948      10949      10960      10959  
     10828      10829      10840      10839      10949      10950      10961      10960  
     10829      10830      10841      10840      10950      10951      10962      10961  
     10830      10831      10842      10841      10951      10952      10963      10962  
     10831      10832      10843      10842      10952      10953      10964      10963  
     10832      10833      10844      10843      10953      10954      10965      10964  
     10833      10834      10845      10844      10954      10955      10966      10965  
     10834      10835      10846      10845      10955      10956      10967      10966  
     10836      10837      10848      10847      10957      10958      10969      10968  
     10837      10838      10849      10848      10958      10959      10970      10969  
     10838      10839      10850      10849      10959      10960      10971      10970  
     10839      10840      10851      10850      10960      10961      10972      10971  
     10840      10841      10852      10851      10961      10962      10973      10972  
     10841      10842      10853      10852      10962      10963      10974      10973  
     10842      10843      10854      10853      10963      10964      10975      10974  
     10843      10844      10855      10854      10964      10965      10976      10975  
     10844      10845      10856      10855      10965      10966      10977      10976  
     10845      10846      10857      10856      10966      10967      10978      10977  
     10847      10848      10859      10858      10968      10969      10980      10979  
     10848      10849      10860      10859      10969      10970      10981      10980  
     10849      10850      10861      10860      10970      10971      10982      10981  
     10850      10851      10862      10861      10971      10972      10983      10982  
     10851      10852      10863      10862      10972      10973      10984      10983  
     10852      10853      10864      10863      10973      10974      10985      10984  
     10853      10854      10865      10864      10974      10975      10986      10985  
     10854      10855      10866      10865      10975      10976      10987      10986  
     10855      10856      10867      10866      10976      10977      10988      10987  
     10856      10857      10868      10867      10977      10978      10989      10988  
     10858      10859      10870      10869      10979      10980      10991      10990  
     10859      10860      10871      10870      10980      10981      10992      10991  
     10860      10861      10872      10871      10981      10982      10993      10992  
     10861      10862      10873      10872      10982      10983      10994      10993  
     10862      10863      10874      10873      10983      10984      10995      10994  
     10863      10864      10875      10874      10984      10985      10996      10995  
     10864      10865      10876      10875      10985      10986      10997      10996  
     10865      10866      10877      10876      10986      10987      10998      10997  
     10866      10867      10878      10877      10987      10988      10999      10998  
     10867      10868      10879      10878      10988      10989      11000      10999  
     10869      10870      10881      10880      10990      10991      11002      11001  
     10870      10871      10882      10881      10991      10992      11003      11002  
     10871      10872      10883      10882      10992      10993      11004      11003  
     10872      10873      10884      10883      10993      10994      11005      11004  
     10873      10874      10885      10884      10994      10995      11006      11005  
     10874      10875      10886      10885      10995      10996      11007      11006  
     10875      10876      10887      10886      10996      10997      11008      11007  
     10876      10877      10888      10887      10997      10998      11009      11008  
     10877      10878      10889      10888      10998      10999      11010      11009  
     10878      10879      10890      10889      10999      11000      11011      11010  
     10891      10892      10903      10902      11012      11013      11024      11023  
     10892      10893      10904      10903      11013      11014      11025      11024  
     10893      10894      10905      10904      11014      11015      11026      11025  
     10894      10895      10906      10905      11015      11016      11027      11026  
     10895      10896      10907      10906      11016      11017      11028      11027  
     10896      10897      10908      10907      11017      11018      11029      11028  
     10897      10898      10909      10908      11018      11019      11030      11029  
     10898      10899      10910      10909      11019      11020      11031      11030  
     10899      10900      10911      10910      11020      11021      11032      11031  
     10900      10901      10912      10911      11021      11022      11033      11032  
     10902      10903      10914      10913      11023      11024      11035      11034  
     10903      10904      10915      10914      11024      11025      11036      11035  
     10904      10905      10916      10915      11025      11026      11037      11036  
     10905      10906      10917      10916      11026      11027      11038      11037  
     10906      10907      10918      10917      11027      11028      11039      11038  
     10907      10908      10919      10918      11028      11029      11040      11039  
     10908      10909      10920      10919      11029      11030      11041      11040  
     10909      10910      10921      10920      11030      11031      11042      11041  
     10910      10911      10922      10921      11031      11032      11043      11042  
     10911      10912      10923      10922      11032      11033      11044      11043  
     10913      10914      10925      10924      11034      11035      11046      11045  
     10914      10915      10926      10925      11035      11036      11047      11046  
     10915      10916      10927      10926      11036      11037      11048      11047  
     10916      10917      10928      10927      11037      11038      11049      11048  
     10917      10918      10929      10928      11038      11039      11050      11049  
     10918      10919      10930      10929      11039      11040      11051      11050  
     10919      10920      10931      10930      11040      11041      11052      11051  
     10920      10921      10932      10931      11041      11042      11053      11052  
     10921      10922      10933      10932      11042      11043      11054      11053  
     10922      10923      10934      10933      11043      11044      11055      11054  
     10924      10925      10936      10935      11045      11046      11057      11056  
     10925      10926      10937      10936      11046      11047      11058      11057  
     10926      10927      10938      10937      11047      11048      11059      11058  
     10927      10928      10939      10938      11048      11049      11060      11059  
     10928      10929      10940      10939      11049      11050      11061      11060  
     10929      10930      10941      10940      11050      11051      11062      11061  
     10930      10931      10942      10941      11051      11052      11063      11062  
     10931      10932      10943      10942      11052      11053      11064      11063  
     10932      10933      10944      10943      11053      11054      11065      11064  
     10933      10934      10945      10944      11054      11055      11066      11065  
     10935      10936      10947      10946      11056      11057      11068      11067  
     10936      10937      10948      10947      11057      11058      11069      11068  
     10937      10938      10949      10948      11058      11059      11070      11069  
     10938      10939      10950      10949      11059      11060      11071      11070  
     10939      10940      10951      10950      11060      11061      11072      11071  
     10940      10941      10952      10951      11061      11062      11073      11072  
     10941      10942      10953      10952      11062      11063      11074      11073  
     10942      10943      10954      10953      11063      11064      11075      11074  
     10943      10944      10955      10954      11064      11065      11076      11075  
     10944      10945      10956      10955      11065      11066      11077      11076  
     10946      10947      10958      10957      11067      11068      11079      11078  
     10947      10948      10959      10958      11068      11069      11080      11079  
     10948      10949      10960      10959      11069      11070      11081      11080  
     10949      10950      10961      10960      11070      11071      11082      11081  
     10950      10951      10962      10961      11071      11072      11083      11082  
     10951      10952      10963      10962      11072      11073      11084      11083  
     10952      10953      10964      10963      11073      11074      11085      11084  
     10953      10954      10965      10964      11074      11075      11086      11085  
     10954      10955      10966      10965      11075      11076      11087      11086  
     10955      10956      10967      10966      11076      11077      11088      11087  
     10957      10958      10969      10968      11078      11079      11090      11089  
     10958      10959      10970      10969      11079      11080      11091      11090  
     10959      10960      10971      10970      11080      11081      11092      11091  
     10960      10961      10972      10971      11081      11082      11093      11092  
     10961      10962      10973      10972      11082      11083      11094      11093  
     10962      10963      10974      10973      11083      11084      11095      11094  
     10963      10964      10975      10974      11084      11085      11096      11095  
     10964      10965      10976      10975      11085      11086      11097      11096  
     10965      10966      10977      10976      11086      11087      11098      11097  
     10966      10967      10978      10977      11087      11088      11099      11098  
     10968      10969      10980      10979      11089      11090      11101      11100  
     10969      10970      10981      10980      11090      11091      11102      11101  
     10970      10971      10982      10981      11091      11092      11103      11102  
     10971      10972      10983      10982      11092      11093      11104      11103  
     10972      10973      10984      10983      11093      11094      11105      11104  
     10973      10974      10985      10984      11094      11095      11106      11105  
     10974      10975      10986      10985      11095      11096      11107      11106  
     10975      10976      10987      10986      11096      11097      11108      11107  
     10976      10977      10988      10987      11097      11098      11109      11108  
     10977      10978      10989      10988      11098      11099      11110      11109  
     10979      10980      10991      10990      11100      11101      11112      11111  
     10980      10981      10992      10991      11101      11102      11113      11112  
     10981      10982      10993      10992      11102      11103      11114      11113  
     10982      10983      10994      10993      11103      11104      11115      11114  
     10983      10984      10995      10994      11104      11105      11116      11115  
     10984      10985      10996      10995      11105      11106      11117      11116  
     10985      10986      10997      10996      11106      11107      11118      11117  
     10986      10987      10998      10997      11107      11108      11119      11118  
     10987      10988      10999      10998      11108      11109      11120      11119  
     10988      10989      11000      10999      11109      11110      11121      11120  
     10990      10991      11002      11001      11111      11112      11123      11122  
     10991      10992      11003      11002      11112      11113      11124      11123  
     10992      10993      11004      11003      11113      11114      11125      11124  
     10993      10994      11005      11004      11114      11115      11126      11125  
     10994      10995      11006      11005      11115      11116      11127      11126  
     10995      10996      11007      11006      11116      11117      11128      11127  
     10996      10997      11008      11007      11117      11118      11129      11128  
     10997      10998      11009      11008      11118      11119      11130      11129  
     10998      10999      11010      11009      11119      11120      11131      11130  
     10999      11000      11011      11010      11120      11121      11132      11131  
     11012      11013      11024      11023      11133      11134      11145      11144  
     11013      11014      11025      11024      11134      11135      11146      11145  
     11014      11015      11026      11025      11135      11136      11147      11146  
     11015      11016      11027      11026      11136      11137      11148      11147  
     11016      11017      11028      11027      11137      11138      11149      11148  
     11017      11018      11029      11028      11138      11139      11150      11149  
     11018      11019      11030      11029      11139      11140      11151      11150  
     11019      11020      11031      11030      11140      11141      11152      11151  
     11020      11021      11032      11031      11141      11142      11153      11152  
     11021      11022      11033      11032      11142      11143      11154      11153  
     11023      11024      11035      11034      11144      11145      11156      11155  
     11024      11025      11036      11035      11145      11146      11157      11156  
     11025      11026      11037      11036      11146      11147      11158      11157  
     11026      11027      11038      11037      11147      11148      11159      11158  
     11027      11028      11039      11038      11148      11149      11160      11159  
     11028      11029      11040      11039      11149      11150      11161      11160  
     11029      11030      11041      11040      11150      11151      11162      11161  
     11030      11031      11042      11041      11151      11152      11163      11162  
     11031      11032      11043      11042      11152      11153      11164      11163  
     11032      11033      11044      11043      11153      11154      11165      11164  
     11034      11035      11046      11045      11155      11156      11167      11166  
     11035      11036      11047      11046      11156      11157      11168      11167  
     11036      11037      11048      11047      11157      11158      11169      11168  
     11037      11038      11049      11048      11158      11159      11170      11169  
     11038      11039      11050      11049      11159      11160      11171      11170  
     11039      11040      11051      11050      11160      11161      11172      11171  
     11040      11041      11052      11051      11161      11162      11173      11172  
     11041      11042      11053      11052      11162      11163      11174      11173  
     11042      11043      11054      11053      11163      11164      11175      11174  
     11043      11044      11055      11054      11164      11165      11176      11175  
     11045      11046      11057      11056      11166      11167      11178      11177  
     11046      11047      11058      11057      11167      11168      11179      11178  
     11047      11048      11059      11058      11168      11169      11180      11179  
     11048      11049      11060      11059      11169      11170      11181      11180  
     11049      11050      11061      11060      11170      11171      11182      11181  
     11050      11051      11062      11061      11171      11172      11183      11182  
     11051      11052      11063      11062      11172      11173      11184      11183  
     11052      11053      11064      11063      11173      11174      11185      11184  
     11053      11054      11065      11064      11174      11175      11186      11185  
     11054      11055      11066      11065      11175      11176      11187      11186  
     11056      11057      11068      11067      11177      11178      11189      11188  
     11057      11058      11069      11068      11178      11179      11190      11189  
     11058      11059      11070      11069      11179      11180      11191      11190  
     11059      11060      11071      11070      11180      11181      11192      11191  
     11060      11061      11072      11071      11181      11182      11193      11192  
     11061      11062      11073      11072      11182      11183      11194      11193  
     11062      11063      11074      11073      11183      11184      11195      11194  
     11063      11064      11075      11074      11184      11185      11196      11195  
     11064      11065      11076      11075      11185      11186      11197      11196  
     11065      11066      11077      11076      11186      11187      11198      11197  
     11067      11068      11079      11078      11188      11189      11200      11199  
     11068      11069      11080      11079      11189      11190      11201      11200  
     11069      11070      11081      11080      11190      11191      11202      11201  
     11070      11071      11082      11081      11191      11192      11203      11202  
     11071      11072      11083      11082      11192      11193      11204      11203  
     11072      11073      11084      11083      11193      11194      11205      11204  
     11073      11074      11085      11084      11194      11195      11206      11205  
     11074      11075      11086      11085      11195      11196      11207      11206  
     11075      11076      11087      11086      11196      11197      11208      11207  
     11076      11077      11088      11087      11197      11198      11209      11208  
     11078      11079      11090      11089      11199      11200      11211      11210  
     11079      11080      11091      11090      11200      11201      11212      11211  
     11080      11081      11092      11091      11201      11202      11213      11212  
     11081      11082      11093      11092      11202      11203      11214      11213  
     11082      11083      11094      11093      11203      11204      11215      11214  
     11083      11084      11095      11094      11204      11205      11216      11215  
     11084      11085      11096      11095      11205      11206      11217      11216  
     11085      11086      11097      11096      11206      11207      11218      11217  
     11086      11087      11098      11097      11207      11208      11219      11218  
     11087      11088      11099      11098      11208      11209      11220      11219  
     11089      11090      11101      11100      11210      11211      11222      11221  
     11090      11091      11102      11101      11211      11212      11223      11222  
     11091      11092      11103      11102      11212      11213      11224      11223  
     11092      11093      11104      11103      11213      11214      11225      11224  
     11093      11094      11105      11104      11214      11215      11226      11225  
     11094      11095      11106      11105      11215      11216      11227      11226  
     11095      11096      11107      11106      11216      11217      11228      11227  
     11096      11097      11108      11107      11217      11218      11229      11228  
     11097      11098      11109      11108      11218      11219      11230      11229  
     11098      11099      11110      11109      11219      11220      11231      11230  
     11100      11101      11112      11111      11221      11222      11233      11232  
     11101      11102      11113      11112      11222      11223      11234      11233  
     11102      11103      11114      11113      11223      11224      11235      11234  
     11103      11104      11115      11114      11224      11225      11236      11235  
     11104      11105      11116      11115      11225      11226      11237      11236  
     11105      11106      11117      11116      11226      11227      11238      11237  
     11106      11107      11118      11117      11227      11228      11239      11238  
     11107      11108      11119      11118      11228      11229      11240      11239  
     11108      11109      11120      11119      11229      11230      11241      11240  
     11109      11110      11121      11120      11230      11231      11242      11241  
     11111      11112      11123      11122      11232      11233      11244      11243  
     11112      11113      11124      11123      11233      11234      11245      11244  
     11113      11114      11125      11124      11234      11235      11246      11245  
     11114      11115      11126      11125      11235      11236      11247      11246  
     11115      11116      11127      11126      11236      11237      11248      11247  
     11116      11117      11128      11127      11237      11238      11249      11248  
     11117      11118      11129      11128      11238      11239      11250      11249  
     11118      11119      11130      11129      11239      11240      11251      11250  
     11119      11120      11131      11130      11240      11241      11252      11251  
     11120      11121      11132      11131      11241      11242      11253      11252  
     11133      11134      11145      11144      11254      11255      11266      11265  
     11134      11135      11146      11145      11255      11256      11267      11266  
     11135      11136      11147      11146      11256      11257      11268      11267  
     11136      11137      11148      11147      11257      11258      11269      11268  
     11137      11138      11149      11148      11258      11259      11270      11269  
     11138      11139      11150      11149      11259      11260      11271      11270  
     11139      11140      11151      11150      11260      11261      11272      11271  
     11140      11141      11152      11151      11261      11262      11273      11272  
     11141      11142      11153      11152      11262      11263      11274      11273  
     11142      11143      11154      11153      11263      11264      11275      11274  
     11144      11145      11156      11155      11265      11266      11277      11276  
     11145      11146      11157      11156      11266      11267      11278      11277  
     11146      11147      11158      11157      11267      11268      11279      11278  
     11147      11148      11159      11158      11268      11269      11280      11279  
     11148      11149      11160      11159      11269      11270      11281      11280  
     11149      11150      11161      11160      11270      11271      11282      11281  
     11150      11151      11162      11161      11271      11272      11283      11282  
     11151      11152      11163      11162      11272      11273      11284      11283  
     11152      11153      11164      11163      11273      11274      11285      11284  
     11153      11154      11165      11164      11274      11275      11286      11285  
     11155      11156      11167      11166      11276      11277      11288      11287  
     11156      11157      11168      11167      11277      11278      11289      11288  
     11157      11158      11169      11168      11278      11279      11290      11289  
     11158      11159      11170      11169      11279      11280      11291      11290  
     11159      11160      11171      11170      11280      11281      11292      11291  
     11160      11161      11172      11171      11281      11282      11293      11292  
     11161      11162      11173      11172      11282      11283      11294      11293  
     11162      11163      11174      11173      11283      11284      11295      11294  
     11163      11164      11175      11174      11284      11285      11296      11295  
     11164      11165      11176      11175      11285      11286      11297      11296  
     11166      11167      11178      11177      11287      11288      11299      11298  
     11167      11168      11179      11178      11288      11289      11300      11299  
     11168      11169      11180      11179      11289      11290      11301      11300  
     11169      11170      11181      11180      11290      11291      11302      11301  
     11170      11171      11182      11181      11291      11292      11303      11302  
     11171      11172      11183      11182      11292      11293      11304      11303  
     11172      11173      11184      11183      11293      11294      11305      11304  
     11173      11174      11185      11184      11294      11295      11306      11305  
     11174      11175      11186      11185      11295      11296      11307      11306  
     11175      11176      11187      11186      11296      11297      11308      11307  
     11177      11178      11189      11188      11298      11299      11310      11309  
     11178      11179      11190      11189      11299      11300      11311      11310  
     11179      11180      11191      11190      11300      11301      11312      11311  
     11180      11181      11192      11191      11301      11302      11313      11312  
     11181      11182      11193      11192      11302      11303      11314      11313  
     11182      11183      11194      11193      11303      11304      11315      11314  
     11183      11184      11195      11194      11304      11305      11316      11315  
     11184      11185      11196      11195      11305      11306      11317      11316  
     11185      11186      11197      11196      11306      11307      11318      11317  
     11186      11187      11198      11197      11307      11308      11319      11318  
     11188      11189      11200      11199      11309      11310      11321      11320  
     11189      11190      11201      11200      11310      11311      11322      11321  
     11190      11191      11202      11201      11311      11312      11323      11322  
     11191      11192      11203      11202      11312      11313      11324      11323  
     11192      11193      11204      11203      11313      11314      11325      11324  
     11193      11194      11205      11204      11314      11315      11326      11325  
     11194      11195      11206      11205      11315      11316      11327      11326  
     11195      11196      11207      11206      11316      11317      11328      11327  
     11196      11197      11208      11207      11317      11318      11329      11328  
     11197      11198      11209      11208      11318      11319      11330      11329  
     11199      11200      11211      11210      11320      11321      11332      11331  
     11200      11201      11212      11211      11321      11322      11333      11332  
     11201      11202      11213      11212      11322      11323      11334      11333  
     11202      11203      11214      11213      11323      11324      11335      11334  
     11203      11204      11215      11214      11324      11325      11336      11335  
     11204      11205      11216      11215      11325      11326      11337      11336  
     11205      11206      11217      11216      11326      11327      11338      11337  
     11206      11207      11218      11217      11327      11328      11339      11338  
     11207      11208      11219      11218      11328      11329      11340      11339  
     11208      11209      11220      11219      11329      11330      11341      11340  
     11210      11211      11222      11221      11331      11332      11343      11342  
     11211      11212      11223      11222      11332      11333      11344      11343  
     11212      11213      11224      11223      11333      11334      11345      11344  
     11213      11214      11225      11224      11334      11335      11346      11345  
     11214      11215      11226      11225      11335      11336      11347      11346  
     11215      11216      11227      11226      11336      11337      11348      11347  
     11216      11217      11228      11227      11337      11338      11349      11348  
     11217      11218      11229      11228      11338      11339      11350      11349  
     11218      11219      11230      11229      11339      11340      11351      11350  
     11219      11220      11231      11230      11340      11341      11352      11351  
     11221      11222      11233      11232      11342      11343      11354      11353  
     11222      11223      11234      11233      11343      11344      11355      11354  
     11223      11224      11235      11234      11344      11345      11356      11355  
     11224      11225      11236      11235      11345      11346      11357      11356  
     11225      11226      11237      11236      11346      11347      11358      11357  
     11226      11227      11238      11237      11347      11348      11359      11358  
     11227      11228      11239      11238      11348      11349      11360      11359  
     11228      11229      11240      11239      11349      11350      11361      11360  
     11229      11230      11241      11240      11350      11351      11362      11361  
     11230      11231      11242      11241      11351      11352      11363      11362  
     11232      11233      11244      11243      11353      11354      11365      11364  
     11233      11234      11245      11244      11354      11355      11366      11365  
     11234      11235      11246      11245      11355      11356      11367      11366  
     11235      11236      11247      11246      11356      11357      11368      11367  
     11236      11237      11248      11247      11357      11358      11369      11368  
     11237      11238      11249      11248      11358      11359      11370      11369  
     11238      11239      11250      11249      11359      11360      11371      11370  
     11239      11240      11251      11250      11360      11361      11372      11371  
     11240      11241      11252      11251      11361      11362      11373      11372  
     11241      11242      11253      11252      11362      11363      11374      11373  
     11254      11255      11266      11265      11375      11376      11387      11386  
     11255      11256      11267      11266      11376      11377      11388      11387  
     11256      11257      11268      11267      11377      11378      11389      11388  
     11257      11258      11269      11268      11378      11379      11390      11389  
     11258      11259      11270      11269      11379      11380      11391      11390  
     11259      11260      11271      11270      11380      11381      11392      11391  
     11260      11261      11272      11271      11381      11382      11393      11392  
     11261      11262      11273      11272      11382      11383      11394      11393  
     11262      11263      11274      11273      11383      11384      11395      11394  
     11263      11264      11275      11274      11384      11385      11396      11395  
     11265      11266      11277      11276      11386      11387      11398      11397  
     11266      11267      11278      11277      11387      11388      11399      11398  
     11267      11268      11279      11278      11388      11389      11400      11399  
     11268      11269      11280      11279      11389      11390      11401      11400  
     11269      11270      11281      11280      11390      11391      11402      11401  
     11270      11271      11282      11281      11391      11392      11403      11402  
     11271      11272      11283      11282      11392      11393      11404      11403  
     11272      11273      11284      11283      11393      11394      11405      11404  
     11273      11274      11285      11284      11394      11395      11406      11405  
     11274      11275      11286      11285      11395      11396      11407      11406  
     11276      11277      11288      11287      11397      11398      11409      11408  
     11277      11278      11289      11288      11398      11399      11410      11409  
     11278      11279      11290      11289      11399      11400      11411      11410  
     11279      11280      11291      11290      11400      11401      11412      11411  
     11280      11281      11292      11291      11401      11402      11413      11412  
     11281      11282      11293      11292      11402      11403      11414      11413  
     11282      11283      11294      11293      11403      11404      11415      11414  
     11283      11284      11295      11294      11404      11405      11416      11415  
     11284      11285      11296      11295      11405      11406      11417      11416  
     11285      11286      11297      11296      11406      11407      11418      11417  
     11287      11288      11299      11298      11408      11409      11420      11419  
     11288      11289      11300      11299      11409      11410      11421      11420  
     11289      11290      11301      11300      11410      11411      11422      11421  
     11290      11291      11302      11301      11411      11412      11423      11422  
     11291      11292      11303      11302      11412      11413      11424      11423  
     11292      11293      11304      11303      11413      11414      11425      11424  
     11293      11294      11305      11304      11414      11415      11426      11425  
     11294      11295      11306      11305      11415      11416      11427      11426  
     11295      11296      11307      11306      11416      11417      11428      11427  
     11296      11297      11308      11307      11417      11418      11429      11428  
     11298      11299      11310      11309      11419      11420      11431      11430  
     11299      11300      11311      11310      11420      11421      11432      11431  
     11300      11301      11312      11311      11421      11422      11433      11432  
     11301      11302      11313      11312      11422      11423      11434      11433  
     11302      11303      11314      11313      11423      11424      11435      11434  
     11303      11304      11315      11314      11424      11425      11436      11435  
     11304      11305      11316      11315      11425      11426      11437      11436  
     11305      11306      11317      11316      11426      11427      11438      11437  
     11306      11307      11318      11317      11427      11428      11439      11438  
     11307      11308      11319      11318      11428      11429      11440      11439  
     11309      11310      11321      11320      11430      11431      11442      11441  
     11310      11311      11322      11321      11431      11432      11443      11442  
     11311      11312      11323      11322      11432      11433      11444      11443  
     11312      11313      11324      11323      11433      11434      11445      11444  
     11313      11314      11325      11324      11434      11435      11446      11445  
     11314      11315      11326      11325      11435      11436      11447      11446  
     11315      11316      11327      11326      11436      11437      11448      11447  
     11316      11317      11328      11327      11437      11438      11449      11448  
     11317      11318      11329      11328      11438      11439      11450      11449  
     11318      11319      11330      11329      11439      11440      11451      11450  
     11320      11321      11332      11331      11441      11442      11453      11452  
     11321      11322      11333      11332      11442      11443      11454      11453  
     11322      11323      11334      11333      11443      11444      11455      11454  
     11323      11324      11335      11334      11444      11445      11456      11455  
     11324      11325      11336      11335      11445      11446      11457      11456  
     11325      11326      11337      11336      11446      11447      11458      11457  
     11326      11327      11338      11337      11447      11448      11459      11458  
     11327      11328      11339      11338      11448      11449      11460      11459  
     11328      11329      11340      11339      11449      11450      11461      11460  
     11329      11330      11341      11340      11450      11451      11462      11461  
     11331      11332      11343      11342      11452      11453      11464      11463  
     11332      11333      11344      11343      11453      11454      11465      11464  
     11333      11334      11345      11344      11454      11455      11466      11465  
     11334      11335      11346      11345      11455      11456      11467      11466  
     11335      11336      11347      11346      11456      11457      11468      11467  
     11336      11337      11348      11347      11457      11458      11469      11468  
     11337      11338      11349      11348      11458      11459      11470      11469  
     11338      11339      11350      11349      11459      11460      11471      11470  
     11339      11340      11351      11350      11460      11461      11472      11471  
     11340      11341      11352      11351      11461      11462      11473      11472  
     11342      11343      11354      11353      11463      11464      11475      11474  
     11343      11344      11355      11354      11464      11465      11476      11475  
     11344      11345      11356      11355      11465      11466      11477      11476  
     11345      11346      11357      11356      11466      11467      11478      11477  
     11346      11347      11358      11357      11467      11468      11479      11478  
     11347      11348      11359      11358      11468      11469      11480      11479  
     11348      11349      11360      11359      11469      11470      11481      11480  
     11349      11350      11361      11360      11470      11471      11482      11481  
     11350      11351      11362      11361      11471      11472      11483      11482  
     11351      11352      11363      11362      11472      11473      11484      11483  
     11353      11354      11365      11364      11474      11475      11486      11485  
     11354      11355      11366      11365      11475      11476      11487      11486  
     11355      11356      11367      11366      11476      11477      11488      11487  
     11356      11357      11368      11367      11477      11478      11489      11488  
     11357      11358      11369      11368      11478      11479      11490      11489  
     11358      11359      11370      11369      11479      11480      11491      11490  
     11359      11360      11371      11370      11480      11481      11492      11491  
     11360      11361      11372      11371      11481      11482      11493      11492  
     11361      11362      11373      11372      11482      11483      11494      11493  
     11362      11363      11374      11373      11483      11484      11495      11494  
     11375      11376      11387      11386      11496      11497      11508      11507  
     11376      11377      11388      11387      11497      11498      11509      11508  
     11377      11378      11389      11388      11498      11499      11510      11509  
     11378      11379      11390      11389      11499      11500      11511      11510  
     11379      11380      11391      11390      11500      11501      11512      11511  
     11380      11381      11392      11391      11501      11502      11513      11512  
     11381      11382      11393      11392      11502      11503      11514      11513  
     11382      11383      11394      11393      11503      11504      11515      11514  
     11383      11384      11395      11394      11504      11505      11516      11515  
     11384      11385      11396      11395      11505      11506      11517      11516  
     11386      11387      11398      11397      11507      11508      11519      11518  
     11387      11388      11399      11398      11508      11509      11520      11519  
     11388      11389      11400      11399      11509      11510      11521      11520  
     11389      11390      11401      11400      11510      11511      11522      11521  
     11390      11391      11402      11401      11511      11512      11523      11522  
     11391      11392      11403      11402      11512      11513      11524      11523  
     11392      11393      11404      11403      11513      11514      11525      11524  
     11393      11394      11405      11404      11514      11515      11526      11525  
     11394      11395      11406      11405      11515      11516      11527      11526  
     11395      11396      11407      11406      11516      11517      11528      11527  
     11397      11398      11409      11408      11518      11519      11530      11529  
     11398      11399      11410      11409      11519      11520      11531      11530  
     11399      11400      11411      11410      11520      11521      11532      11531  
     11400      11401      11412      11411      11521      11522      11533      11532  
     11401      11402      11413      11412      11522      11523      11534      11533  
     11402      11403      11414      11413      11523      11524      11535      11534  
     11403      11404      11415      11414      11524      11525      11536      11535  
     11404      11405      11416      11415      11525      11526      11537      11536  
     11405      11406      11417      11416      11526      11527      11538      11537  
     11406      11407      11418      11417      11527      11528      11539      11538  
     11408      11409      11420      11419      11529      11530      11541      11540  
     11409      11410      11421      11420      11530      11531      11542      11541  
     11410      11411      11422      11421      11531      11532      11543      11542  
     11411      11412      11423      11422      11532      11533      11544      11543  
     11412      11413      11424      11423      11533      11534      11545      11544  
     11413      11414      11425      11424      11534      11535      11546      11545  
     11414      11415      11426      11425      11535      11536      11547      11546  
     11415      11416      11427      11426      11536      11537      11548      11547  
     11416      11417      11428      11427      11537      11538      11549      11548  
     11417      11418      11429      11428      11538      11539      11550      11549  
     11419      11420      11431      11430      11540      11541      11552      11551  
     11420      11421      11432      11431      11541      11542      11553      11552  
     11421      11422      11433      11432      11542      11543      11554      11553  
     11422      11423      11434      11433      11543      11544      11555      11554  
     11423      11424      11435      11434      11544      11545      11556      11555  
     11424      11425      11436      11435      11545      11546      11557      11556  
     11425      11426      11437      11436      11546      11547      11558      11557  
     11426      11427      11438      11437      11547      11548      11559      11558  
     11427      11428      11439      11438      11548      11549      11560      11559  
     11428      11429      11440      11439      11549      11550      11561      11560  
     11430      11431      11442      11441      11551      11552      11563      11562  
     11431      11432      11443      11442      11552      11553      11564      11563  
     11432      11433      11444      11443      11553      11554      11565      11564  
     11433      11434      11445      11444      11554      11555      11566      11565  
     11434      11435      11446      11445      11555      11556      11567      11566  
     11435      11436      11447      11446      11556      11557      11568      11567  
     11436      11437      11448      11447      11557      11558      11569      11568  
     11437      11438      11449      11448      11558      11559      11570      11569  
     11438      11439      11450      11449      11559      11560      11571      11570  
     11439      11440      11451      11450      11560      11561      11572      11571  
     11441      11442      11453      11452      11562      11563      11574      11573  
     11442      11443      11454      11453      11563      11564      11575      11574  
     11443      11444      11455      11454      11564      11565      11576      11575  
     11444      11445      11456      11455      11565      11566      11577      11576  
     11445      11446      11457      11456      11566      11567      11578      11577  
     11446      11447      11458      11457      11567      11568      11579      11578  
     11447      11448      11459      11458      11568      11569      11580      11579  
     11448      11449      11460      11459      11569      11570      11581      11580  
     11449      11450      11461      11460      11570      11571      11582      11581  
     11450      11451      11462      11461      11571      11572      11583      11582  
     11452      11453      11464      11463      11573      11574      11585      11584  
     11453      11454      11465      11464      11574      11575      11586      11585  
     11454      11455      11466      11465      11575      11576      11587      11586  
     11455      11456      11467      11466      11576      11577      11588      11587  
     11456      11457      11468      11467      11577      11578      11589      11588  
     11457      11458      11469      11468      11578      11579      11590      11589  
     11458      11459      11470      11469      11579      11580      11591      11590  
     11459      11460      11471      11470      11580      11581      11592      11591  
     11460      11461      11472      11471      11581      11582      11593      11592  
     11461      11462      11473      11472      11582      11583      11594      11593  
     11463      11464      11475      11474      11584      11585      11596      11595  
     11464      11465      11476      11475      11585      11586      11597      11596  
     11465      11466      11477      11476      11586      11587      11598      11597  
     11466      11467      11478      11477      11587      11588      11599      11598  
     11467      11468      11479      11478      11588      11589      11600      11599  
     11468      11469      11480      11479      11589      11590      11601      11600  
     11469      11470      11481      11480      11590      11591      11602      11601  
     11470      11471      11482      11481      11591      11592      11603      11602  
     11471      11472      11483      11482      11592      11593      11604      11603  
     11472      11473      11484      11483      11593      11594      11605      11604  
     11474      11475      11486      11485      11595      11596      11607      11606  
     11475      11476      11487      11486      11596      11597      11608      11607  
     11476      11477      11488      11487      11597      11598      11609      11608  
     11477      11478      11489      11488      11598      11599      11610      11609  
     11478      11479      11490      11489      11599      11600      11611      11610  
     11479      11480      11491      11490      11600      11601      11612      11611  
     11480      11481      11492      11491      11601      11602      11613      11612  
     11481      11482      11493      11492      11602      11603      11614      11613  
     11482      11483      11494      11493      11603      11604      11615      11614  
     11483      11484      11495      11494      11604      11605      11616      11615  
     11496      11497      11508      11507      11617      11618      11629      11628  
     11497      11498      11509      11508      11618      11619      11630      11629  
     11498      11499      11510      11509      11619      11620      11631      11630  
     11499      11500      11511      11510      11620      11621      11632      11631  
     11500      11501      11512      11511      11621      11622      11633      11632  
     11501      11502      11513      11512      11622      11623      11634      11633  
     11502      11503      11514      11513      11623      11624      11635      11634  
     11503      11504      11515      11514      11624      11625      11636      11635  
     11504      11505      11516      11515      11625      11626      11637      11636  
     11505      11506      11517      11516      11626      11627      11638      11637  
     11507      11508      11519      11518      11628      11629      11640      11639  
     11508      11509      11520      11519      11629      11630      11641      11640  
     11509      11510      11521      11520      11630      11631      11642      11641  
     11510      11511      11522      11521      11631      11632      11643      11642  
     11511      11512      11523      11522      11632      11633      11644      11643  
     11512      11513      11524      11523      11633      11634      11645      11644  
     11513      11514      11525      11524      11634      11635      11646      11645  
     11514      11515      11526      11525      11635      11636      11647      11646  
     11515      11516      11527      11526      11636      11637      11648      11647  
     11516      11517      11528      11527      11637      11638      11649      11648  
     11518      11519      11530      11529      11639      11640      11651      11650  
     11519      11520      11531      11530      11640      11641      11652      11651  
     11520      11521      11532      11531      11641      11642      11653      11652  
     11521      11522      11533      11532      11642      11643      11654      11653  
     11522      11523      11534      11533      11643      11644      11655      11654  
     11523      11524      11535      11534      11644      11645      11656      11655  
     11524      11525      11536      11535      11645      11646      11657      11656  
     11525      11526      11537      11536      11646      11647      11658      11657  
     11526      11527      11538      11537      11647      11648      11659      11658  
     11527      11528      11539      11538      11648      11649      11660      11659  
     11529      11530      11541      11540      11650      11651      11662      11661  
     11530      11531      11542      11541      11651      11652      11663      11662  
     11531      11532      11543      11542      11652      11653      11664      11663  
     11532      11533      11544      11543      11653      11654      11665      11664  
     11533      11534      11545      11544      11654      11655      11666      11665  
     11534      11535      11546      11545      11655      11656      11667      11666  
     11535      11536      11547      11546      11656      11657      11668      11667  
     11536      11537      11548      11547      11657      11658      11669      11668  
     11537      11538      11549      11548      11658      11659      11670      11669  
     11538      11539      11550      11549      11659      11660      11671      11670  
     11540      11541      11552      11551      11661      11662      11673      11672  
     11541      11542      11553      11552      11662      11663      11674      11673  
     11542      11543      11554      11553      11663      11664      11675      11674  
     11543      11544      11555      11554      11664      11665      11676      11675  
     11544      11545      11556      11555      11665      11666      11677      11676  
     11545      11546      11557      11556      11666      11667      11678      11677  
     11546      11547      11558      11557      11667      11668      11679      11678  
     11547      11548      11559      11558      11668      11669      11680      11679  
     11548      11549      11560      11559      11669      11670      11681      11680  
     11549      11550      11561      11560      11670      11671      11682      11681  
     11551      11552      11563      11562      11672      11673      11684      11683  
     11552      11553      11564      11563      11673      11674      11685      11684  
     11553      11554      11565      11564      11674      11675      11686      11685  
     11554      11555      11566      11565      11675      11676      11687      11686  
     11555      11556      11567      11566      11676      11677      11688      11687  
     11556      11557      11568      11567      11677      11678      11689      11688  
     11557      11558      11569      11568      11678      11679      11690      11689  
     11558      11559      11570      11569      11679      11680      11691      11690  
     11559      11560      11571      11570      11680      11681      11692      11691  
     11560      11561      11572      11571      11681      11682      11693      11692  
     11562      11563      11574      11573      11683      11684      11695      11694  
     11563      11564      11575      11574      11684      11685      11696      11695  
     11564      11565      11576      11575      11685      11686      11697      11696  
     11565      11566      11577      11576      11686      11687      11698      11697  
     11566      11567      11578      11577      11687      11688      11699      11698  
     11567      11568      11579      11578      11688      11689      11700      11699  
     11568      11569      11580      11579      11689      11690      11701      11700  
     11569      11570      11581      11580      11690      11691      11702      11701  
     11570      11571      11582      11581      11691      11692      11703      11702  
     11571      11572      11583      11582      11692      11693      11704      11703  
     11573      11574      11585      11584      11694      11695      11706      11705  
     11574      11575      11586      11585      11695      11696      11707      11706  
     11575      11576      11587      11586      11696      11697      11708      11707  
     11576      11577      11588      11587      11697      11698      11709      11708  
     11577      11578      11589      11588      11698      11699      11710      11709  
     11578      11579      11590      11589      11699      11700      11711      11710  
     11579      11580      11591      11590      11700      11701      11712      11711  
     11580      11581      11592      11591      11701      11702      11713      11712  
     11581      11582      11593      11592      11702      11703      11714      11713  
     11582      11583      11594      11593      11703      11704      11715      11714  
     11584      11585      11596      11595      11705      11706      11717      11716  
     11585      11586      11597      11596      11706      11707      11718      11717  
     11586      11587      11598      11597      11707      11708      11719      11718  
     11587      11588      11599      11598      11708      11709      11720      11719  
     11588      11589      11600      11599      11709      11710      11721      11720  
     11589      11590      11601      11600      11710      11711      11722      11721  
     11590      11591      11602      11601      11711      11712      11723      11722  
     11591      11592      11603      11602      11712      11713      11724      11723  
     11592      11593      11604      11603      11713      11714      11725      11724  
     11593      11594      11605      11604      11714      11715      11726      11725  
     11595      11596      11607      11606      11716      11717      11728      11727  
     11596      11597      11608      11607      11717      11718      11729      11728  
     11597      11598      11609      11608      11718      11719      11730      11729  
     11598      11599      11610      11609      11719      11720      11731      11730  
     11599      11600      11611      11610      11720      11721      11732      11731  
     11600      11601      11612      11611      11721      11722      11733      11732  
     11601      11602      11613      11612      11722      11723      11734      11733  
     11602      11603      11614      11613      11723      11724      11735      11734  
     11603      11604      11615      11614      11724      11725      11736      11735  
     11604      11605      11616      11615      11725      11726      11737      11736  
     11617      11618      11629      11628      11738      11739      11750      11749  
     11618      11619      11630      11629      11739      11740      11751      11750  
     11619      11620      11631      11630      11740      11741      11752      11751  
     11620      11621      11632      11631      11741      11742      11753      11752  
     11621      11622      11633      11632      11742      11743      11754      11753  
     11622      11623      11634      11633      11743      11744      11755      11754  
     11623      11624      11635      11634      11744      11745      11756      11755  
     11624      11625      11636      11635      11745      11746      11757      11756  
     11625      11626      11637      11636      11746      11747      11758      11757  
     11626      11627      11638      11637      11747      11748      11759      11758  
     11628      11629      11640      11639      11749      11750      11761      11760  
     11629      11630      11641      11640      11750      11751      11762      11761  
     11630      11631      11642      11641      11751      11752      11763      11762  
     11631      11632      11643      11642      11752      11753      11764      11763  
     11632      11633      11644      11643      11753      11754      11765      11764  
     11633      11634      11645      11644      11754      11755      11766      11765  
     11634      11635      11646      11645      11755      11756      11767      11766  
     11635      11636      11647      11646      11756      11757      11768      11767  
     11636      11637      11648      11647      11757      11758      11769      11768  
     11637      11638      11649      11648      11758      11759      11770      11769  
     11639      11640      11651      11650      11760      11761      11772      11771  
     11640      11641      11652      11651      11761      11762      11773      11772  
     11641      11642      11653      11652      11762      11763      11774      11773  
     11642      11643      11654      11653      11763      11764      11775      11774  
     11643      11644      11655      11654      11764      11765      11776      11775  
     11644      11645      11656      11655      11765      11766      11777      11776  
     11645      11646      11657      11656      11766      11767      11778      11777  
     11646      11647      11658      11657      11767      11768      11779      11778  
     11647      11648      11659      11658      11768      11769      11780      11779  
     11648      11649      11660      11659      11769      11770      11781      11780  
     11650      11651      11662      11661      11771      11772      11783      11782  
     11651      11652      11663      11662      11772      11773      11784      11783  
     11652      11653      11664      11663      11773      11774      11785      11784  
     11653      11654      11665      11664      11774      11775      11786      11785  
     11654      11655      11666      11665      11775      11776      11787      11786  
     11655      11656      11667      11666      11776      11777      11788      11787  
     11656      11657      11668      11667      11777      11778      11789      11788  
     11657      11658      11669      11668      11778      11779      11790      11789  
     11658      11659      11670      11669      11779      11780      11791      11790  
     11659      11660      11671      11670      11780      11781      11792      11791  
     11661      11662      11673      11672      11782      11783      11794      11793  
     11662      11663      11674      11673      11783      11784      11795      11794  
     11663      11664      11675      11674      11784      11785      11796      11795  
     11664      11665      11676      11675      11785      11786      11797      11796  
     11665      11666      11677      11676      11786      11787      11798      11797  
     11666      11667      11678      11677      11787      11788      11799      11798  
     11667      11668      11679      11678      11788      11789      11800      11799  
     11668      11669      11680      11679      11789      11790      11801      11800  
     11669      11670      11681      11680      11790      11791      11802      11801  
     11670      11671      11682      11681      11791      11792      11803      11802  
     11672      11673      11684      11683      11793      11794      11805      11804  
     11673      11674      11685      11684      11794      11795      11806      11805  
     11674      11675      11686      11685      11795      11796      11807      11806  
     11675      11676      11687      11686      11796      11797      11808      11807  
     11676      11677      11688      11687      11797      11798      11809      11808  
     11677      11678      11689      11688      11798      11799      11810      11809  
     11678      11679      11690      11689      11799      11800      11811      11810  
     11679      11680      11691      11690      11800      11801      11812      11811  
     11680      11681      11692      11691      11801      11802      11813      11812  
     11681      11682      11693      11692      11802      11803      11814      11813  
     11683      11684      11695      11694      11804      11805      11816      11815  
     11684      11685      11696      11695      11805      11806      11817      11816  
     11685      11686      11697      11696      11806      11807      11818      11817  
     11686      11687      11698      11697      11807      11808      11819      11818  
     11687      11688      11699      11698      11808      11809      11820      11819  
     11688      11689      11700      11699      11809      11810      11821      11820  
     11689      11690      11701      11700      11810      11811      11822      11821  
     11690      11691      11702      11701      11811      11812      11823      11822  
     11691      11692      11703      11702      11812      11813      11824      11823  
     11692      11693      11704      11703      11813      11814      11825      11824  
     11694      11695      11706      11705      11815      11816      11827      11826  
     11695      11696      11707      11706      11816      11817      11828      11827  
     11696      11697      11708      11707      11817      11818      11829      11828  
     11697      11698      11709      11708      11818      11819      11830      11829  
     11698      11699      11710      11709      11819      11820      11831      11830  
     11699      11700      11711      11710      11820      11821      11832      11831  
     11700      11701      11712      11711      11821      11822      11833      11832  
     11701      11702      11713      11712      11822      11823      11834      11833  
     11702      11703      11714      11713      11823      11824      11835      11834  
     11703      11704      11715      11714      11824      11825      11836      11835  
     11705      11706      11717      11716      11826      11827      11838      11837  
     11706      11707      11718      11717      11827      11828      11839      11838  
     11707      11708      11719      11718      11828      11829      11840      11839  
     11708      11709      11720      11719      11829      11830      11841      11840  
     11709      11710      11721      11720      11830      11831      11842      11841  
     11710      11711      11722      11721      11831      11832      11843      11842  
     11711      11712      11723      11722      11832      11833      11844      11843  
     11712      11713      11724      11723      11833      11834      11845      11844  
     11713      11714      11725      11724      11834      11835      11846      11845  
     11714      11715      11726      11725      11835      11836      11847      11846  
     11716      11717      11728      11727      11837      11838      11849      11848  
     11717      11718      11729      11728      11838      11839      11850      11849  
     11718      11719      11730      11729      11839      11840      11851      11850  
     11719      11720      11731      11730      11840      11841      11852      11851  
     11720      11721      11732      11731      11841      11842      11853      11852  
     11721      11722      11733      11732      11842      11843      11854      11853  
     11722      11723      11734      11733      11843      11844      11855      11854  
     11723      11724      11735      11734      11844      11845      11856      11855  
     11724      11725      11736      11735      11845      11846      11857      11856  
     11725      11726      11737      11736      11846      11847      11858      11857  
     11738      11739      11750      11749      11859      11860      11871      11870  
     11739      11740      11751      11750      11860      11861      11872      11871  
     11740      11741      11752      11751      11861      11862      11873      11872  
     11741      11742      11753      11752      11862      11863      11874      11873  
     11742      11743      11754      11753      11863      11864      11875      11874  
     11743      11744      11755      11754      11864      11865      11876      11875  
     11744      11745      11756      11755      11865      11866      11877      11876  
     11745      11746      11757      11756      11866      11867      11878      11877  
     11746      11747      11758      11757      11867      11868      11879      11878  
     11747      11748      11759      11758      11868      11869      11880      11879  
     11749      11750      11761      11760      11870      11871      11882      11881  
     11750      11751      11762      11761      11871      11872      11883      11882  
     11751      11752      11763      11762      11872      11873      11884      11883  
     11752      11753      11764      11763      11873      11874      11885      11884  
     11753      11754      11765      11764      11874      11875      11886      11885  
     11754      11755      11766      11765      11875      11876      11887      11886  
     11755      11756      11767      11766      11876      11877      11888      11887  
     11756      11757      11768      11767      11877      11878      11889      11888  
     11757      11758      11769      11768      11878      11879      11890      11889  
     11758      11759      11770      11769      11879      11880      11891      11890  
     11760      11761      11772      11771      11881      11882      11893      11892  
     11761      11762      11773      11772      11882      11883      11894      11893  
     11762      11763      11774      11773      11883      11884      11895      11894  
     11763      11764      11775      11774      11884      11885      11896      11895  
     11764      11765      11776      11775      11885      11886      11897      11896  
     11765      11766      11777      11776      11886      11887      11898      11897  
     11766      11767      11778      11777      11887      11888      11899      11898  
     11767      11768      11779      11778      11888      11889      11900      11899  
     11768      11769      11780      11779      11889      11890      11901      11900  
     11769      11770      11781      11780      11890      11891      11902      11901  
     11771      11772      11783      11782      11892      11893      11904      11903  
     11772      11773      11784      11783      11893      11894      11905      11904  
     11773      11774      11785      11784      11894      11895      11906      11905  
     11774      11775      11786      11785      11895      11896      11907      11906  
     11775      11776      11787      11786      11896      11897      11908      11907  
     11776      11777      11788      11787      11897      11898      11909      11908  
     11777      11778      11789      11788      11898      11899      11910      11909  
     11778      11779      11790      11789      11899      11900      11911      11910  
     11779      11780      11791      11790      11900      11901      11912      11911  
     11780      11781      11792      11791      11901      11902      11913      11912  
     11782      11783      11794      11793      11903      11904      11915      11914  
     11783      11784      11795      11794      11904      11905      11916      11915  
     11784      11785      11796      11795      11905      11906      11917      11916  
     11785      11786      11797      11796      11906      11907      11918      11917  
     11786      11787      11798      11797      11907      11908      11919      11918  
     11787      11788      11799      11798      11908      11909      11920      11919  
     11788      11789      11800      11799      11909      11910      11921      11920  
     11789      11790      11801      11800      11910      11911      11922      11921  
     11790      11791      11802      11801      11911      11912      11923      11922  
     11791      11792      11803      11802      11912      11913      11924      11923  
     11793      11794      11805      11804      11914      11915      11926      11925  
     11794      11795      11806      11805      11915      11916      11927      11926  
     11795      11796      11807      11806      11916      11917      11928      11927  
     11796      11797      11808      11807      11917      11918      11929      11928  
     11797      11798      11809      11808      11918      11919      11930      11929  
     11798      11799      11810      11809      11919      11920      11931      11930  
     11799      11800      11811      11810      11920      11921      11932      11931  
     11800      11801      11812      11811      11921      11922      11933      11932  
     11801      11802      11813      11812      11922      11923      11934      11933  
     11802      11803      11814      11813      11923      11924      11935      11934  
     11804      11805      11816      11815      11925      11926      11937      11936  
     11805      11806      11817      11816      11926      11927      11938      11937  
     11806      11807      11818      11817      11927      11928      11939      11938  
     11807      11808      11819      11818      11928      11929      11940      11939  
     11808      11809      11820      11819      11929      11930      11941      11940  
     11809      11810      11821      11820      11930      11931      11942      11941  
     11810      11811      11822      11821      11931      11932      11943      11942  
     11811      11812      11823      11822      11932      11933      11944      11943  
     11812      11813      11824      11823      11933      11934      11945      11944  
     11813      11814      11825      11824      11934      11935      11946      11945  
     11815      11816      11827      11826      11936      11937      11948      11947  
     11816      11817      11828      11827      11937      11938      11949      11948  
     11817      11818      11829      11828      11938      11939      11950      11949  
     11818      11819      11830      11829      11939      11940      11951      11950  
     11819      11820      11831      11830      11940      11941      11952      11951  
     11820      11821      11832      11831      11941      11942      11953      11952  
     11821      11822      11833      11832      11942      11943      11954      11953  
     11822      11823      11834      11833      11943      11944      11955      11954  
     11823      11824      11835      11834      11944      11945      11956      11955  
     11824      11825      11836      11835      11945      11946      11957      11956  
     11826      11827      11838      11837      11947      11948      11959      11958  
     11827      11828      11839      11838      11948      11949      11960      11959  
     11828      11829      11840      11839      11949      11950      11961      11960  
     11829      11830      11841      11840      11950      11951      11962      11961  
     11830      11831      11842      11841      11951      11952      11963      11962  
     11831      11832      11843      11842      11952      11953      11964      11963  
     11832      11833      11844      11843      11953      11954      11965      11964  
     11833      11834      11845      11844      11954      11955      11966      11965  
     11834      11835      11846      11845      11955      11956      11967      11966  
     11835      11836      11847      11846      11956      11957      11968      11967  
     11837      11838      11849      11848      11958      11959      11970      11969  
     11838      11839      11850      11849      11959      11960      11971      11970  
     11839      11840      11851      11850      11960      11961      11972      11971  
     11840      11841      11852      11851      11961      11962      11973      11972  
     11841      11842      11853      11852      11962      11963      11974      11973  
     11842      11843      11854      11853      11963      11964      11975      11974  
     11843      11844      11855      11854      11964      11965      11976      11975  
     11844      11845      11856      11855      11965      11966      11977      11976  
     11845      11846      11857      11856      11966      11967      11978      11977  
     11846      11847      11858      11857      11967      11968      11979      11978  
     11859      11860      11871      11870      11980      11981      11992      11991  
     11860      11861      11872      11871      11981      11982      11993      11992  
     11861      11862      11873      11872      11982      11983      11994      11993  
     11862      11863      11874      11873      11983      11984      11995      11994  
     11863      11864      11875      11874      11984      11985      11996      11995  
     11864      11865      11876      11875      11985      11986      11997      11996  
     11865      11866      11877      11876      11986      11987      11998      11997  
     11866      11867      11878      11877      11987      11988      11999      11998  
     11867      11868      11879      11878      11988      11989      12000      11999  
     11868      11869      11880      11879      11989      11990      12001      12000  
     11870      11871      11882      11881      11991      11992      12003      12002  
     11871      11872      11883      11882      11992      11993      12004      12003  
     11872      11873      11884      11883      11993      11994      12005      12004  
     11873      11874      11885      11884      11994      11995      12006      12005  
     11874      11875      11886      11885      11995      11996      12007      12006  
     11875      11876      11887      11886      11996      11997      12008      12007  
     11876      11877      11888      11887      11997      11998      12009      12008  
     11877      11878      11889      11888      11998      11999      12010      12009  
     11878      11879      11890      11889      11999      12000      12011      12010  
     11879      11880      11891      11890      12000      12001      12012      12011  
     11881      11882      11893      11892      12002      12003      12014      12013  
     11882      11883      11894      11893      12003      12004      12015      12014  
     11883      11884      11895      11894      12004      12005      12016      12015  
     11884      11885      11896      11895      12005      12006      12017      12016  
     11885      11886      11897      11896      12006      12007      12018      12017  
     11886      11887      11898      11897      12007      12008      12019      12018  
     11887      11888      11899      11898      12008      12009      12020      12019  
     11888      11889      11900      11899      12009      12010      12021      12020  
     11889      11890      11901      11900      12010      12011      12022      12021  
     11890      11891      11902      11901      12011      12012      12023      12022  
     11892      11893      11904      11903      12013      12014      12025      12024  
     11893      11894      11905      11904      12014      12015      12026      12025  
     11894      11895      11906      11905      12015      12016      12027      12026  
     11895      11896      11907      11906      12016      12017      12028      12027  
     11896      11897      11908      11907      12017      12018      12029      12028  
     11897      11898      11909      11908      12018      12019      12030      12029  
     11898      11899      11910      11909      12019      12020      12031      12030  
     11899      11900      11911      11910      12020      12021      12032      12031  
     11900      11901      11912      11911      12021      12022      12033      12032  
     11901      11902      11913      11912      12022      12023      12034      12033  
     11903      11904      11915      11914      12024      12025      12036      12035  
     11904      11905      11916      11915      12025      12026      12037      12036  
     11905      11906      11917      11916      12026      12027      12038      12037  
     11906      11907      11918      11917      12027      12028      12039      12038  
     11907      11908      11919      11918      12028      12029      12040      12039  
     11908      11909      11920      11919      12029      12030      12041      12040  
     11909      11910      11921      11920      12030      12031      12042      12041  
     11910      11911      11922      11921      12031      12032      12043      12042  
     11911      11912      11923      11922      12032      12033      12044      12043  
     11912      11913      11924      11923      12033      12034      12045      12044  
     11914      11915      11926      11925      12035      12036      12047      12046  
     11915      11916      11927      11926      12036      12037      12048      12047  
     11916      11917      11928      11927      12037      12038      12049      12048  
     11917      11918      11929      11928      12038      12039      12050      12049  
     11918      11919      11930      11929      12039      12040      12051      12050  
     11919      11920      11931      11930      12040      12041      12052      12051  
     11920      11921      11932      11931      12041      12042      12053      12052  
     11921      11922      11933      11932      12042      12043      12054      12053  
     11922      11923      11934      11933      12043      12044      12055      12054  
     11923      11924      11935      11934      12044      12045      12056      12055  
     11925      11926      11937      11936      12046      12047      12058      12057  
     11926      11927      11938      11937      12047      12048      12059      12058  
     11927      11928      11939      11938      12048      12049      12060      12059  
     11928      11929      11940      11939      12049      12050      12061      12060  
     11929      11930      11941      11940      12050      12051      12062      12061  
     11930      11931      11942      11941      12051      12052      12063      12062  
     11931      11932      11943      11942      12052      12053      12064      12063  
     11932      11933      11944      11943      12053      12054      12065      12064  
     11933      11934      11945      11944      12054      12055      12066      12065  
     11934      11935      11946      11945      12055      12056      12067      12066  
     11936      11937      11948      11947      12057      12058      12069      12068  
     11937      11938      11949      11948      12058      12059      12070      12069  
     11938      11939      11950      11949      12059      12060      12071      12070  
     11939      11940      11951      11950      12060      12061      12072      12071  
     11940      11941      11952      11951      12061      12062      12073      12072  
     11941      11942      11953      11952      12062      12063      12074      12073  
     11942      11943      11954      11953      12063      12064      12075      12074  
     11943      11944      11955      11954      12064      12065      12076      12075  
     11944      11945      11956      11955      12065      12066      12077      12076  
     11945      11946      11957      11956      12066      12067      12078      12077  
     11947      11948      11959      11958      12068      12069      12080      12079  
     11948      11949      11960      11959      12069      12070      12081      12080  
     11949      11950      11961      11960      12070      12071      12082      12081  
     11950      11951      11962      11961      12071      12072      12083      12082  
     11951      11952      11963      11962      12072      12073      12084      12083  
     11952      11953      11964      11963      12073      12074      12085      12084  
     11953      11954      11965      11964      12074      12075      12086      12085  
     11954      11955      11966      11965      12075      12076      12087      12086  
     11955      11956      11967      11966      12076      12077      12088      12087  
     11956      11957      11968      11967      12077      12078      12089      12088  
     11958      11959      11970      11969      12079      12080      12091      12090  
     11959      11960      11971      11970      12080      12081      12092      12091  
     11960      11961      11972      11971      12081      12082      12093      12092  
     11961      11962      11973      11972      12082      12083      12094      12093  
     11962      11963      11974      11973      12083      12084      12095      12094  
     11963      11964      11975      11974      12084      12085      12096      12095  
     11964      11965      11976      11975      12085      12086      12097      12096  
     11965      11966      11977      11976      12086      12087      12098      12097  
     11966      11967      11978      11977      12087      12088      12099      12098  
     11967      11968      11979      11978      12088      12089      12100      12099  
     11980      11981      11992      11991      12101      12102      12113      12112  
     11981      11982      11993      11992      12102      12103      12114      12113  
     11982      11983      11994      11993      12103      12104      12115      12114  
     11983      11984      11995      11994      12104      12105      12116      12115  
     11984      11985      11996      11995      12105      12106      12117      12116  
     11985      11986      11997      11996      12106      12107      12118      12117  
     11986      11987      11998      11997      12107      12108      12119      12118  
     11987      11988      11999      11998      12108      12109      12120      12119  
     11988      11989      12000      11999      12109      12110      12121      12120  
     11989      11990      12001      12000      12110      12111      12122      12121  
     11991      11992      12003      12002      12112      12113      12124      12123  
     11992      11993      12004      12003      12113      12114      12125      12124  
     11993      11994      12005      12004      12114      12115      12126      12125  
     11994      11995      12006      12005      12115      12116      12127      12126  
     11995      11996      12007      12006      12116      12117      12128      12127  
     11996      11997      12008      12007      12117      12118      12129      12128  
     11997      11998      12009      12008      12118      12119      12130      12129  
     11998      11999      12010      12009      12119      12120      12131      12130  
     11999      12000      12011      12010      12120      12121      12132      12131  
     12000      12001      12012      12011      12121      12122      12133      12132  
     12002      12003      12014      12013      12123      12124      12135      12134  
     12003      12004      12015      12014      12124      12125      12136      12135  
     12004      12005      12016      12015      12125      12126      12137      12136  
     12005      12006      12017      12016      12126      12127      12138      12137  
     12006      12007      12018      12017      12127      12128      12139      12138  
     12007      12008      12019      12018      12128      12129      12140      12139  
     12008      12009      12020      12019      12129      12130      12141      12140  
     12009      12010      12021      12020      12130      12131      12142      12141  
     12010      12011      12022      12021      12131      12132      12143      12142  
     12011      12012      12023      12022      12132      12133      12144      12143  
     12013      12014      12025      12024      12134      12135      12146      12145  
     12014      12015      12026      12025      12135      12136      12147      12146  
     12015      12016      12027      12026      12136      12137      12148      12147  
     12016      12017      12028      12027      12137      12138      12149      12148  
     12017      12018      12029      12028      12138      12139      12150      12149  
     12018      12019      12030      12029      12139      12140      12151      12150  
     12019      12020      12031      12030      12140      12141      12152      12151  
     12020      12021      12032      12031      12141      12142      12153      12152  
     12021      12022      12033      12032      12142      12143      12154      12153  
     12022      12023      12034      12033      12143      12144      12155      12154  
     12024      12025      12036      12035      12145      12146      12157      12156  
     12025      12026      12037      12036      12146      12147      12158      12157  
     12026      12027      12038      12037      12147      12148      12159      12158  
     12027      12028      12039      12038      12148      12149      12160      12159  
     12028      12029      12040      12039      12149      12150      12161      12160  
     12029      12030      12041      12040      12150      12151      12162      12161  
     12030      12031      12042      12041      12151      12152      12163      12162  
     12031      12032      12043      12042      12152      12153      12164      12163  
     12032      12033      12044      12043      12153      12154      12165      12164  
     12033      12034      12045      12044      12154      12155      12166      12165  
     12035      12036      12047      12046      12156      12157      12168      12167  
     12036      12037      12048      12047      12157      12158      12169      12168  
     12037      12038      12049      12048      12158      12159      12170      12169  
     12038      12039      12050      12049      12159      12160      12171      12170  
     12039      12040      12051      12050      12160      12161      12172      12171  
     12040      12041      12052      12051      12161      12162      12173      12172  
     12041      12042      12053      12052      12162      12163      12174      12173  
     12042      12043      12054      12053      12163      12164      12175      12174  
     12043      12044      12055      12054      12164      12165      12176      12175  
     12044      12045      12056      12055      12165      12166      12177      12176  
     12046      12047      12058      12057      12167      12168      12179      12178  
     12047      12048      12059      12058      12168      12169      12180      12179  
     12048      12049      12060      12059      12169      12170      12181      12180  
     12049      12050      12061      12060      12170      12171      12182      12181  
     12050      12051      12062      12061      12171      12172      12183      12182  
     12051      12052      12063      12062      12172      12173      12184      12183  
     12052      12053      12064      12063      12173      12174      12185      12184  
     12053      12054      12065      12064      12174      12175      12186      12185  
     12054      12055      12066      12065      12175      12176      12187      12186  
     12055      12056      12067      12066      12176      12177      12188      12187  
     12057      12058      12069      12068      12178      12179      12190      12189  
     12058      12059      12070      12069      12179      12180      12191      12190  
     12059      12060      12071      12070      12180      12181      12192      12191  
     12060      12061      12072      12071      12181      12182      12193      12192  
     12061      12062      12073      12072      12182      12183      12194      12193  
     12062      12063      12074      12073      12183      12184      12195      12194  
     12063      12064      12075      12074      12184      12185      12196      12195  
     12064      12065      12076      12075      12185      12186      12197      12196  
     12065      12066      12077      12076      12186      12187      12198      12197  
     12066      12067      12078      12077      12187      12188      12199      12198  
     12068      12069      12080      12079      12189      12190      12201      12200  
     12069      12070      12081      12080      12190      12191      12202      12201  
     12070      12071      12082      12081      12191      12192      12203      12202  
     12071      12072      12083      12082      12192      12193      12204      12203  
     12072      12073      12084      12083      12193      12194      12205      12204  
     12073      12074      12085      12084      12194      12195      12206      12205  
     12074      12075      12086      12085      12195      12196      12207      12206  
     12075      12076      12087      12086      12196      12197      12208      12207  
     12076      12077      12088      12087      12197      12198      12209      12208  
     12077      12078      12089      12088      12198      12199      12210      12209  
     12079      12080      12091      12090      12200      12201      12212      12211  
     12080      12081      12092      12091      12201      12202      12213      12212  
     12081      12082      12093      12092      12202      12203      12214      12213  
     12082      12083      12094      12093      12203      12204      12215      12214  
     12083      12084      12095      12094      12204      12205      12216      12215  
     12084      12085      12096      12095      12205      12206      12217      12216  
     12085      12086      12097      12096      12206      12207      12218      12217  
     12086      12087      12098      12097      12207      12208      12219      12218  
     12087      12088      12099      12098      12208      12209      12220      12219  
     12088      12089      12100      12099      12209      12210      12221      12220  
