TITLE="results for TO code"
VARIABLES = "x", "y", "z", "density", "sigmaxx", "sigmayy", "sigmazz", "sigmaxy", "sigmaxz", "sigmayz"
ZONE T="load step 1", NODES= 12221, ELEMENTS= 10000, DATAPACKING=POINT, ZONETYPE=FEBRICK
               0.00000000                0.00000000                0.00000000                1.00000000               -0.00000000                0.00000000                0.09768109                0.00000000                0.04245872                0.04486180
               1.00000000                0.00000000                0.00000000                1.00000000               -0.00000000                0.00000000                0.07960882                0.00000000                0.01379433                0.04133757
               2.00000000                0.00000000                0.00000000                1.00000000                0.00000000               -0.00000000                0.04649610                0.00000000               -0.00645981                0.02821342
               3.00000000                0.00000000                0.00000000                1.00000000                0.00000000                0.00000000               -0.00231792               -0.00000000               -0.00304220                0.00183839
               4.00000000                0.00000000                0.00000000                1.00000000                0.00000000                0.00000000                0.00015150                0.00000000                0.00115358               -0.00059456
               5.00000000                0.00000000                0.00000000                1.00000000               -0.00000000                0.00000000               -0.00135235                0.00000000                0.00721000                0.00159429
               6.00000000                0.00000000                0.00000000                1.00000000               -0.00000000               -0.00000000                0.02982037               -0.00000000                0.02129580                0.02496853
               7.00000000                0.00000000                0.00000000                1.00000000                0.00000000                0.00000000                0.08504075                0.00000000                0.01768260                0.05383354
               8.00000000                0.00000000                0.00000000                1.00000000                0.00000000               -0.00000000                0.10496385               -0.00000000               -0.00080426                0.06268605
               9.00000000                0.00000000                0.00000000                1.00000000               -0.00000000               -0.00000000                0.10977560               -0.00000000               -0.02452834                0.06434625
              10.00000000                0.00000000                0.00000000                1.00000000               -0.00000000                0.00000000                0.13044193               -0.00000000               -0.06133494                0.06759802
               0.00000000                1.00000000                0.00000000                1.00000000               -0.00000000                0.00000000                0.08060197                0.00000000                0.04171320                0.01583989
               1.00000000                1.00000000                0.00000000                1.00000000                0.00000000               -0.00000000                0.04916161               -0.00000000                0.01533726                0.01463980
               2.00000000                1.00000000                0.00000000                1.00000000                0.00000000                0.00000000                0.01555019                0.00000000                0.00302594                0.00611337
               3.00000000                1.00000000                0.00000000                1.00000000                0.00000000               -0.00000000               -0.00108947               -0.00000000                0.00228911                0.00160435
               4.00000000                1.00000000                0.00000000                1.00000000               -0.00000000               -0.00000000                0.00015650                0.00000000                0.00107092               -0.00093038
               5.00000000                1.00000000                0.00000000                1.00000000                0.00000000               -0.00000000               -0.00075790               -0.00000000                0.00119901                0.00024715
               6.00000000                1.00000000                0.00000000                1.00000000                0.00000000                0.00000000                0.00844882               -0.00000000                0.00569763                0.00416411
               7.00000000                1.00000000                0.00000000                1.00000000                0.00000000               -0.00000000                0.04459124               -0.00000000                0.00748128                0.01541371
               8.00000000                1.00000000                0.00000000                1.00000000                0.00000000               -0.00000000                0.07982530                0.00000000               -0.00638528                0.02555443
               9.00000000                1.00000000                0.00000000                1.00000000               -0.00000000                0.00000000                0.09069313               -0.00000000               -0.02933650                0.02767855
              10.00000000                1.00000000                0.00000000                1.00000000                0.00000000               -0.00000000                0.10669688               -0.00000000               -0.06277135                0.02982522
               0.00000000                2.00000000                0.00000000                1.00000000               -0.00000000                0.00000000                0.04874856               -0.00000000                0.03007502               -0.00512166
               1.00000000                2.00000000                0.00000000                1.00000000                0.00000000               -0.00000000                0.01576898                0.00000000                0.00774417                0.00296147
               2.00000000                2.00000000                0.00000000                1.00000000               -0.00000000               -0.00000000               -0.00286838                0.00000000                0.00350244                0.00319243
               3.00000000                2.00000000                0.00000000                1.00000000               -0.00000000               -0.00000000                0.00075326               -0.00000000                0.00152073                0.00079854
               4.00000000                2.00000000                0.00000000                1.00000000                0.00000000               -0.00000000               -0.00012524               -0.00000000                0.00065883                0.00002864
               5.00000000                2.00000000                0.00000000                1.00000000               -0.00000000                0.00000000                0.00031759               -0.00000000                0.00016557               -0.00019515
               6.00000000                2.00000000                0.00000000                1.00000000                0.00000000               -0.00000000               -0.00115767                0.00000000               -0.00038775                0.00102869
               7.00000000                2.00000000                0.00000000                1.00000000                0.00000000                0.00000000                0.00510959               -0.00000000                0.00110903                0.00149008
               8.00000000                2.00000000                0.00000000                1.00000000               -0.00000000               -0.00000000                0.03691790               -0.00000000               -0.00655742               -0.00091130
               9.00000000                2.00000000                0.00000000                1.00000000                0.00000000                0.00000000                0.06935984               -0.00000000               -0.02753542                0.00382082
              10.00000000                2.00000000                0.00000000                1.00000000               -0.00000000               -0.00000000                0.10409454               -0.00000000               -0.06147133                0.00342976
               0.00000000                3.00000000                0.00000000                1.00000000                0.00000000                0.00000000               -0.00232958                0.00000000                0.00225595               -0.00288672
               1.00000000                3.00000000                0.00000000                1.00000000                0.00000000               -0.00000000               -0.00109832               -0.00000000                0.00181022                0.00259244
               2.00000000                3.00000000                0.00000000                1.00000000               -0.00000000                0.00000000                0.00076990               -0.00000000                0.00093349                0.00159549
               3.00000000                3.00000000                0.00000000                1.00000000                0.00000000               -0.00000000               -0.00013181                0.00000000                0.00069910                0.00068177
               4.00000000                3.00000000                0.00000000                1.00000000               -0.00000000               -0.00000000                0.00008124                0.00000000                0.00027414                0.00013543
               5.00000000                3.00000000                0.00000000                1.00000000               -0.00000000               -0.00000000               -0.00004902                0.00000000               -0.00008528                0.00010873
               6.00000000                3.00000000                0.00000000                1.00000000               -0.00000000                0.00000000                0.00018091               -0.00000000               -0.00023914                0.00025120
               7.00000000                3.00000000                0.00000000                1.00000000                0.00000000                0.00000000                0.00050896                0.00000000               -0.00134813                0.00036680
               8.00000000                3.00000000                0.00000000                1.00000000               -0.00000000               -0.00000000               -0.00596206               -0.00000000               -0.00373752                0.00141889
               9.00000000                3.00000000                0.00000000                1.00000000               -0.00000000               -0.00000000                0.02268398               -0.00000000               -0.01182789               -0.00426541
              10.00000000                3.00000000                0.00000000                1.00000000                0.00000000                0.00000000                0.07111674                0.00000000               -0.04485842               -0.01839614
               0.00000000                4.00000000                0.00000000                1.00000000               -0.00000000                0.00000000                0.00043444                0.00000000               -0.00062141                0.00197174
               1.00000000                4.00000000                0.00000000                1.00000000                0.00000000               -0.00000000                0.00025100               -0.00000000               -0.00098860                0.00128463
               2.00000000                4.00000000                0.00000000                1.00000000               -0.00000000               -0.00000000               -0.00022755                0.00000000                0.00008657                0.00077062
               3.00000000                4.00000000                0.00000000                1.00000000                0.00000000                0.00000000                0.00011608               -0.00000000                0.00011609                0.00034508
               4.00000000                4.00000000                0.00000000                1.00000000               -0.00000000                0.00000000               -0.00001283               -0.00000000                0.00009059                0.00012352
               5.00000000                4.00000000                0.00000000                1.00000000               -0.00000000               -0.00000000                0.00002813               -0.00000000               -0.00003961                0.00006924
               6.00000000                4.00000000                0.00000000                1.00000000                0.00000000                0.00000000                0.00003753                0.00000000               -0.00025607                0.00014312
               7.00000000                4.00000000                0.00000000                1.00000000                0.00000000                0.00000000               -0.00017086                0.00000000               -0.00056234                0.00051256
               8.00000000                4.00000000                0.00000000                1.00000000                0.00000000                0.00000000                0.00120234               -0.00000000               -0.00089204                0.00088420
               9.00000000                4.00000000                0.00000000                1.00000000                0.00000000               -0.00000000               -0.00180600                0.00000000               -0.00238541                0.00039420
              10.00000000                4.00000000                0.00000000                1.00000000                0.00000000                0.00000000               -0.00305593                0.00000000               -0.00461146               -0.00902764
               0.00000000                5.00000000                0.00000000                1.00000000               -0.00000000                0.00000000               -0.00308507                0.00000000                0.00406450                0.01005037
               1.00000000                5.00000000                0.00000000                1.00000000               -0.00000000                0.00000000               -0.00200279               -0.00000000                0.00123947                0.00200402
               2.00000000                5.00000000                0.00000000                1.00000000                0.00000000               -0.00000000                0.00094836                0.00000000               -0.00025823                0.00051473
               3.00000000                5.00000000                0.00000000                1.00000000               -0.00000000                0.00000000               -0.00024435               -0.00000000                0.00007674                0.00003690
               4.00000000                5.00000000                0.00000000                1.00000000                0.00000000                0.00000000                0.00006686                0.00000000               -0.00000446                0.00004198
               5.00000000                5.00000000                0.00000000                1.00000000                0.00000000                0.00000000                0.00000354               -0.00000000               -0.00004304               -0.00000627
               6.00000000                5.00000000                0.00000000                1.00000000               -0.00000000               -0.00000000                0.00000975               -0.00000000               -0.00012681                0.00004145
               7.00000000                5.00000000                0.00000000                1.00000000                0.00000000                0.00000000                0.00008300               -0.00000000               -0.00015891                0.00012468
               8.00000000                5.00000000                0.00000000                1.00000000               -0.00000000                0.00000000               -0.00013978                0.00000000               -0.00007676                0.00028550
               9.00000000                5.00000000                0.00000000                1.00000000               -0.00000000                0.00000000                0.00016587               -0.00000000                0.00066897               -0.00026035
              10.00000000                5.00000000                0.00000000                1.00000000               -0.00000000                0.00000000                0.00024649               -0.00000000                0.00054651               -0.00242931
               0.00000000                6.00000000                0.00000000                1.00000000                0.00000000                0.00000000                0.06229420               -0.00000000                0.03637892                0.02536254
               1.00000000                6.00000000                0.00000000                1.00000000               -0.00000000                0.00000000                0.02211857                0.00000000                0.00555356                0.00948494
               2.00000000                6.00000000                0.00000000                1.00000000                0.00000000                0.00000000               -0.00447749               -0.00000000                0.00114626                0.00031459
               3.00000000                6.00000000                0.00000000                1.00000000                0.00000000               -0.00000000                0.00089941               -0.00000000               -0.00007386                0.00016703
               4.00000000                6.00000000                0.00000000                1.00000000               -0.00000000                0.00000000               -0.00011022                0.00000000                0.00001938               -0.00021318
               5.00000000                6.00000000                0.00000000                1.00000000               -0.00000000               -0.00000000                0.00003131               -0.00000000               -0.00000979               -0.00010037
               6.00000000                6.00000000                0.00000000                1.00000000                0.00000000                0.00000000                0.00002372               -0.00000000               -0.00012651               -0.00011917
               7.00000000                6.00000000                0.00000000                1.00000000                0.00000000               -0.00000000                0.00001240               -0.00000000               -0.00019568               -0.00026533
               8.00000000                6.00000000                0.00000000                1.00000000               -0.00000000               -0.00000000                0.00007826                0.00000000                0.00007704               -0.00049506
               9.00000000                6.00000000                0.00000000                1.00000000                0.00000000               -0.00000000                0.00001165               -0.00000000                0.00042012               -0.00069576
              10.00000000                6.00000000                0.00000000                1.00000000                0.00000000                0.00000000               -0.00036975                0.00000000                0.00052477               -0.00088591
               0.00000000                7.00000000                0.00000000                1.00000000               -0.00000000                0.00000000                0.09131043               -0.00000000                0.05016782                0.01292444
               1.00000000                7.00000000                0.00000000                1.00000000                0.00000000               -0.00000000                0.05757026                0.00000000                0.01593855                0.00671811
               2.00000000                7.00000000                0.00000000                1.00000000               -0.00000000                0.00000000                0.02001951                0.00000000               -0.00062610                0.00337906
               3.00000000                7.00000000                0.00000000                1.00000000                0.00000000               -0.00000000               -0.00151392                0.00000000               -0.00032944               -0.00142456
               4.00000000                7.00000000                0.00000000                1.00000000                0.00000000               -0.00000000                0.00012388                0.00000000                0.00032366               -0.00047208
               5.00000000                7.00000000                0.00000000                1.00000000                0.00000000                0.00000000                0.00002986               -0.00000000                0.00007860               -0.00019202
               6.00000000                7.00000000                0.00000000                1.00000000               -0.00000000               -0.00000000                0.00002051                0.00000000               -0.00026838               -0.00021089
               7.00000000                7.00000000                0.00000000                1.00000000                0.00000000                0.00000000                0.00009946               -0.00000000               -0.00067011               -0.00068543
               8.00000000                7.00000000                0.00000000                1.00000000               -0.00000000                0.00000000               -0.00002261               -0.00000000               -0.00086776               -0.00180975
               9.00000000                7.00000000                0.00000000                1.00000000                0.00000000                0.00000000                0.00032460                0.00000000                0.00033759               -0.00224416
              10.00000000                7.00000000                0.00000000                1.00000000               -0.00000000               -0.00000000                0.00034029               -0.00000000                0.00111768               -0.00052099
               0.00000000                8.00000000                0.00000000                1.00000000               -0.00000000               -0.00000000                0.09852632               -0.00000000                0.05751840               -0.00137910
               1.00000000                8.00000000                0.00000000                1.00000000                0.00000000                0.00000000                0.07484508                0.00000000                0.02278919               -0.00669869
               2.00000000                8.00000000                0.00000000                1.00000000               -0.00000000               -0.00000000                0.03959508                0.00000000                0.00065835               -0.00741541
               3.00000000                8.00000000                0.00000000                1.00000000               -0.00000000               -0.00000000               -0.00454968                0.00000000                0.00121900               -0.00304653
               4.00000000                8.00000000                0.00000000                1.00000000                0.00000000               -0.00000000                0.00073637                0.00000000                0.00090785               -0.00098183
               5.00000000                8.00000000                0.00000000                1.00000000               -0.00000000               -0.00000000               -0.00005459                0.00000000                0.00030449               -0.00012715
               6.00000000                8.00000000                0.00000000                1.00000000                0.00000000               -0.00000000                0.00006945               -0.00000000               -0.00046235                0.00001358
               7.00000000                8.00000000                0.00000000                1.00000000                0.00000000                0.00000000               -0.00001980                0.00000000               -0.00177651               -0.00088898
               8.00000000                8.00000000                0.00000000                1.00000000                0.00000000                0.00000000                0.00103680               -0.00000000               -0.00356211               -0.00356421
               9.00000000                8.00000000                0.00000000                1.00000000               -0.00000000               -0.00000000               -0.00166919                0.00000000               -0.00520763               -0.00797572
              10.00000000                8.00000000                0.00000000                1.00000000               -0.00000000                0.00000000               -0.00428419               -0.00000000               -0.00361297                0.00039965
               0.00000000                9.00000000                0.00000000                1.00000000                0.00000000                0.00000000                0.10856964               -0.00000000                0.06415844               -0.02225009
               1.00000000                9.00000000                0.00000000                1.00000000                0.00000000               -0.00000000                0.08178038                0.00000000                0.02910323               -0.02569231
               2.00000000                9.00000000                0.00000000                1.00000000                0.00000000                0.00000000                0.05163424                0.00000000                0.00770860               -0.02190257
               3.00000000                9.00000000                0.00000000                1.00000000               -0.00000000                0.00000000                0.00905711               -0.00000000                0.00089123               -0.00799306
               4.00000000                9.00000000                0.00000000                1.00000000               -0.00000000                0.00000000               -0.00052586                0.00000000                0.00147111               -0.00159798
               5.00000000                9.00000000                0.00000000                1.00000000               -0.00000000                0.00000000                0.00007704                0.00000000                0.00000568                0.00047863
               6.00000000                9.00000000                0.00000000                1.00000000               -0.00000000               -0.00000000                0.00002943               -0.00000000               -0.00053087                0.00031984
               7.00000000                9.00000000                0.00000000                1.00000000               -0.00000000               -0.00000000                0.00032711               -0.00000000               -0.00217686                0.00032099
               8.00000000                9.00000000                0.00000000                1.00000000               -0.00000000               -0.00000000               -0.00166682                0.00000000               -0.00794112               -0.00515179
               9.00000000                9.00000000                0.00000000                1.00000000               -0.00000000               -0.00000000                0.03102947                0.00000000               -0.01746678               -0.01727891
              10.00000000                9.00000000                0.00000000                1.00000000                0.00000000                0.00000000                0.09328944                0.00000000               -0.05275851               -0.01159491
               0.00000000               10.00000000                0.00000000                1.00000000               -0.00000000               -0.00000000                0.12895584                0.00000000                0.06788801               -0.05836685
               1.00000000               10.00000000                0.00000000                1.00000000                0.00000000                0.00000000                0.10181101               -0.00000000                0.03182611               -0.05701188
               2.00000000               10.00000000                0.00000000                1.00000000               -0.00000000               -0.00000000                0.08320628               -0.00000000                0.00760026               -0.05289583
               3.00000000               10.00000000                0.00000000                1.00000000                0.00000000               -0.00000000                0.03934569                0.00000000               -0.01088253               -0.03049789
               4.00000000               10.00000000                0.00000000                1.00000000               -0.00000000               -0.00000000               -0.00163861               -0.00000000               -0.00481038               -0.00177720
               5.00000000               10.00000000                0.00000000                1.00000000                0.00000000               -0.00000000                0.00004371                0.00000000               -0.00125373                0.00048046
               6.00000000               10.00000000                0.00000000                1.00000000               -0.00000000                0.00000000               -0.00031338                0.00000000               -0.00059903                0.00051868
               7.00000000               10.00000000                0.00000000                1.00000000                0.00000000                0.00000000                0.00033798                0.00000000               -0.00045339                0.00112257
               8.00000000               10.00000000                0.00000000                1.00000000                0.00000000               -0.00000000               -0.00431449               -0.00000000                0.00043641               -0.00353414
               9.00000000               10.00000000                0.00000000                1.00000000                0.00000000                0.00000000                0.09305068                0.00000000               -0.01123453               -0.05239497
              10.00000000               10.00000000                0.00000000                1.00000000               -0.00000000               -0.00000000                0.19192600               -0.00000000               -0.06742177               -0.06802990
               0.00042459                0.00044862                1.00097681                1.00000000               -0.02866439               -0.02902191                0.09123418               -0.00426976                0.01224134                0.01780184
               1.00013794                0.00041338                1.00079609                0.92257025               -0.02445926               -0.02669777                0.08250392               -0.00678126               -0.00749917                0.00236566
               1.99993540                0.00028213                1.00046496                0.01000000               -0.00841826               -0.02210004                0.07350372               -0.01026384               -0.03705883               -0.00065917
               2.99996958                0.00001838                0.99997682                0.01000000                0.00380670               -0.00023404                0.08341768               -0.00907268               -0.02305029                0.02325314
               4.00001154               -0.00000595                1.00000151                0.01000600                0.00512610               -0.00033582                0.04779018               -0.00020471                0.01027294                0.03990710
               5.00007210                0.00001594                0.99998648                0.01000001                0.01007111               -0.00134714                0.05476869                0.00677055                0.03117029                0.03993993
               6.00021296                0.00024969                1.00029820                0.66725017                0.00523630               -0.02080441                0.08622460                0.01052145                0.07437618                0.00311355
               7.00017683                0.00053834                1.00085041                1.00000000               -0.01105003               -0.03841982                0.09102208                0.00865745                0.05173091               -0.00596295
               7.99999196                0.00062686                1.00104964                0.99999999               -0.02110547               -0.03713162                0.10101558               -0.00032465                0.00943477                0.01442991
               8.99975472                0.00064346                1.00109776                1.00000000               -0.03026534               -0.03666770                0.11214754               -0.00235218               -0.00703169                0.02407936
               9.99938665                0.00067598                1.00130442                1.00000000               -0.03680660               -0.03777280                0.11923851                0.00181535               -0.01512953                0.02314256
               0.00041713                1.00015840                1.00080602                0.95807533               -0.02637593               -0.02499173                0.08103619               -0.00739195                0.00177182               -0.00172658
               1.00015337                1.00014640                1.00049162                0.01000001               -0.01934363               -0.01918805                0.07077030               -0.00788834               -0.01133477               -0.01134546
               2.00003026                1.00006113                1.00015550                0.01000001               -0.00652408               -0.01251049                0.06346682               -0.00153660               -0.01740475               -0.01050058
               3.00002289                1.00001604                0.99998911                0.01000001               -0.00097751               -0.00051992                0.06750056               -0.00124041               -0.00552349                0.02074744
               4.00001071                0.99999070                1.00000157                0.01000000               -0.00054505                0.00031160                0.03938775               -0.00092598                0.00965707                0.01464848
               5.00001199                1.00000247                0.99999242                0.01000000                0.00231335               -0.00089472                0.04512209               -0.00097497                0.02090475                0.01400732
               6.00005698                1.00004164                1.00008449                0.01005770                0.00314114               -0.01196992                0.08053942               -0.00325850                0.04813974               -0.00649185
               7.00007481                1.00015414                1.00044591                0.58450130               -0.00604145               -0.02617173                0.09969968                0.00240838                0.04308091               -0.02198203
               7.99993615                1.00025554                1.00079825                0.99999998               -0.01840889               -0.03179867                0.10004766                0.00325584                0.01377215               -0.01017634
               8.99970663                1.00027679                1.00090693                0.99999999               -0.02819304               -0.03026272                0.10110823                0.00063185               -0.01169546                0.00658418
               9.99937229                1.00029825                1.00106697                0.99999999               -0.03343485               -0.03208413                0.10942212                0.00207847               -0.02512962                0.01748690
               0.00030075                1.99994878                1.00048749                0.01000001               -0.02233085               -0.00936330                0.07150682               -0.01164549                0.00270829               -0.03259241
               1.00007744                2.00002961                1.00015769                0.01000001               -0.01328629               -0.00602368                0.05814856               -0.00260648               -0.00542762               -0.01810974
               2.00003502                2.00003192                0.99997132                0.01000001               -0.00311172               -0.00225894                0.08543447               -0.00212769                0.01269472                0.00200450
               3.00001521                2.00000799                1.00000753                0.01000001               -0.00142180               -0.00046129                0.03017383               -0.00237690                0.01624572                0.01012314
               4.00000659                2.00000029                0.99999875                0.01000001               -0.00067758                0.00053291                0.04218296               -0.00089523                0.01100607                0.00441196
               5.00000166                1.99999805                1.00000318                0.01000000               -0.00052329               -0.00006921                0.04500936               -0.00014212                0.01040246                0.00083247
               5.99999612                2.00001029                0.99998842                0.01000000                0.00047173               -0.00195646                0.04438639               -0.00212576                0.01016849               -0.00404719
               7.00001109                2.00001490                1.00005110                0.01000000               -0.00308484               -0.00752346                0.12987830               -0.00538470                0.01671013               -0.01741906
               7.99993443                1.99999089                1.00036918                0.01000000               -0.01432223               -0.01206777                0.10026591                0.00248925                0.01767767               -0.03933306
               8.99972465                2.00003821                1.00069360                1.00000000               -0.02745695               -0.01597198                0.08821176                0.01092484                0.00277862               -0.02386814
               9.99938529                2.00003430                1.00104095                1.00000000               -0.03393591               -0.02411068                0.10094876                0.00856540               -0.01097657               -0.00333039
               0.00002256                2.99997113                0.99997670                0.01000302               -0.00044573                0.00354670                0.08791467               -0.00986906                0.02989392               -0.01870219
               1.00001810                3.00002592                0.99998902                0.01000001               -0.00066123               -0.00083842                0.07475432               -0.00212528                0.03554142               -0.00572795
               2.00000933                3.00001595                1.00000770                0.01000001               -0.00055556               -0.00121091                0.02751503               -0.00266327                0.02003399                0.01034988
               3.00000699                3.00000682                0.99999868                0.01000001               -0.00032967               -0.00022673                0.04129698               -0.00143235                0.01217445                0.00374753
               4.00000274                3.00000135                1.00000081                0.01000001               -0.00039219                0.00004744                0.03818633               -0.00057064                0.00960522               -0.00039183
               4.99999915                3.00000109                0.99999951                0.01000001               -0.00025664                0.00013220                0.04024959               -0.00004471                0.00629763               -0.00437920
               5.99999761                3.00000251                1.00000181                0.01000001               -0.00063143               -0.00044279                0.04890942                0.00019487                0.00196230               -0.00597856
               6.99998652                3.00000367                1.00000509                0.01000001               -0.00174919               -0.00048876                0.04061081               -0.00025184               -0.01116899               -0.00999531
               7.99996262                3.00001419                0.99994038                0.01000000               -0.00523988                0.00089775                0.09248384                0.00051659               -0.01259825               -0.02838383
               8.99988172                2.99995735                1.00022684                0.01000000               -0.02056045               -0.00171331                0.07419289                0.00266749                0.00762732               -0.04225584
               9.99955142                2.99981604                1.00071117                0.09892923               -0.03303053               -0.00622870                0.09305760                0.01429921               -0.00211473               -0.05613322
              -0.00000621                4.00001972                1.00000434                0.01000001               -0.00036718                0.00646854                0.05109074                0.00021717                0.04864066                0.00938612
               0.99999011                4.00001285                1.00000251                0.01000000                0.00035399               -0.00029421                0.03736895               -0.00088593                0.02233835                0.00778138
               2.00000087                4.00000771                0.99999772                0.01000001                0.00055235               -0.00054038                0.04190959               -0.00106564                0.01406145                0.00620484
               3.00000116                4.00000345                1.00000116                0.01000001                0.00000201               -0.00032243                0.03731507               -0.00063472                0.00983286                0.00078487
               4.00000091                4.00000124                0.99999987                0.01000002               -0.00007785               -0.00004673                0.03761586               -0.00027722                0.00660405               -0.00421064
               4.99999960                4.00000069                1.00000028                0.01000001               -0.00017333               -0.00005750                0.03853936                0.00003092                0.00360439               -0.00750735
               5.99999744                4.00000143                1.00000038                0.01000001               -0.00026137               -0.00010488                0.03979537                0.00027782               -0.00100466               -0.00930082
               6.99999438                4.00000513                0.99999829                0.01000000               -0.00031798               -0.00012106                0.04500342                0.00096516               -0.00650108               -0.00928746
               7.99999108                4.00000884                1.00001202                0.01000000               -0.00091154               -0.00056669                0.04040698                0.00177120               -0.01608611               -0.00525693
               8.99997615                4.00000394                0.99998194                0.01000000               -0.00185971                0.00200253                0.05147912                0.00129251               -0.03261657               -0.01949121
               9.99995389                3.99990972                0.99996944                0.01000000               -0.00222604                0.00798342                0.06660572                0.01328062               -0.05551746               -0.04155860
               0.00004065                5.00010050                0.99996915                0.01000003               -0.00282503                0.01169540                0.06340789                0.01045382                0.04758812                0.04366908
               1.00001239                5.00002004                0.99997997                0.01000000               -0.00216136                0.00410015                0.04825810               -0.00149674                0.02368765                0.02356541
               1.99999742                5.00000515                1.00000948                0.01000000               -0.00058136               -0.00022801                0.04228081               -0.00045371                0.01064618                0.00189141
               3.00000077                5.00000037                0.99999756                0.01000001                0.00012688               -0.00008902                0.03831145               -0.00033136                0.00630540               -0.00289324
               3.99999996                5.00000042                1.00000067                0.01000001               -0.00005989               -0.00016835                0.03692246               -0.00005719                0.00473676               -0.00796132
               4.99999957                4.99999994                1.00000004                0.01000000               -0.00006118               -0.00008480                0.03685789                0.00001464                0.00227646               -0.01077611
               5.99999873                5.00000041                1.00000010                0.01000000               -0.00005793               -0.00013115                0.03849743                0.00013025               -0.00130776               -0.01178131
               6.99999841                5.00000125                1.00000083                0.01000000                0.00002502               -0.00038894                0.04012247                0.00030536               -0.00685338               -0.01122325
               7.99999923                5.00000286                0.99999860                0.01000001                0.00041394               -0.00068963                0.04379984                0.00029202               -0.01467028               -0.01040729
               9.00000669                4.99999740                1.00000166                0.01000001                0.00031164               -0.00054498                0.04594248                0.00004536               -0.02653702               -0.00747373
              10.00000547                4.99997571                1.00000246                0.01000000               -0.00012246                0.00407087                0.06121517                0.00039916               -0.04920825               -0.00753383
               0.00036379                6.00025363                1.00062294                0.96460251               -0.03082537                0.00143704                0.08739257                0.00717406               -0.00636750                0.06897897
               1.00005554                6.00009485                1.00022119                0.01000000               -0.01761633                0.00235704                0.07474926               -0.00517444               -0.01831572                0.04601185
               2.00001146                6.00000315                0.99995523                0.01000000               -0.00281371                0.00143216                0.04606636               -0.00484289               -0.00141827                0.00828093
               2.99999926                6.00000167                1.00000899                0.01000001               -0.00056344               -0.00073073                0.04058854               -0.00046698                0.00672952               -0.00848084
               4.00000019                5.99999787                0.99999890                0.01000001                0.00003204               -0.00025703                0.03656535                0.00003036                0.00391851               -0.01293655
               4.99999990                5.99999900                1.00000031                0.01000000               -0.00007294               -0.00009288                0.03659046                0.00010782                0.00236685               -0.01450780
               5.99999873                5.99999881                1.00000024                0.01017999               -0.00009294               -0.00012617                0.03681660               -0.00015326               -0.00088977               -0.01478447
               6.99999804                5.99999735                1.00000012                0.01000000                0.00010177               -0.00040505                0.03945147               -0.00044355               -0.00625376               -0.01418946
               8.00000077                5.99999505                1.00000078                0.01000000                0.00030790               -0.00104763                0.04335955               -0.00061071               -0.01382774               -0.01267253
               9.00000420                5.99999304                1.00000012                0.01000001                0.00022386               -0.00099190                0.04744551               -0.00036111               -0.02590298               -0.01027110
              10.00000525                5.99999114                0.99999630                0.01000049                0.00010464                0.00095416                0.06323620                0.00009544               -0.04879908               -0.00826778
               0.00050168                7.00012924                1.00091310                1.00000000               -0.03422927               -0.01337082                0.09171018                0.00436340                0.00436484                0.02510743
               1.00015939                7.00006718                1.00057570                0.99752868               -0.02539696               -0.00809182                0.07640531                0.00384513               -0.01256860                0.02788011
               1.99999374                7.00003379                1.00020020                0.01000000               -0.00813399               -0.00386500                0.05922068               -0.00431529               -0.02235248                0.02160145
               2.99999671                6.99998575                0.99998486                0.01000001                0.00047488               -0.00160678                0.03469955               -0.00127914               -0.00306897               -0.02177129
               4.00000324                6.99999528                1.00000124                0.01000000                0.00020402               -0.00038433                0.03848531                0.00106051                0.00638236               -0.01753533
               5.00000079                6.99999808                1.00000030                0.01000000               -0.00029602               -0.00001339                0.03650640                0.00028773                0.00320921               -0.01910620
               5.99999732                6.99999789                1.00000021                0.01000000               -0.00037435                0.00006638                0.03779437               -0.00041463               -0.00019333               -0.01937041
               6.99999330                6.99999315                1.00000099                0.01000001               -0.00029969               -0.00031183                0.04117342               -0.00158984               -0.00602302               -0.01912637
               7.99999132                6.99998190                0.99999977                0.01000000                0.00050385               -0.00153457                0.04671091               -0.00259894               -0.01412898               -0.01722928
               9.00000338                6.99997756                1.00000325                0.01000001                0.00099272               -0.00363998                0.05241648               -0.00216950               -0.02712344               -0.01571616
              10.00001118                6.99999479                1.00000340                0.01005584                0.00078009                0.00064278                0.06991803               -0.00034571               -0.05172616               -0.01167221
               0.00057518                7.99998621                1.00098526                1.00000000               -0.03472921               -0.01758727                0.10021449                0.00167572                0.02000436                0.00347380
               1.00022789                7.99993301                1.00074845                1.00000000               -0.02843003               -0.01620521                0.08302284                0.00356419               -0.00124481                0.00149455
               2.00000658                7.99992585                1.00039595                0.01371846               -0.01078510               -0.01264081                0.06585313                0.00599343               -0.02761824               -0.00004408
               3.00001219                7.99996953                0.99995450                0.01000000                0.00012475               -0.00328425                0.08112163                0.00382712               -0.01335077               -0.02388183
               4.00000908                7.99999018                1.00000736                0.01000000               -0.00045726               -0.00056295                0.03199357                0.00203341                0.00999963               -0.02340595
               5.00000304                7.99999873                0.99999945                0.01000001               -0.00068510                0.00033533                0.03874270                0.00046125                0.00415698               -0.02482057
               5.99999538                8.00000014                1.00000069                0.01000000               -0.00104050                0.00026536                0.03999939               -0.00051216                0.00065959               -0.02536279
               6.99998223                7.99999111                0.99999980                0.01000000               -0.00154988                0.00050321                0.04500659               -0.00254227               -0.00540060               -0.02565856
               7.99996438                7.99996436                1.00001037                0.01000000               -0.00171556               -0.00167102                0.05394020               -0.00708006               -0.01704461               -0.02664598
               8.99994792                7.99992024                0.99998331                0.01000003               -0.00002543               -0.00751738                0.06538527               -0.00692026               -0.03566405               -0.00906081
               9.99996387                8.00000400                0.99995716                0.01000002                0.00159466               -0.00553696                0.08814523               -0.01856272               -0.06439538                0.02622281
               0.00064158                8.99977750                1.00108570                1.00000000               -0.03505522               -0.02849388                0.11014856                0.00174259                0.02242259               -0.00471180
               1.00029103                8.99974308                1.00081780                1.00000000               -0.02822492               -0.02515659                0.09161784                0.00469222                0.00545568               -0.01085413
               2.00007709                8.99978097                1.00051634                0.77251986               -0.01410600               -0.02274021                0.07771852                0.01232058               -0.01700319               -0.00679613
               3.00000891                8.99992007                1.00009057                0.01000001               -0.00311875               -0.01372568                0.06897298                0.00410153               -0.01815692               -0.00676078
               4.00001471                8.99998402                0.99999474                0.01000000               -0.00044278               -0.00039768                0.04105948                0.00137673                0.00178984               -0.03468408
               5.00000006                9.00000479                1.00000077                0.01000001               -0.00100099                0.00030381                0.04029404                0.00017980                0.00620202               -0.03373211
               5.99999469                9.00000320                1.00000029                0.01000001               -0.00109127                0.00025255                0.04336782               -0.00014716                0.00214477               -0.03480350
               6.99997823                9.00000321                1.00000327                0.01000001               -0.00370513                0.00100577                0.04991480               -0.00207425               -0.00617747               -0.03597983
               7.99992059                8.99994848                0.99998333                0.01000001               -0.00764496                0.00001504                0.06386368               -0.00680070               -0.00348598               -0.04198495
               8.99982533                8.99982721                1.00031029                0.99401618               -0.02240870               -0.02220962                0.10208469               -0.00623501                0.00490414                0.00631617
               9.99947241                8.99988405                1.00093289                0.99999999               -0.03529173               -0.03421477                0.13867514               -0.02622039               -0.00938068                0.05338177
               0.00067888                9.99941633                1.00128956                0.99999999               -0.03606190               -0.03611676                0.11974545                0.00508454                0.02575986               -0.01527188
               1.00031826                9.99942988                1.00101811                0.99999999               -0.03014388               -0.03131956                0.10157081                0.00545839                0.01502978               -0.01933339
               2.00007600                9.99947104                1.00083206                1.00000000               -0.02135432               -0.03099326                0.09380790                0.01314866               -0.00754156               -0.01102787
               2.99989117                9.99969502                1.00039346                0.01000001               -0.00620532               -0.02250482                0.08653434                0.01378555               -0.03265923               -0.01414277
               3.99995190                9.99998223                0.99998361                0.01000001                0.00481440               -0.00017922                0.05826077                0.00920768               -0.00997530               -0.05457460
               4.99998746               10.00000480                1.00000044                0.01000000                0.00210568                0.00000183                0.05814568               -0.00011147                0.00774854               -0.05302113
               5.99999401               10.00000519                0.99999687                0.01000000                0.00040017                0.00019884                0.06219130                0.00025289                0.00416341               -0.05471439
               6.99999547               10.00001123                1.00000338                0.01000000                0.00051772                0.00080158                0.07022189               -0.00030293               -0.00426785               -0.05772212
               8.00000436                9.99996466                0.99995686                0.01000382               -0.00539057                0.00161765                0.08820041               -0.01838124                0.02832651               -0.06679258
               8.99988765                9.99947605                1.00093051                0.99999999               -0.03392909               -0.03511606                0.13825597               -0.02601562                0.05447497               -0.00805232
               9.99932578                9.99931970                1.00191926                0.99989689               -0.05618725               -0.05643499                0.17322603               -0.03029819                0.03067189                0.02932431
               0.00060627                0.00069762                2.00182468                1.00000000               -0.02444057               -0.02428255                0.08260957                0.00166096               -0.00114039                0.00428554
               1.00036187                0.00065626                2.00165008                1.00000000               -0.02640907               -0.02447682                0.08344984                0.00160138                0.00051074               -0.00191516
               2.00007809                0.00060573                2.00147007                0.02582869               -0.01797131               -0.03221018                0.09179863               -0.00315569                0.01710885                0.00289318
               3.00000244                0.00044049                2.00166835                0.01000003                0.00588562               -0.00562569                0.07936599                0.01371803               -0.01222800               -0.00069010
               4.00019580                0.00079804                2.00095580                0.01000001                0.01621384               -0.05023049                0.09860727                0.01672305               -0.01159876                0.02895721
               5.00032672                0.00078691                2.00109537                0.01005341                0.02138947               -0.05234627                0.10850795               -0.01457152                0.05253970                0.01946049
               6.00062359                0.00048970                2.00172449                0.81773045               -0.00217669               -0.03097586                0.09891798               -0.01628785                0.04721707               -0.00322241
               7.00028318                0.00068973                2.00182044                0.99999999               -0.03411229               -0.03300602                0.09998175                0.00155038                0.01760718                0.02044841
               7.99994135                0.00079137                2.00202031                1.00000000               -0.03392990               -0.03144365                0.10555875               -0.00401701                0.01752632                0.00755002
               8.99960459                0.00086324                2.00224295                1.00000000               -0.03286321               -0.03273954                0.11231506               -0.00340187                0.00944805               -0.00319912
               9.99928408                0.00093775                2.00238477                1.00000000               -0.03205026               -0.03245404                0.10877916               -0.00322342                0.00675734                0.00630527
               0.00066424                1.00045479                2.00162072                1.00000000               -0.02404213               -0.02600760                0.08210601                0.00104381                0.00138293                0.00694255
               1.00042382                1.00041149                2.00141541                0.41341363               -0.02549140               -0.02579265                0.08866616               -0.00627051                0.00497371               -0.00180209
               2.00015442                1.00028363                2.00126934                0.01000000               -0.01901777               -0.02089210                0.09775320                0.01493543                0.01298337                0.03400353
               3.00004347                1.00038424                2.00135001                0.01000000                0.00177050               -0.01238039                0.07387594                0.01535733               -0.01195384               -0.02476831
               4.00018983                1.00029574                2.00078775                0.01000000                0.01458524               -0.03545250                0.09297316               -0.00460575               -0.00489434                0.01890196
               5.00033517                1.00026345                2.00090244                0.01000000                0.01597388               -0.03886745                0.10268486               -0.01120686                0.05929497                0.00853789
               6.00050930                1.00017994                2.00161079                0.01000000               -0.00936592               -0.02439833                0.11061428               -0.01859594                0.06413897               -0.03470513
               7.00014785                1.00035967                2.00199399                0.99999998               -0.03474396               -0.02986448                0.12573353               -0.00163735                0.01826572                0.04379263
               7.99981442                1.00047693                2.00200095                0.99999999               -0.03252392               -0.03600784                0.11534843               -0.00270629               -0.00781497                0.01002843
               8.99949738                1.00053584                2.00202216                0.99999999               -0.03185457               -0.03302539                0.11308963               -0.00422501               -0.00548805               -0.00360352
               9.99917733                1.00061321                2.00218844                0.99999999               -0.03200424               -0.03242794                0.11058299               -0.00217832                0.00109815                0.00986508
               0.00071376                2.00017747                2.00143014                0.08832872               -0.03061405               -0.01728482                0.08966949               -0.00825582                0.00584282                0.03145405
               1.00040762                2.00014040                2.00116297                0.01000000               -0.01548529               -0.01854342                0.09350772                0.01332183                0.04500873                0.01983732
               2.00040405                2.00018789                2.00170869                0.01000001               -0.00550670               -0.00515219                0.05663983                0.01445404               -0.00143012               -0.01410415
               3.00029748                2.00019289                2.00060348                0.01000000               -0.00897868               -0.01514573                0.09402976                0.00540037               -0.01884728               -0.01053920
               4.00022448                2.00008899                2.00084366                0.01000001               -0.00395548               -0.01523488                0.08450679               -0.00909374                0.03166009                0.00744889
               5.00021837                2.00000956                2.00090019                0.01000000               -0.00345141               -0.01740682                0.09211656               -0.01487363                0.01467190               -0.00168365
               6.00015545                2.00000174                2.00088773                0.01000001               -0.01324633               -0.01557333                0.11339646               -0.01963780                0.08563791               -0.03104600
               6.99995345                2.00009244                2.00259757                0.01000000               -0.02221995               -0.02533864                0.15298448               -0.01201632                0.04995316               -0.06042345
               7.99971105                2.00007121                2.00200532                0.02260485               -0.02848205               -0.03437268                0.13416118               -0.00889261               -0.05754896                0.00157895
               8.99938381                2.00020273                2.00176424                1.00000000               -0.03126381               -0.03346498                0.11296759                0.00511821               -0.02369552               -0.01157915
               9.99908577                2.00028919                2.00201898                1.00000000               -0.02980312               -0.03321858                0.10282718               -0.00076765                0.00011144                0.00830226
               0.00057325                3.00010910                2.00175829                0.01000000                0.01065804                0.00089049                0.07563765                0.00628857                0.01496992               -0.00213216
               1.00067983                3.00004062                2.00149509                0.01000000               -0.00911192                0.00121340                0.06204530                0.00586310               -0.01447043               -0.00856557
               2.00039101                3.00018059                2.00055030                0.01000000               -0.02147290               -0.00327903                0.09464219               -0.00403859               -0.00039684               -0.02849493
               3.00025038                3.00008132                2.00082594                0.01000001               -0.00998692               -0.00880318                0.07894510               -0.01462614                0.03232781                0.01289704
               4.00019128                2.99999104                2.00076373                0.01000001               -0.00627098               -0.00865304                0.08240738               -0.01287647                0.01396441               -0.00533354
               5.00012496                2.99991531                2.00080499                0.01000000               -0.00788050               -0.00801166                0.08621502               -0.01346760                0.01830978               -0.01222405
               6.00003367                2.99986848                2.00097819                0.01000001               -0.01434531               -0.00930201                0.09509067               -0.01179828               -0.00103641               -0.01250850
               6.99983805                2.99985290                2.00081222                0.01000000               -0.02536908               -0.01369657                0.11336683               -0.00870571                0.02606817               -0.08812749
               7.99952628                2.99978948                2.00184968                0.01000000               -0.02281458               -0.01172869                0.09701922               -0.00013891                0.00421153               -0.05310491
               8.99938176                2.99986654                2.00148386                0.01000000               -0.02686172               -0.01836860                0.12192510                0.00829034               -0.04289537               -0.03467225
               9.99898905                2.99994884                2.00186115                0.24611099               -0.03927080               -0.02058315                0.11091383               -0.00032639               -0.00511784               -0.01487072
               0.00097648                4.00019528                2.00102181                0.01000001               -0.05230950                0.00728433                0.10653780                0.01478270                0.03519222               -0.00913209
               1.00045339                4.00016467                2.00074738                0.01000000               -0.03469519                0.01060059                0.09583870               -0.01596900                0.03263889               -0.01337673
               2.00028258                4.00012231                2.00083819                0.01000000               -0.01294384               -0.00501309                0.08216017               -0.01717626                0.02721988                0.02167395
               3.00019451                4.00001682                2.00074630                0.01000001               -0.00748089               -0.00735103                0.08078840               -0.01609169                0.01434150               -0.00378586
               4.00013296                3.99991593                2.00075232                0.01000000               -0.00614630               -0.00746461                0.07919995               -0.01332577                0.01313726               -0.00947467
               5.00007158                3.99984933                2.00077079                0.01000002               -0.00755319               -0.00654323                0.08117895               -0.00895458                0.00728604               -0.01613691
               5.99998190                3.99981570                2.00079591                0.01006407               -0.01066269               -0.00519824                0.08530801               -0.00457167                0.00241986               -0.02426361
               6.99985833                3.99981851                2.00090007                0.01003546               -0.01436337               -0.00395979                0.08980634                0.00236607               -0.01498701               -0.01266016
               7.99969463                3.99983664                2.00080814                0.01000001               -0.02340395                0.00068080                0.10219630                0.00981637               -0.02286142               -0.05409564
               8.99939025                3.99983536                2.00102958                0.01000002               -0.03899900               -0.00170964                0.10954046                0.00622654               -0.02011222               -0.03334476
               9.99891465                3.99987753                2.00133211                0.01000000               -0.04756020               -0.00631894                0.12285020                0.00547599               -0.03507256               -0.03125153
               0.00093012                5.00025478                2.00126816                0.01000002               -0.04966983                0.01201737                0.11615879               -0.01523111                0.02497266                0.04540200
               1.00043342                5.00025263                2.00096516                0.01000000               -0.03673889                0.00799171                0.10167500               -0.01632204                0.01520817                0.04901065
               2.00019534                5.00008033                2.00084562                0.01000000               -0.01492478               -0.00737025                0.08920253               -0.02085413                0.01236342                0.00566587
               3.00013492                4.99993430                2.00076623                0.01000000               -0.00515414               -0.00868718                0.08096061               -0.01710863                0.01001722               -0.00525658
               4.00009226                4.99984175                2.00073845                0.01000002               -0.00444113               -0.00876161                0.07789165               -0.00978827                0.00872266               -0.01669838
               5.00004610                4.99978445                2.00073716                0.01002468               -0.00596031               -0.00698733                0.07819740               -0.00514109                0.00568957               -0.02162150
               5.99997305                4.99976451                2.00076995                0.01000000               -0.00908363               -0.00557460                0.08058268               -0.00051232               -0.00048154               -0.02360365
               6.99986443                4.99977370                2.00080245                0.01000000               -0.01336423               -0.00512320                0.08641324                0.00273160               -0.00887016               -0.02449092
               7.99970577                4.99980310                2.00087600                0.01000001               -0.01995154               -0.00456304                0.09234448                0.00437349               -0.02166270               -0.01325559
               8.99946540                4.99983235                2.00091885                0.01000000               -0.03457715               -0.00211830                0.10164864                0.00577678               -0.02830678               -0.01629679
               9.99901422                4.99982246                2.00122430                0.01000001               -0.04511744               -0.00219121                0.11312032                0.00486112               -0.03431074               -0.01367572
               0.00067616                6.00043562                2.00174785                0.99878512               -0.03747600               -0.00574782                0.10507878               -0.01951263               -0.00298302                0.03728748
               1.00030140                6.00032451                2.00149499                0.01000002               -0.02461682               -0.01111478                0.11414490               -0.02162994               -0.01774752                0.03486891
               2.00018383                5.99997491                2.00092133                0.01000001               -0.01052424               -0.00445122                0.09790330               -0.02664873               -0.01350041                0.00964453
               3.00009092                5.99984308                2.00081177                0.01000001               -0.00483875               -0.01576185                0.08202892               -0.01157773                0.00508983               -0.02110755
               4.00008705                5.99974070                2.00073131                0.01006708               -0.00224600               -0.01004599                0.07753914               -0.00567725                0.00650289               -0.02301687
               5.00004600                5.99970958                2.00073181                0.01000000               -0.00523287               -0.00828554                0.07661525               -0.00086891                0.00520611               -0.02788449
               5.99998239                5.99970420                2.00073633                0.01000001               -0.00858092               -0.00761888                0.08031247                0.00144263                0.00011820               -0.02913400
               6.99987438                5.99971605                2.00078903                0.01000001               -0.01294705               -0.00779540                0.08667743                0.00283588               -0.00647105               -0.02621626
               7.99972345                5.99974538                2.00086719                0.01000001               -0.01939794               -0.00786330                0.09474535                0.00431739               -0.01861468               -0.02146262
               8.99948642                5.99979299                2.00094891                0.01000001               -0.03459032               -0.00649318                0.10464447                0.00384168               -0.02467019               -0.01375909
               9.99903165                5.99983371                2.00126472                0.01000005               -0.04547742               -0.00083807                0.11721754                0.00161857               -0.03283730               -0.00807704
               0.00076210                7.00013983                2.00183420                0.99999999               -0.03005631               -0.02693703                0.09664185               -0.00107157               -0.00473275                0.01316203
               1.00046154                7.00003034                2.00152811                1.00000000               -0.03091541               -0.02683584                0.09774035                0.00572447               -0.00514459                0.00175596
               2.00014379                6.99999130                2.00118441                0.01000000               -0.01619801               -0.01459681                0.09673440               -0.01767577               -0.02068222                0.00456087
               3.00013758                6.99961906                2.00069399                0.01000000               -0.00157914               -0.02132129                0.09343858               -0.01599108               -0.00322591                0.00791110
               4.00011221                6.99964083                2.00076971                0.01000002               -0.00361795               -0.01011602                0.07648429                0.00338304                0.01531093               -0.03925940
               5.00006522                6.99961874                2.00073013                0.01000000               -0.00583860               -0.01032320                0.07847007                0.00075589                0.00661447               -0.03461500
               5.99999544                6.99961213                2.00075589                0.01000001               -0.00926235               -0.01057741                0.08271862                0.00147548                0.00339651               -0.03457787
               6.99987997                6.99961779                2.00082347                0.01000000               -0.01401342               -0.01157470                0.09063085                0.00208150               -0.00377697               -0.03168508
               7.99971517                6.99964583                2.00093422                0.01000002               -0.02130343               -0.01309277                0.10217213                0.00184198               -0.01644945               -0.02440628
               8.99945390                6.99970249                2.00104833                0.01000000               -0.03750030               -0.01406279                0.11669458                0.00066898               -0.02454377               -0.01288894
               9.99896516                6.99980570                2.00139836                0.01000003               -0.04887392               -0.01193708                0.13187212               -0.00304119               -0.03422198                0.00016474
               0.00087371                7.99989688                2.00200429                1.00000000               -0.03092958               -0.02691794                0.10309451                0.00019743               -0.00262040                0.01034749
               1.00056442                7.99978779                2.00166046                0.99999999               -0.03160645               -0.02585394                0.09596601                0.00015088               -0.00107970                0.00029642
               2.00024158                7.99968297                2.00131706                0.35754433               -0.02214222               -0.02816689                0.09438029               -0.00638799                0.02781424               -0.00552300
               3.00012157                7.99941665                2.00162243                0.01000000               -0.00432705               -0.00966171                0.05444090               -0.00618535               -0.00786266               -0.01071668
               4.00015504                7.99953838                2.00063987                0.01000001               -0.00158815               -0.01553797                0.08653976                0.00499259               -0.02231556               -0.04208243
               5.00008981                7.99950312                2.00077485                0.01000001               -0.00710990               -0.01471801                0.08077237                0.00037731                0.01792977               -0.04383165
               6.00001284                7.99949265                2.00079999                0.01000001               -0.01037471               -0.01521880                0.08764113                0.00131965                0.00663453               -0.04347601
               6.99988231                7.99948455                2.00090013                0.01000002               -0.01686211               -0.01704845                0.09877769                0.00021549                0.00083576               -0.04090063
               7.99967560                7.99948352                2.00107880                0.01000000               -0.02711929               -0.02160075                0.11771526               -0.00323647               -0.01128459               -0.03233465
               8.99933993                7.99951174                2.00130771                0.01000007               -0.04556047               -0.02616802                0.14279154               -0.00969698               -0.02070186                0.00387890
               9.99876439                7.99959496                2.00176290                0.01000002               -0.05755366               -0.03500834                0.16744177               -0.01157582               -0.03344535                0.02738539
               0.00098424                8.99960147                2.00220297                1.00000000               -0.03057697               -0.03050228                0.10989954                0.00039804                0.00009603                0.00602405
               1.00067847                8.99951326                2.00183236                0.99999999               -0.02985341               -0.02875352                0.10216402                0.00100858                0.00597468               -0.00187399
               2.00038717                8.99942797                2.00155437                1.00000000               -0.02600025               -0.02674846                0.09719311                0.00724059                0.01157856               -0.00316541
               3.00015846                8.99942583                2.00137946                0.01000000               -0.01307858               -0.01526402                0.09734223               -0.00121023               -0.01144464               -0.04213567
               4.00012560                8.99933007                2.00082119                0.01000002               -0.00199875               -0.03038076                0.08924908               -0.00314919               -0.00705874               -0.03141576
               5.00011849                8.99932437                2.00080588                0.01000000               -0.00426013               -0.02814364                0.08875269                0.00147999                0.01599826               -0.04249999
               6.00004039                8.99930776                2.00086736                0.01000001               -0.01125372               -0.02900433                0.09640428                0.00099661                0.01209657               -0.04137150
               6.99989341                8.99927683                2.00099830                0.01003068               -0.02085690               -0.03196061                0.11135515               -0.00108024                0.00721779               -0.04063532
               7.99962326                8.99921381                2.00127727                0.01000001               -0.03724464               -0.03832104                0.13981489               -0.00669497                0.01646869               -0.03293071
               8.99914852                8.99917912                2.00204169                1.00000000               -0.05280349               -0.04566028                0.18019415               -0.01605574                0.00647686                0.00763417
               9.99856719                8.99910553                2.00277350                1.00000000               -0.05813332               -0.04906049                0.17877993               -0.01378217               -0.00413834                0.01395119
               0.00105809                9.99928684                2.00239491                1.00000000               -0.03000027               -0.03146304                0.10888363               -0.00002621                0.00655578                0.00748816
               1.00075809                9.99921272                2.00203142                0.99999999               -0.02921360               -0.03005387                0.10134969                0.00102055                0.01857988                0.00023805
               2.00047382                9.99914800                2.00187616                1.00000000               -0.02814134               -0.02799634                0.09530297                0.00359797                0.02619632                0.00372021
               3.00019526                9.99911137                2.00173069                0.01000000               -0.01401540               -0.03144580                0.09947178               -0.00718176                0.00322912               -0.00996469
               4.00019351                9.99893076                2.00116522                0.01000000               -0.00267729               -0.03993050                0.10581472               -0.00176478                0.00161662               -0.03802421
               5.00014172                9.99894024                2.00116291                0.01000000               -0.00565943               -0.03841308                0.10415714                0.00141336                0.02147429               -0.04091738
               6.00008033                9.99891257                2.00124383                0.01000005               -0.00935322               -0.03951899                0.11324269               -0.00075215                0.01731957               -0.04133891
               6.99995465                9.99884534                2.00140444                0.01007217               -0.02204611               -0.04314855                0.12954144               -0.00364923                0.01444854               -0.04206741
               7.99963940                9.99871710                2.00176401                0.01000000               -0.04137798               -0.04967122                0.16555965               -0.01072590                0.03020693               -0.03594414
               8.99912709                9.99859853                2.00276512                1.00000000               -0.05017359               -0.05805952                0.17823401               -0.00730991                0.01534696               -0.00192608
               9.99863593                9.99861376                2.00346452                0.99999999               -0.04911632               -0.04917784                0.15848034                0.00839698                0.00318633                0.00097951
               0.00075099                0.00094225                3.00262900                1.00000000               -0.02482220               -0.02504511                0.08036406                0.00066066               -0.00270009                0.00456285
               1.00050277                0.00084442                3.00246508                0.99999999               -0.02458428               -0.02469542                0.08125213                0.00010799               -0.00251694               -0.00233955
               2.00025930                0.00074147                3.00230093                0.01001048               -0.01317393               -0.02388846                0.08211918               -0.00055578               -0.02920989               -0.00516250
               3.00023929                0.00064127                3.00156414                0.01000000                0.00466183               -0.00557124                0.05238578                0.01100180                0.00334240                0.02047154
               4.00035254                0.00090930                3.00197366                0.01000001                0.00574584               -0.04284161                0.09378535                0.00827265                0.03577489               -0.00706666
               5.00035421                0.00079102                3.00215664                0.01000001                0.00398456               -0.04226009                0.10053623               -0.02276752                0.01697766               -0.01242321
               6.00043223                0.00041264                3.00227656                0.55218350               -0.00605278               -0.02283417                0.10560800               -0.02794364                0.03276309               -0.00346366
               7.00023315                0.00060020                3.00285004                1.00000000               -0.02561286               -0.03473345                0.11422923                0.00187789                0.04127189                0.00852703
               7.99991997                0.00081658                3.00316081                1.00000000               -0.03269654               -0.03454712                0.11364959                0.00421285                0.02160690                0.00037656
               8.99957922                0.00102105                3.00334406                1.00000000               -0.03409080               -0.03376217                0.11233737                0.00192472                0.01289400               -0.00128798
               9.99923816                0.00119474                3.00348000                1.00000000               -0.03410607               -0.03333922                0.11167417               -0.00027763                0.00920611                0.00508259
               0.00085543                1.00069180                3.00244814                1.00000000               -0.02511920               -0.02509767                0.08269840                0.00061403                0.00009505                0.00522977
               1.00060423                1.00059746                3.00226494                0.01000000               -0.02500524               -0.02488685                0.08496930                0.00035441                0.00099249               -0.00441189
               2.00035532                1.00050259                3.00211057                0.01000000               -0.01694194               -0.01362984                0.08603220                0.01473518               -0.02166240               -0.04275879
               3.00026540                1.00058555                3.00146662                0.01000000                0.00025351               -0.01599968                0.06384975                0.01211469                0.00758297                0.02488707
               4.00036039                1.00048088                3.00186103                0.01000000                0.00547302               -0.03680017                0.10000325               -0.01132997                0.03843025               -0.00337824
               5.00037486                1.00036842                3.00204612                0.01000000               -0.00560939               -0.03645957                0.10623082               -0.01998788                0.02433660               -0.01237642
               6.00024820                1.00018430                3.00229677                0.01000001               -0.01624469               -0.01953386                0.11058817               -0.02681402                0.03514758               -0.00886748
               7.00004996                1.00025287                3.00296058                0.99999999               -0.02482636               -0.03059952                0.10206084               -0.00268915                0.03077706                0.00996717
               7.99975168                1.00047111                3.00310522                0.99999999               -0.03202888               -0.03214175                0.10866239                0.00636842                0.00112881               -0.00052889
               8.99940938                1.00068343                3.00316872                0.99999998               -0.03449915               -0.03380601                0.11381931                0.00240508               -0.00126587               -0.00397307
               9.99906169                1.00086135                3.00327863                0.99992058               -0.03476909               -0.03335537                0.11108054               -0.00021437               -0.00003977                0.00526497
               0.00095194                2.00044029                3.00228088                0.01000001               -0.02528737               -0.01774929                0.08474272               -0.00971413               -0.00131029               -0.02401818
               1.00069906                2.00034668                3.00202784                0.01000000               -0.01930102               -0.01636292                0.08801090                0.01805171               -0.03271987               -0.03392628
               2.00056592                2.00046888                3.00110411                0.01000001               -0.00978857               -0.00930176                0.04153430                0.01449078                0.00849295                0.00071042
               3.00050329                2.00032127                3.00188813                0.01000000               -0.01114186               -0.02318103                0.10025473               -0.00604295                0.03809762                0.00985127
               4.00034308                2.00017329                3.00168888                0.01000000               -0.01261334               -0.02474271                0.09218557               -0.01584309                0.00682219               -0.00592742
               5.00025103                2.00006183                3.00184551                0.01000000               -0.01657888               -0.02412047                0.09981014               -0.01876503                0.02904157               -0.01468726
               6.00001150                2.00002197                3.00225635                0.01000000               -0.01792309               -0.01700701                0.11599151               -0.01760820                0.05365805               -0.02096492
               6.99989256                1.99998821                3.00311079                0.01000000               -0.01973623               -0.01571247                0.06840519               -0.01308966                0.02645502               -0.03927367
               7.99961678                2.00017374                3.00305240                0.01000001               -0.03277425               -0.01609185                0.10309761               -0.00098700               -0.02421674               -0.05181888
               8.99923708                2.00034493                3.00295295                0.99999999               -0.03693711               -0.03424386                0.11555431               -0.00215776               -0.01427062               -0.00942550
               9.99887804                2.00052763                3.00309749                0.99999997               -0.03590431               -0.03279318                0.10974907               -0.00009105               -0.00404898                0.00661568
               0.00084837                3.00033681                3.00148946                0.01000001                0.00883145               -0.00565417                0.05883810                0.00806762                0.01799016                0.01001119
               1.00093669                3.00027021                3.00122992                0.01000000               -0.00889134               -0.00357223                0.05875790                0.00535971                0.03746826                0.00959493
               2.00067054                3.00031655                3.00190054                0.01000000               -0.02482826               -0.01615037                0.10052992               -0.00839236                0.03413201                0.02784965
               3.00044012                3.00012193                3.00157758                0.01000000               -0.01837837               -0.01669144                0.08661641               -0.02299773                0.00283917               -0.01239427
               4.00030298                2.99998603                3.00164896                0.01000000               -0.01446201               -0.01681366                0.09015559               -0.01699206                0.01553476               -0.00767162
               5.00015088                2.99988601                3.00172381                0.01000001               -0.01666608               -0.01580186                0.09407572               -0.01455770                0.01395821               -0.01449056
               5.99996966                2.99984416                3.00190362                0.01000003               -0.02572438               -0.01487841                0.09930120               -0.00211687                0.02014182               -0.02950995
               6.99963639                2.99993862                3.00227243                0.01012668               -0.02972210               -0.01132601                0.11926516                0.00474738               -0.01212791               -0.06333184
               7.99937521                3.00014927                3.00188076                0.01000001               -0.03120274               -0.01365667                0.07451430               -0.00762512                0.00415004               -0.03691937
               8.99901234                2.99999855                3.00266534                0.01000001               -0.03403716               -0.02214386                0.11478900               -0.00654679                0.02250562               -0.02292715
               9.99869447                3.00020549                3.00292944                0.13373698               -0.03178681               -0.03030458                0.10704072                0.00915990               -0.00014046               -0.00865426
               0.00124650                4.00032721                3.00213510                0.01000000               -0.04199869               -0.00271520                0.09547185                0.00968838               -0.00150978                0.04631251
               1.00082651                4.00027524                3.00191928                0.01000000               -0.03500804               -0.00087790                0.10096081               -0.01894642                0.00458130                0.04329104
               2.00054634                4.00014587                3.00164093                0.01000000               -0.02263246               -0.01406122                0.08981693               -0.02573588                0.00744183               -0.00586156
               3.00037387                3.99998744                3.00161693                0.01000000               -0.01535877               -0.01460828                0.08817367               -0.02203462                0.01280801               -0.00365563
               4.00023917                3.99983702                3.00158387                0.01008513               -0.01360656               -0.01492817                0.08620287               -0.01705770                0.01003284               -0.01283225
               5.00010173                3.99974579                3.00162386                0.01000000               -0.01613051               -0.01397605                0.08850844               -0.00908200                0.00851332               -0.01758322
               5.99991656                3.99972440                3.00170654                0.01000000               -0.02096652               -0.01281227                0.09437765               -0.00149727                0.00304614               -0.02313317
               6.99968240                3.99976169                3.00179442                0.01000001               -0.02561090               -0.01580741                0.09809892                0.01273882                0.00286624               -0.03157766
               7.99940434                3.99990061                3.00205595                0.01000001               -0.03162387               -0.02352887                0.11296516                0.01073651               -0.00473786               -0.00291083
               8.99904993                3.99990205                3.00217275                0.01000001               -0.03784835               -0.01232102                0.11294975                0.00504208               -0.00882779               -0.02499004
               9.99864737                3.99992154                3.00242644                0.01000000               -0.04025565               -0.02179511                0.10743882                0.00264228                0.00439429               -0.02623709
               0.00114609                5.00028251                3.00229233                0.01000000               -0.04069900                0.00530589                0.10490922               -0.02481805               -0.00752071                0.02978942
               1.00073910                5.00025265                3.00201347                0.01000000               -0.03512351               -0.00229764                0.10603770               -0.02732916               -0.00202521                0.02683707
               2.00044362                5.00003533                3.00179353                0.01000000               -0.02154103               -0.01443152                0.09474203               -0.02722756                0.00229087                0.00658493
               3.00030828                4.99982977                3.00161677                0.01000001               -0.01200698               -0.01678435                0.08763912               -0.02153275                0.00582283               -0.01008132
               4.00020348                4.99968746                3.00155850                0.01000000               -0.01132086               -0.01653728                0.08496419               -0.01261174                0.00871448               -0.01695288
               5.00008186                4.99960649                3.00156398                0.01000000               -0.01398351               -0.01487259                0.08609731               -0.00511401                0.00677140               -0.02127304
               5.99992381                4.99958792                3.00161175                0.01000001               -0.01834511               -0.01471047                0.09024871                0.00216529                0.00425509               -0.02133345
               6.99971496                4.99962247                3.00172909                0.01012779               -0.02371156               -0.01548433                0.09652165                0.00730669               -0.00087623               -0.01704321
               7.99944958                4.99967869                3.00184549                0.01000001               -0.03113558               -0.01965167                0.10339819                0.00969621               -0.00565064               -0.01802140
               8.99909225                4.99975213                3.00203463                0.01000001               -0.03706177               -0.01568372                0.11192699                0.00771143               -0.00565336               -0.01033906
               9.99870834                4.99976958                3.00226487                0.01000000               -0.03839050               -0.01329993                0.10393087                0.00522018                0.00107085               -0.00869163
               0.00080986                6.00043333                3.00272452                0.99023132               -0.02827518               -0.00732303                0.09966600               -0.02674817               -0.00559594                0.02603865
               1.00052711                6.00022928                3.00250408                0.01000000               -0.01925962               -0.01579092                0.09926457               -0.03044529               -0.02042408                0.01386268
               2.00042467                5.99985724                3.00191329                0.01000000               -0.01180157               -0.01530284                0.09783974               -0.03034677               -0.01934414                0.00315726
               3.00029108                5.99965176                3.00164957                0.01000003               -0.01072278               -0.02482267                0.08888426               -0.01561748                0.00269520               -0.00746725
               4.00021021                5.99950627                3.00154968                0.01000000               -0.00960393               -0.01929677                0.08540172               -0.00667912                0.00771502               -0.02348031
               5.00009900                5.99944834                3.00153262                0.01000001               -0.01331671               -0.01718752                0.08586503               -0.00055260                0.00919046               -0.02446159
               5.99994388                5.99943019                3.00160649                0.01000000               -0.01806182               -0.01726196                0.09177575                0.00258815                0.00761693               -0.02319589
               6.99973776                5.99945200                3.00173367                0.01000001               -0.02376415               -0.01870630                0.09848550                0.00509278                0.00308324               -0.01990565
               7.99946860                5.99950758                3.00189569                0.01000001               -0.03122494               -0.01982641                0.10679248                0.00621360               -0.00222581               -0.01192385
               8.99911326                5.99958838                3.00209301                0.01000000               -0.03758609               -0.01955743                0.11590448                0.00520388               -0.00386560               -0.00362993
               9.99871687                5.99965554                3.00234065                0.01000000               -0.03963903               -0.01348393                0.10827009                0.00263287                0.00252670                0.00251232
               0.00101922                7.00013605                3.00284594                1.00000000               -0.03129340               -0.03044689                0.10327906                0.00010724               -0.00398938                0.01356297
               1.00070628                6.99993683                3.00253051                1.00000000               -0.03025039               -0.02972962                0.09995101               -0.00201791               -0.00831959               -0.00404713
               2.00041421                6.99972927                3.00213488                0.01000001               -0.01796944               -0.02059051                0.09391884               -0.02136452               -0.00516948               -0.00713487
               3.00034689                6.99933331                3.00185363                0.01013368               -0.00704459               -0.02910124                0.09585043               -0.00933480               -0.00648136               -0.04915173
               4.00027332                6.99930153                3.00153092                0.01000001               -0.01000004               -0.02046121                0.08402687                0.00647766                0.00309274               -0.02129446
               5.00014689                6.99926273                3.00156970                0.01013382               -0.01507060               -0.02009968                0.08751578                0.00218377                0.01511655               -0.02880847
               5.99997191                6.99924268                3.00165458                0.01000001               -0.02037326               -0.02055214                0.09398400                0.00222585                0.01120813               -0.02654901
               6.99973943                6.99924834                3.00181361                0.01000000               -0.02672170               -0.02268663                0.10464283                0.00109284                0.00746300               -0.02212684
               7.99943747                6.99928216                3.00204322                0.01000001               -0.03455353               -0.02664832                0.11673402               -0.00124197                0.00342381               -0.01071715
               8.99904836                6.99936098                3.00233714                0.01000001               -0.04053984               -0.02919620                0.12940094               -0.00228688                0.00044654                0.00516437
               9.99862668                6.99949990                3.00264085                0.01004830               -0.04216828               -0.02394905                0.12381886               -0.00272346                0.00544119                0.02064617
               0.00121044                7.99982439                3.00304715                1.00000000               -0.03169168               -0.03143429                0.10599454               -0.00069422               -0.00157567                0.01540447
               1.00089353                7.99963469                3.00266777                1.00000000               -0.03047747               -0.03010955                0.10066856               -0.00130596               -0.00186830                0.00124140
               2.00060089                7.99944543                3.00228356                0.01000001               -0.01806986               -0.02853510                0.09555405               -0.01088070               -0.04309307               -0.00797751
               3.00053213                7.99906973                3.00104332                0.01000001               -0.00952733               -0.01821065                0.04691529               -0.00910369                0.00609787               -0.01594445
               4.00041035                7.99909705                3.00173816                0.01000001               -0.01653020               -0.02355829                0.09281440                0.00752036                0.04767362               -0.02716814
               5.00020152                7.99904634                3.00161490                0.01000001               -0.02037783               -0.02480040                0.09072384                0.00245292                0.01384513               -0.03053619
               6.00000279                7.99901915                3.00175352                0.01000001               -0.02406950               -0.02553738                0.09918230                0.00121143                0.01822914               -0.02814315
               6.99972013                7.99899827                3.00197536                0.01000001               -0.03358379               -0.02810721                0.11337320               -0.00356481                0.01595870               -0.02250307
               7.99933111                7.99897461                3.00236467                0.01000001               -0.04351739               -0.03387500                0.13358639               -0.01123605                0.01285570               -0.00954605
               8.99884979                7.99900446                3.00283914                0.01000000               -0.04732743               -0.04192521                0.15182202               -0.01938827                0.00799307                0.03220866
               9.99838456                7.99917656                3.00330599                0.01000001               -0.04652211               -0.05192229                0.15084364               -0.01782172                0.01419349                0.05556614
               0.00138473                8.99950736                3.00328369                1.00000000               -0.03256073               -0.03210860                0.10893127               -0.00094538                0.00176480                0.01287624
               1.00105913                8.99933464                3.00286108                0.99999997               -0.03115897               -0.02990839                0.10198033               -0.00168527                0.00223931                0.00214112
               2.00076155                8.99915857                3.00246020                1.00000000               -0.02729630               -0.02717791                0.09029710               -0.00328850                0.00221716               -0.00290083
               3.00051320                8.99896910                3.00203742                0.01000005               -0.01572197               -0.01382299                0.07005940               -0.00968190                0.00774356                0.02763246
               4.00044712                8.99883036                3.00177972                0.01000001               -0.01196726               -0.02816787                0.09235731               -0.00303594                0.01887951               -0.02505357
               5.00027386                8.99876673                3.00177582                0.01000001               -0.02014538               -0.02869757                0.09742542                0.00191916                0.02462826               -0.02213688
               6.00004421                8.99873193                3.00192838                0.01000000               -0.02805926               -0.02968387                0.10720715                0.00077789                0.02434377               -0.02107497
               6.99971267                8.99868620                3.00223037                0.01000001               -0.04188213               -0.03203380                0.12432031               -0.00415728                0.02599495               -0.01675552
               7.99920656                8.99860466                3.00277963                0.01000001               -0.06270149               -0.03511513                0.14968935               -0.01235049                0.04610244               -0.00550668
               8.99845864                8.99852248                3.00391418                0.99999999               -0.06402674               -0.05068896                0.18575687               -0.02494548                0.02469215                0.02461258
               9.99792603                8.99846146                3.00450849                1.00000000               -0.05326102               -0.06096531                0.17353457               -0.02579507               -0.00023683                0.03016819
               0.00153698                9.99918222                3.00346723                0.99999999               -0.03283712               -0.03251418                0.10846146                0.00065511                0.01017592                0.00949822
               1.00120861                9.99903652                3.00304510                1.00000000               -0.03181612               -0.02981146                0.10089805                0.00093091                0.01498413                0.00174113
               2.00090066                9.99890187                3.00273812                1.00000000               -0.02709551               -0.02566999                0.08658632                0.00174790                0.01815446                0.00268116
               3.00066670                9.99879327                3.00238289                0.01000001               -0.01743283               -0.01758289                0.06842764               -0.00305903                0.02083903               -0.00053299
               4.00055200                9.99853369                3.00209991                0.01000000               -0.01641808               -0.02966688                0.08764982               -0.00555538                0.02145023               -0.00250827
               5.00033834                9.99847239                3.00208358                0.01000000               -0.02265626               -0.02943356                0.09107750                0.00103713                0.02861678               -0.00792845
               6.00009888                9.99842547                3.00226172                0.01000000               -0.02870416               -0.03064609                0.10088104               -0.00027295                0.02828382               -0.00637556
               6.99976425                9.99835759                3.00259421                0.01000002               -0.04255278               -0.03286034                0.11897977               -0.00249965                0.03372608               -0.00356000
               7.99924782                9.99827231                3.00326805                0.01000002               -0.06350866               -0.03323570                0.14809717               -0.01422020                0.05926564                0.01002931
               8.99849408                9.99799068                3.00449519                1.00000000               -0.06285572               -0.05318029                0.17307006               -0.01220840                0.03294887                0.00199032
               9.99799071                9.99795726                3.00508887                1.00000000               -0.05033749               -0.05042029                0.16250552                0.00312552                0.00073840               -0.00147809
               0.00088011                0.00115060                4.00343196                1.00000000               -0.02405087               -0.02430849                0.07988924                0.00115973               -0.00358402                0.00349714
               1.00063960                0.00100976                4.00327512                0.99999999               -0.02426339               -0.02492655                0.08115116                0.00079596               -0.00351165               -0.00130666
               2.00039484                0.00088322                4.00311246                0.01000001               -0.01215174               -0.02579423                0.08211539                0.01422457               -0.01562357               -0.00118451
               3.00039656                0.00104496                4.00271607                0.01001088               -0.00380156               -0.04869666                0.10778148                0.00474785               -0.00278900                0.00667043
               4.00031881                0.00088197                4.00283151                0.01000003               -0.00165972               -0.03690235                0.09087667               -0.00826086                0.02088634               -0.00775345
               5.00036337                0.00075948                4.00310610                0.01000001                0.01333205               -0.04324329                0.10295712               -0.02281916                0.04870077               -0.01336319
               6.00058545                0.00038001                4.00383665                0.64359907               -0.00694982               -0.03572029                0.11844977               -0.03478016                0.04936232               -0.00349088
               7.00022437                0.00063919                4.00410503                1.00000000               -0.03529884               -0.03409196                0.11832548               -0.00043855                0.01862716                0.00015752
               7.99987947                0.00091008                4.00429330                0.99999999               -0.03405473               -0.03353186                0.11487172                0.00238653                0.01397534                0.00103473
               8.99954328                0.00118814                4.00448970                1.00000000               -0.03415781               -0.03406567                0.11495201                0.00214082                0.01088485               -0.00010806
               9.99919631                0.00144215                4.00461825                0.99997549               -0.03469620               -0.03411272                0.11533757                0.00144219                0.00713170                0.00505767
               0.00103255                1.00090752                4.00327469                1.00000000               -0.02512996               -0.02474072                0.08269366                0.00097304                0.00072842                0.00423701
               1.00078125                1.00076049                4.00311479                0.01000000               -0.02565315               -0.02564311                0.08501433                0.00040738                0.00243736               -0.00302663
               2.00051948                1.00062528                4.00298998                0.01000000               -0.01682912               -0.02355480                0.08755129                0.00581446               -0.00820241               -0.01837871
               3.00044466                1.00055799                4.00262701                0.01000000               -0.00702731               -0.03830032                0.11015922               -0.00171129                0.00432217               -0.00495827
               4.00037894                1.00051295                4.00278782                0.01000000               -0.00292529               -0.03497304                0.09529038               -0.00731040                0.02427480               -0.00820837
               5.00038616                1.00032705                4.00302706                0.01000000               -0.00405732               -0.03606783                0.10426556               -0.03108880                0.04936023               -0.01492577
               6.00029779                1.00002280                4.00382255                0.01000000               -0.02156057               -0.02022096                0.11368035               -0.03254452                0.04207857               -0.03572712
               6.99995495                1.00029827                4.00403521                1.00000000               -0.03344653               -0.03220330                0.10679995                0.00070438                0.00607100                0.00060501
               7.99962886                1.00057477                4.00417420                1.00000000               -0.03281481               -0.03253959                0.10842519                0.00271482                0.00033750                0.00181415
               8.99929865                1.00084749                4.00429855                0.99999996               -0.03360658               -0.03352714                0.11227227                0.00181449               -0.00049571               -0.00189832
               9.99895673                1.00110102                4.00441005                0.99999996               -0.03419229               -0.03357301                0.11342398                0.00132394               -0.00064145                0.00510499
               0.00119361                2.00065579                4.00312499                0.01342286               -0.02636318               -0.02262099                0.08516837                0.00508985                0.00191235                0.00255344
               1.00092998                2.00049690                4.00292319                0.01000000               -0.02399934               -0.02097061                0.08902171               -0.00033977               -0.00759675               -0.00813876
               2.00071363                2.00041212                4.00253938                0.01000001               -0.02276587               -0.02122554                0.12454117               -0.00057164               -0.00014385               -0.02107273
               3.00047466                2.00027895                4.00260857                0.01000000               -0.01550424               -0.02266777                0.08359040               -0.00577673                0.01384603               -0.00513865
               4.00040354                2.00018251                4.00268737                0.01000000               -0.01214645               -0.02851646                0.09828100               -0.01320098                0.01861920               -0.01265474
               5.00023174                2.00003812                4.00289639                0.01000000               -0.02201050               -0.02399504                0.10262765               -0.02218120                0.02385482               -0.01951064
               5.99996333                1.99997559                4.00320756                0.01000003               -0.02726193               -0.00973549                0.10236733               -0.02264507                0.04717217               -0.04470747
               6.99968650                1.99999513                4.00396567                0.01004350               -0.02893905               -0.01978214                0.09326198               -0.00264462                0.02288765               -0.03702905
               7.99938455                2.00025929                4.00406727                0.01000000               -0.03165951               -0.02636105                0.10224038                0.00549930               -0.01641115               -0.02983276
               8.99905331                2.00051760                4.00407532                0.99999999               -0.03344171               -0.03296437                0.11049417               -0.00020305               -0.01155934               -0.00662683
               9.99871572                2.00077069                4.00421396                0.99999999               -0.03375899               -0.03271127                0.11126348                0.00037454               -0.00354890                0.00503996
               0.00145213                3.00045510                4.00293506                0.01000001               -0.04340120               -0.01685635                0.10505995               -0.00218639                0.00555776                0.00280614
               1.00101811                3.00034108                4.00267024                0.01000000               -0.03630657               -0.01249758                0.11542110               -0.00725630               -0.00351636                0.00093264
               2.00072599                3.00020077                4.00256090                0.01000000               -0.02296856               -0.01500173                0.08174024               -0.01081506                0.00660246                0.00131665
               3.00055874                3.00010464                4.00255827                0.01000000               -0.01851243               -0.01872132                0.09495490               -0.01125423                0.01058945               -0.00862852
               4.00035575                2.99994262                4.00256684                0.01000001               -0.02046421               -0.02163837                0.09365510               -0.01671732                0.01186696               -0.01528255
               5.00014946                2.99984715                4.00268651                0.01000000               -0.02339292               -0.01903167                0.09781846               -0.01135376                0.01941447               -0.02202804
               5.99988789                2.99982809                4.00296421                0.01000000               -0.02655538               -0.01653426                0.10238980               -0.00177942                0.01850384               -0.02796794
               6.99961835                2.99990263                4.00319752                0.01000003               -0.03357586               -0.01324184                0.09861687                0.00495970                0.01007974               -0.05587328
               7.99921637                3.00004754                4.00333996                0.01000000               -0.04175799               -0.02227994                0.13215177                0.00612802                0.01195738               -0.05017671
               8.99878319                3.00018820                4.00377964                0.01000000               -0.03791665               -0.02756673                0.10936237                0.00945738                0.01000733               -0.01866661
               9.99845804                3.00044680                4.00400197                0.15506420               -0.03251538               -0.03766652                0.10743235                0.01483133               -0.00096043               -0.01128336
               0.00137792                4.00031866                4.00293125                0.01000001               -0.03387339               -0.00969706                0.08837519               -0.01290740               -0.00203786                0.02298673
               1.00103919                4.00024694                4.00276660                0.01000000               -0.03220747               -0.00682529                0.09108733               -0.01664888                0.00225545                0.02122678
               2.00073377                4.00011209                4.00263453                0.01000000               -0.02657289               -0.01305522                0.09590862               -0.02152761                0.00380461                0.00392515
               3.00050773                3.99990453                4.00250977                0.01000001               -0.02035420               -0.02023021                0.09116618               -0.02173376                0.00571049               -0.01040449
               4.00032669                3.99974974                4.00247637                0.01000000               -0.01942709               -0.02028700                0.09182472               -0.01417248                0.01017157               -0.01572732
               5.00011919                3.99965749                4.00254096                0.01000000               -0.02272121               -0.01984596                0.09456012               -0.00630102                0.01267379               -0.02008436
               5.99987226                3.99964490                4.00268346                0.01000000               -0.02764722               -0.01951014                0.09971573                0.00389760                0.01224546               -0.02626205
               6.99956624                3.99973029                4.00286205                0.01000001               -0.03253602               -0.02045224                0.10690721                0.00818016                0.00939974               -0.02653227
               7.99922154                3.99981369                4.00306744                0.01000002               -0.03615205               -0.02223091                0.10600045                0.01534121                0.00591807               -0.02104309
               8.99884320                3.99996627                4.00328858                0.01000001               -0.03631986               -0.02414443                0.11112716                0.01767136                0.00404037               -0.02206681
               9.99849514                4.00001736                4.00348089                0.01000001               -0.03480562               -0.03561894                0.10572645                0.01096568                0.00761027               -0.02517104
               0.00133741                5.00026116                4.00336634                0.01000000               -0.04457034                0.00420611                0.11457381               -0.02429849               -0.01912392                0.04220867
               1.00089171                5.00020457                4.00308592                0.01000000               -0.03497744               -0.00811105                0.10706211               -0.03282651               -0.01526541                0.03175879
               2.00063786                4.99993966                4.00274046                0.01000000               -0.02026467               -0.02076931                0.09370234               -0.02934286               -0.00776957                0.00110438
               3.00048641                4.99970003                4.00251901                0.01000000               -0.01592645               -0.02238275                0.09187875               -0.02010393                0.00262675               -0.00975314
               4.00031933                4.99953688                4.00243773                0.01000000               -0.01790666               -0.02255374                0.09080623               -0.01090925                0.00941161               -0.01690586
               5.00012828                4.99945023                4.00245910                0.01000000               -0.02131453               -0.02214287                0.09324618               -0.00225863                0.01265287               -0.01957408
               5.99989304                4.99943789                4.00257492                0.01000001               -0.02575582               -0.02237220                0.09849161                0.00523866                0.01252032               -0.01909282
               6.99961316                4.99949358                4.00273288                0.01000000               -0.03029122               -0.02484358                0.10370532                0.01228173                0.01109394               -0.01589464
               7.99928722                4.99960293                4.00294396                0.01000001               -0.03401062               -0.02522589                0.11045156                0.01548946                0.00960155               -0.00960241
               8.99893295                4.99970531                4.00315739                0.01000001               -0.03560280               -0.02741899                0.11219694                0.01262192                0.00716402               -0.00372636
               9.99857516                4.99973442                4.00330292                0.01000000               -0.03577902               -0.02546913                0.10570965                0.00749804                0.00675530               -0.00475184
               0.00100511                6.00040278                4.00374117                0.99232737               -0.03009642               -0.00863521                0.10259080               -0.03301755               -0.00361943                0.02250737
               1.00070415                6.00008472                4.00348028                0.01000000               -0.01768284               -0.02094336                0.09668905               -0.02957900               -0.02130908                0.00646702
               2.00065145                5.99969670                4.00287812                0.01000003               -0.00978576               -0.02306613                0.09504246               -0.02742162               -0.02020529               -0.00075455
               3.00050843                5.99945687                4.00258946                0.01000000               -0.01465746               -0.02288752                0.09231598               -0.01362689                0.00108848               -0.01469709
               4.00035831                5.99929867                4.00243934                0.01000000               -0.01677156               -0.02552097                0.09114856               -0.00517862                0.00983019               -0.02022415
               5.00017300                5.99921463                4.00244911                0.01000001               -0.02123138               -0.02449723                0.09403220                0.00072033                0.01599797               -0.02070829
               5.99993368                5.99919746                4.00257185                0.01000000               -0.02630799               -0.02518841                0.09891863                0.00507161                0.01709169               -0.01788041
               6.99964684                5.99923342                4.00275874                0.01000001               -0.03070373               -0.02800047                0.10616895                0.00695731                0.01619884               -0.01022686
               7.99931960                5.99930918                4.00300304                0.01002980               -0.03413481               -0.03202122                0.11389605                0.00786864                0.01576875               -0.00090900
               8.99896414                5.99941789                4.00326700                0.01000000               -0.03663589               -0.03228356                0.11796858                0.00655283                0.01228162                0.00952227
               9.99858689                5.99950798                4.00343013                0.01000000               -0.03772593               -0.02405685                0.11130666                0.00357980                0.00950194                0.01629486
               0.00131318                7.00008845                4.00389978                1.00000000               -0.03069723               -0.03177771                0.10544794               -0.00048183               -0.00411367                0.01412985
               1.00100620                6.99978571                4.00352713                0.99999999               -0.02979479               -0.03013397                0.09893698               -0.00118056               -0.00823835               -0.00589840
               2.00071728                6.99947834                4.00306279                0.01004370               -0.01971476               -0.02493021                0.09205056               -0.00953544               -0.01172726               -0.00833649
               3.00061191                6.99924228                4.00261100                0.01000003               -0.01296418               -0.02714447                0.08444192               -0.00856926               -0.00134924               -0.02119264
               4.00045800                6.99902646                4.00245024                0.01000001               -0.01840061               -0.02762262                0.09330485               -0.00516852                0.01494649               -0.02356672
               5.00024390                6.99896028                4.00248044                0.01000000               -0.02411540               -0.02641819                0.09447112                0.00430077                0.02236556               -0.02091052
               5.99997569                6.99893412                4.00263557                0.01000001               -0.03016521               -0.02707348                0.10194406                0.00282932                0.02524769               -0.01698189
               6.99964059                6.99893357                4.00291633                0.01000001               -0.03577846               -0.03078441                0.11292756               -0.00140649                0.02559092               -0.00748000
               7.99926012                6.99896250                4.00326890                0.01000001               -0.03876939               -0.03764940                0.12393994               -0.00623027                0.02371955                0.00905792
               8.99886520                6.99905964                4.00363635                0.01000000               -0.03967740               -0.04195091                0.13026857               -0.00574469                0.01790920                0.02736797
               9.99846657                6.99925328                4.00387474                0.01000001               -0.03986329               -0.03346694                0.12463894               -0.00425226                0.01381039                0.04657518
               0.00160096                7.99976723                4.00412418                1.00000000               -0.03103161               -0.03247676                0.10784132               -0.00094026               -0.00164709                0.01848732
               1.00129065                7.99948204                4.00367383                0.99999999               -0.02983959               -0.03034797                0.10017882               -0.00142977               -0.00102384                0.00174713
               2.00100417                7.99919810                4.00322814                0.01000000               -0.02508600               -0.02814786                0.09313491               -0.00150807               -0.01140029               -0.01042806
               3.00078893                7.99891398                4.00256074                0.01000000               -0.02336186               -0.03016864                0.12817323               -0.00349875               -0.00255043               -0.01498741
               4.00053693                7.99874622                4.00249616                0.01000002               -0.02187870               -0.02796065                0.08519873                0.00395351                0.02724922               -0.02128900
               5.00035135                7.99868627                4.00258933                0.01000001               -0.02599809               -0.02736618                0.09754115                0.00641360                0.03206558               -0.01815280
               6.00001697                7.99865599                4.00278363                0.01000001               -0.03805102               -0.02780338                0.10646098                0.00142458                0.03367739               -0.01256477
               6.99959033                7.99861773                4.00316760                0.01000001               -0.04740199               -0.03053560                0.12084259               -0.00891654                0.03922581               -0.00428660
               7.99906893                7.99855619                4.00375053                0.01003992               -0.05159313               -0.03810985                0.13812385               -0.02187387                0.03786592                0.01343174
               8.99855847                7.99857887                4.00434415                0.01000000               -0.04771900               -0.05221559                0.14860330               -0.03346262                0.02731536                0.06782748
               9.99811455                7.99883864                4.00477978                0.01000001               -0.04439172               -0.06636298                0.14755467               -0.02866039                0.02184312                0.08946764
               0.00186474                8.99943892                4.00438160                0.99999999               -0.03180027               -0.03287563                0.10973167               -0.00077165                0.00216099                0.01581189
               1.00154674                8.99917875                4.00387196                0.99999995               -0.03047791               -0.03012703                0.10065602               -0.00136487                0.00258754                0.00319045
               2.00125518                8.99891538                4.00336031                1.00000000               -0.02764604               -0.02761546                0.09002309               -0.00224439               -0.00044607               -0.00586514
               3.00099382                8.99863891                4.00278065                0.01000002               -0.02452010               -0.02521110                0.07634209                0.00065980                0.01894924               -0.00697019
               4.00076478                8.99846725                4.00266834                0.01000001               -0.02657098               -0.02529950                0.08943325                0.00794737                0.03611215               -0.01130714
               5.00046240                8.99841296                4.00275439                0.01000001               -0.03460292               -0.02600523                0.09762980                0.00558491                0.03913011               -0.01032377
               6.00007272                8.99837806                4.00301150                0.01000000               -0.04501668               -0.02688061                0.10901320                0.00141521                0.04234704               -0.00559450
               6.99956206                8.99832286                4.00348470                0.01000000               -0.06056091               -0.02856287                0.12577117               -0.00726178                0.05155047                0.00040568
               7.99886150                8.99820031                4.00427106                0.01000001               -0.08242812               -0.03076686                0.14711258               -0.02263649                0.08347096                0.01342352
               8.99791350                8.99801533                4.00575683                0.99999999               -0.07438412               -0.05512755                0.18397633               -0.04337492                0.04901242                0.04847498
               9.99737382                8.99792602                4.00624419                0.99999996               -0.05396800               -0.07075971                0.17363334               -0.04149106               -0.00111882                0.04870199
               0.00210587                9.99910971                4.00456414                1.00000000               -0.03189841               -0.03292010                0.10991494                0.00109155                0.01129939                0.01180347
               1.00178688                9.99887950                4.00404938                1.00000000               -0.03033721               -0.02992450                0.10031207                0.00081840                0.01558357                0.00200178
               2.00149912                9.99864579                4.00360788                1.00000000               -0.02683119               -0.02695929                0.08832601                0.00090699                0.01698185               -0.00093146
               3.00125026                9.99840976                4.00309924                0.01000002               -0.02886456               -0.02291496                0.07543672                0.00536620                0.02888702               -0.00510289
               4.00092183                9.99824023                4.00291821                0.01000001               -0.03490081               -0.02270201                0.08252482                0.00352550                0.03435948               -0.00079727
               5.00055224                9.99816616                4.00298446                0.01000000               -0.03932292               -0.02467947                0.09124087                0.00289217                0.04054724               -0.00183046
               6.00013537                9.99811838                4.00326145                0.01000000               -0.04646975               -0.02596788                0.10204425                0.00028061                0.04634782                0.00060829
               6.99962285                9.99804647                4.00378403                0.01004895               -0.06058178               -0.02763914                0.11979615               -0.00279778                0.06248830                0.00511681
               7.99892374                9.99794085                4.00472595                0.01000002               -0.08287972               -0.02594543                0.14560531               -0.02228418                0.09443007                0.01797330
               8.99796525                9.99747632                4.00622652                0.99998675               -0.07301988               -0.05390109                0.17322842               -0.02069495                0.05184984                0.00110256
               9.99746334                9.99742345                4.00671463                1.00000000               -0.05019133               -0.05025782                0.16291040                0.00366485                0.00120033               -0.00101076
               0.00099300                0.00132674                5.00422679                1.00000000               -0.02409551               -0.02432258                0.07959033                0.00090050               -0.00361683                0.00343317
               1.00075204                0.00113894                5.00408811                0.99999999               -0.02435558               -0.02500802                0.08145102                0.00036533               -0.00400082               -0.00105328
               2.00050588                0.00096274                5.00394324                0.01000000               -0.01437925               -0.02546416                0.08327211                0.00801033               -0.00836195               -0.00181060
               3.00046446                0.00095280                5.00371977                0.01000000               -0.00628233               -0.03589139                0.09732482                0.00289778               -0.00139201               -0.01222525
               4.00038024                0.00084161                5.00379119                0.01000000               -0.00706882               -0.03807556                0.09898117               -0.00698856                0.02960852               -0.00844772
               5.00032308                0.00068183                5.00421578                0.01000000                0.00201562               -0.04022247                0.10663041               -0.02310412                0.04208634               -0.01438448
               6.00042055                0.00037103                5.00464556                0.49181975               -0.00870189               -0.02721732                0.11394670               -0.03083535                0.04247710                0.00017875
               7.00014904                0.00074298                5.00521655                1.00000000               -0.03028704               -0.03386598                0.11564928                0.00229163                0.03276261                0.00127927
               7.99981481                0.00107548                5.00545825                1.00000000               -0.03385379               -0.03420545                0.11573449                0.00093793                0.01344253                0.00028571
               8.99947197                0.00140119                5.00564310                0.99999999               -0.03455639               -0.03413450                0.11587060                0.00100608                0.00826590                0.00070566
               9.99912368                0.00171229                5.00578675                1.00000000               -0.03482843               -0.03445494                0.11701370                0.00132863                0.00605207                0.00491453
               0.00118979                1.00108351                5.00410201                1.00000000               -0.02521017               -0.02478685                0.08280989                0.00057475                0.00103996                0.00373790
               1.00093769                1.00088886                5.00396523                0.01000000               -0.02553680               -0.02552450                0.08490718                0.00026447                0.00268626               -0.00277984
               2.00067906                1.00070810                5.00386159                0.01000000               -0.01918469               -0.02431177                0.08690157                0.00383987                0.00015088               -0.01093124
               3.00055400                1.00059389                5.00366981                0.01000000               -0.01166115               -0.03327810                0.10022763               -0.00397418                0.00535676               -0.00833141
               4.00044584                1.00046085                5.00376684                0.01000000               -0.01133353               -0.03502144                0.09981965               -0.01334357                0.02785862               -0.01262126
               5.00032733                1.00027961                5.00413143                0.01000000               -0.01821065               -0.03348345                0.10506635               -0.02385721                0.03607111               -0.01936852
               6.00008162                1.00009885                5.00457038                0.01000000               -0.02537979               -0.01924351                0.10738150               -0.02050860                0.03446609               -0.01183433
               6.99981973                1.00040432                5.00509658                1.00000000               -0.02932682               -0.03288311                0.10908355               -0.00119346                0.02147835                0.00086062
               7.99949509                1.00073342                5.00527373                0.99999999               -0.03280576               -0.03320758                0.11019434                0.00098064                0.00192461                0.00034063
               8.99916362                1.00105984                5.00541417                0.99996500               -0.03346135               -0.03349388                0.11179280                0.00107810               -0.00037635               -0.00054679
               9.99882586                1.00136775                5.00554711                0.99999997               -0.03377585               -0.03378876                0.11348156                0.00109564               -0.00053757                0.00549049
               0.00139379                2.00083100                5.00398424                0.01000853               -0.02610437               -0.02484189                0.08598004               -0.00528696                0.00147179               -0.00975672
               1.00113274                2.00062845                5.00380828                0.01000000               -0.02580648               -0.02217056                0.08821338               -0.00258368               -0.00026024               -0.00990531
               2.00087766                2.00047650                5.00359494                0.01005184               -0.02502631               -0.02301828                0.09999224               -0.00528512                0.00229990               -0.01198123
               3.00063222                2.00028724                5.00355994                0.01000001               -0.02250066               -0.02728635                0.09593966               -0.01216765                0.01567119               -0.01037094
               4.00042764                2.00014118                5.00365450                0.01000001               -0.02121418               -0.02847409                0.09758363               -0.01544157                0.02014665               -0.01682592
               5.00020793                2.00001216                5.00389806                0.01000000               -0.02709895               -0.02393645                0.10158331               -0.01702774                0.02936915               -0.02509026
               5.99988567                1.99998616                5.00430370                0.01000000               -0.03586650               -0.01449763                0.10405744               -0.00898743                0.04430727               -0.02956086
               6.99949060                2.00008532                5.00497603                0.01000005               -0.03533813               -0.02397743                0.10234876                0.00338366                0.02010216               -0.03080730
               7.99917890                2.00041133                5.00509721                0.01005004               -0.03156994               -0.02939300                0.10428859                0.00915728               -0.01095333               -0.01973108
               8.99885921                2.00073131                5.00516283                1.00000000               -0.03245582               -0.03239380                0.10850905                0.00060288               -0.00843495               -0.00459258
               9.99852979                2.00103652                5.00532276                0.99999997               -0.03294187               -0.03274307                0.11035929                0.00075835               -0.00316832                0.00511613
               0.00148915                3.00058667                5.00359066                0.01000003               -0.02486337               -0.02376703                0.08683900               -0.00705864                0.00454262                0.00379843
               1.00124052                3.00044545                5.00353834                0.01000000               -0.02872893               -0.01721764                0.09463445               -0.01516698                0.01220892                0.00372174
               2.00091457                3.00024773                5.00353535                0.01000001               -0.02972724               -0.02158444                0.09595517               -0.01978480                0.01221154                0.00023307
               3.00064597                3.00004816                5.00347668                0.01000001               -0.02512461               -0.02343138                0.09353479               -0.01711738                0.00932285               -0.01113227
               4.00041208                2.99989137                5.00352206                0.01000000               -0.02520872               -0.02448004                0.09625192               -0.01317544                0.01560127               -0.01747735
               5.00014180                2.99980088                5.00368018                0.01000000               -0.02916796               -0.02203307                0.09929887               -0.00711394                0.02079311               -0.02354056
               5.99982872                2.99980890                5.00395142                0.01000001               -0.03397792               -0.01988547                0.10148819                0.00393007                0.02166796               -0.03040791
               6.99946224                2.99992477                5.00424476                0.01002379               -0.03982382               -0.01948192                0.10527706                0.01662368                0.01483273               -0.04715742
               7.99903224                3.00014556                5.00452380                0.01000000               -0.04558781               -0.02677879                0.11772936                0.02022284                0.01189371               -0.03412750
               8.99855048                3.00041197                5.00485259                0.01000000               -0.04008192               -0.03241706                0.10638819                0.02127011                0.00371584               -0.01430842
               9.99823060                3.00071288                5.00507809                0.12966018               -0.03198770               -0.04596765                0.10694474                0.02435000               -0.00102828               -0.01046377
               0.00153506                4.00035566                5.00390260                0.01000000               -0.03667122               -0.01349560                0.10007446               -0.01539019               -0.00381659                0.05090814
               1.00116835                4.00028410                5.00374103                0.01000000               -0.03279020               -0.01356551                0.09760113               -0.02458417               -0.00327419                0.03032518
               2.00087925                4.00004481                5.00355910                0.01000001               -0.02610572               -0.02169532                0.09328236               -0.02624638                0.00010883               -0.00011034
               3.00064623                3.99981861                5.00344025                0.01000000               -0.02339190               -0.02465678                0.09381173               -0.01878347                0.00667812               -0.01033607
               4.00041142                3.99965158                5.00342037                0.01000001               -0.02490534               -0.02524962                0.09540487               -0.01037836                0.01266924               -0.01722467
               5.00014812                3.99957150                5.00351506                0.01000001               -0.02855211               -0.02470150                0.09854662               -0.00035990                0.01741010               -0.02059523
               5.99984037                3.99958845                5.00370085                0.01000007               -0.03308540               -0.02456135                0.10269495                0.00979480                0.01869413               -0.02294978
               6.99948642                3.99969568                5.00393256                0.01000000               -0.03721028               -0.02584454                0.10723951                0.01964322                0.01688148               -0.02249837
               7.99909617                3.99987575                5.00417596                0.01000001               -0.03845651               -0.02972582                0.11005817                0.02860728                0.01222280               -0.01557391
               8.99871729                4.00008297                5.00439529                0.01000001               -0.03406093               -0.03563908                0.11072974                0.02837516                0.00726852               -0.01501591
               9.99841495                4.00011717                5.00454097                0.01000000               -0.03023370               -0.04937862                0.10666834                0.01950897                0.00808607               -0.02390464
               0.00132446                5.00031676                5.00458380                0.01379860               -0.02647870               -0.00028126                0.08733398               -0.02805177               -0.03160532                0.04062349
               1.00105968                5.00017414                5.00415471                0.01000000               -0.02346656               -0.01833433                0.09103093               -0.03536519               -0.02702704                0.02622985
               2.00085513                4.99981383                5.00366758                0.01000000               -0.01980694               -0.02625001                0.09489198               -0.02934937               -0.01354449               -0.00029770
               3.00066354                4.99955502                5.00345434                0.01000000               -0.02017567               -0.02763919                0.09344451               -0.01610252                0.00406514               -0.01211262
               4.00045162                4.99938638                5.00337463                0.01000001               -0.02329043               -0.02811491                0.09515041               -0.00562133                0.01311478               -0.01739331
               5.00019773                4.99930685                5.00342891                0.01000001               -0.02755908               -0.02793361                0.09851145                0.00348126                0.01892841               -0.01842830
               5.99990044                4.99931767                5.00358158                0.01000001               -0.03149646               -0.02882555                0.10240528                0.01183711                0.02155980               -0.01594037
               6.99956780                4.99940788                5.00380320                0.01003158               -0.03416676               -0.03158291                0.10790433                0.01887509                0.02179990               -0.00999106
               7.99921710                4.99955105                5.00405452                0.01000000               -0.03456161               -0.03556458                0.11192362                0.02354217                0.01991885               -0.00213829
               8.99887657                4.99969918                5.00427857                0.01000000               -0.03323582               -0.03915502                0.11260098                0.01943951                0.01392682                0.00455204
               9.99855239                4.99972531                5.00437906                0.01000000               -0.03241823               -0.03537716                0.10868988                0.01089836                0.01079544                0.00156440
               0.00125926                6.00035003                5.00477633                0.99200898               -0.02952845               -0.01405633                0.10322586               -0.02537218               -0.00400853                0.01278606
               1.00096398                5.99991741                5.00443786                0.01000000               -0.01739390               -0.02744160                0.09507489               -0.02556925               -0.01792156                0.00067093
               2.00091138                5.99951981                5.00381414                0.01000000               -0.01061746               -0.03006521                0.09332848               -0.02054637               -0.01877193               -0.00349817
               3.00075163                5.99926583                5.00349589                0.01000001               -0.01821103               -0.03084223                0.09208261               -0.00808076                0.00423763               -0.01616925
               4.00054716                5.99908928                5.00337265                0.01000007               -0.02325873               -0.03065018                0.09492692               -0.00009057                0.01680362               -0.01934467
               5.00028645                5.99901283                5.00341326                0.01000001               -0.02855400               -0.03012730                0.09832323                0.00669039                0.02472756               -0.01729788
               5.99997608                5.99901194                5.00358486                0.01000001               -0.03279536               -0.03132107                0.10354532                0.00958664                0.02944194               -0.01079289
               6.99963055                5.99906402                5.00385705                0.01000000               -0.03501865               -0.03589987                0.11115900                0.01013188                0.03118143               -0.00057846
               7.99927571                5.99916446                5.00417361                0.01000001               -0.03493675               -0.04176077                0.11735203                0.01052909                0.02927296                0.01187217
               8.99893181                5.99929987                5.00445238                0.01000000               -0.03475246               -0.04339927                0.11940318                0.00846501                0.02054986                0.02424929
               9.99858066                5.99940962                5.00456679                0.01000171               -0.03511503               -0.03217773                0.11526048                0.00466156                0.01491293                0.03035839
               0.00168226                7.00003563                5.00495490                1.00000000               -0.03037501               -0.03188541                0.10526645               -0.00008533               -0.00342796                0.01567744
               1.00137851                6.99962531                5.00450925                0.99999996               -0.02932347               -0.02963084                0.09767493               -0.00090027               -0.00755483               -0.00486757
               2.00109579                6.99921252                5.00397589                0.01000002               -0.02230269               -0.02902343                0.09064323               -0.00562687               -0.00649295               -0.01049196
               3.00093246                6.99893818                5.00354247                0.01003129               -0.01964938               -0.03327454                0.09347974                0.00111644                0.00648224               -0.02274588
               4.00070280                6.99877337                5.00339702                0.01000000               -0.02617880               -0.03180515                0.09507002                0.00728497                0.02388279               -0.02147463
               5.00040888                6.99870430                5.00345912                0.01000002               -0.03309128               -0.03017449                0.09950060                0.00933928                0.03467312               -0.01579370
               6.00004098                6.99869125                5.00369346                0.01000000               -0.03954824               -0.03100085                0.10733658                0.00537850                0.04088949               -0.00655194
               6.99961792                6.99868988                5.00407216                0.01000001               -0.04245693               -0.03599311                0.11678676               -0.00341081                0.04341969                0.00603958
               7.99919184                6.99871583                5.00452202                0.01000001               -0.04086066               -0.04616880                0.12592375               -0.01112576                0.04105272                0.02697876
               8.99880070                6.99883120                5.00494251                0.01000001               -0.03828678               -0.05296719                0.13081268               -0.00995189                0.02839721                0.04911918
               9.99842610                6.99908176                5.00513362                0.01000000               -0.03745987               -0.04065825                0.12680131               -0.00646899                0.01940118                0.07136766
               0.00207821                7.99971233                5.00520398                0.99999999               -0.03091201               -0.03259967                0.10779831               -0.00050495               -0.00117102                0.02044139
               1.00176909                7.99932480                5.00467135                1.00000000               -0.02961144               -0.03012061                0.09943812               -0.00096645               -0.00067027                0.00202680
               2.00148598                7.99893935                5.00414625                0.01000000               -0.02779908               -0.02754970                0.09129144                0.00118485               -0.00083055               -0.01236778
               3.00121310                7.99860034                5.00360679                0.01000000               -0.02796191               -0.03234914                0.09843425                0.00827681                0.01019557               -0.02941721
               4.00092674                7.99845318                5.00344213                0.01000001               -0.03288713               -0.02956044                0.09456471                0.01509086                0.03813361               -0.01984158
               5.00055536                7.99840934                5.00356572                0.01000000               -0.04143330               -0.02695926                0.09955416                0.01215774                0.04704660               -0.01141007
               6.00009807                7.99839192                5.00388274                0.01000001               -0.05088044               -0.02745128                0.11036828                0.00273380                0.05324096               -0.00201750
               6.99953775                7.99834416                5.00439221                0.01000001               -0.05930951               -0.03060057                0.12300386               -0.01423178                0.06149127                0.01033643
               7.99891188                7.99824108                5.00512715                0.01000001               -0.05854522               -0.04090582                0.13808816               -0.03458111                0.06039097                0.03321232
               8.99836685                7.99824052                5.00581120                0.01000001               -0.04808589               -0.06107965                0.14739920               -0.04897859                0.04217429                0.10350640
               9.99795016                7.99859646                5.00625709                0.01000000               -0.04166836               -0.07905559                0.14758052               -0.03926534                0.03220034                0.12253435
               0.00244722                8.99938364                5.00547832                0.99999999               -0.03150587               -0.03295601                0.10940793               -0.00036012                0.00250065                0.01739701
               1.00213216                8.99902290                5.00487420                1.00000000               -0.03016357               -0.03015330                0.10015731               -0.00073319                0.00224501                0.00290793
               2.00184395                8.99866153                5.00426067                1.00000000               -0.02739997               -0.02756242                0.09030373               -0.00136218               -0.00219261               -0.00830484
               3.00158416                8.99829120                5.00356426                0.01000000               -0.03241662               -0.02731528                0.07937845                0.01208236                0.02870249               -0.02155367
               4.00119562                8.99818217                5.00356839                0.01000001               -0.04354341               -0.02175914                0.09072668                0.01505757                0.05538249               -0.01179180
               5.00071329                8.99816512                5.00372842                0.01000000               -0.05173907               -0.02168539                0.09836650                0.01053743                0.05595026               -0.00454462
               6.00016084                8.99814223                5.00410864                0.01000000               -0.06145878               -0.02270895                0.11050628                0.00204732                0.06333943                0.00140546
               6.99948412                8.99807787                5.00474580                0.01000001               -0.07784900               -0.02414460                0.12602261               -0.01163744                0.07751939                0.00955050
               7.99860386                8.99789771                5.00572188                0.01000000               -0.10091817               -0.02595455                0.14563831               -0.03431078                0.12173548                0.02708224
               8.99746575                8.99760960                5.00759370                1.00000000               -0.08374638               -0.05835868                0.18329110               -0.06107592                0.07306480                0.07190207
               9.99692893                8.99750064                5.00798116                0.99999999               -0.05368273               -0.08001456                0.17366033               -0.05647957               -0.00095765                0.06693007
               0.00279249                9.99905321                5.00566553                0.99999999               -0.03159554               -0.03304355                0.11015226                0.00137954                0.01224355                0.01300840
               1.00247654                9.99872173                5.00505135                0.99999997               -0.03010286               -0.03011665                0.10057971                0.00118196                0.01572392                0.00145890
               2.00219043                9.99838810                5.00450464                1.00000000               -0.02712113               -0.02734296                0.09065152                0.00126345                0.01570534               -0.00216583
               3.00193411                9.99805403                5.00389163                0.01000000               -0.04182328               -0.02371659                0.08090250                0.01648988                0.03526501               -0.00388864
               4.00135397                9.99801799                5.00375040                0.01000000               -0.05640324               -0.01641712                0.08516049                0.01191525                0.04753281               -0.00231546
               5.00080605                9.99797563                5.00390840                0.01000000               -0.05638520               -0.01894852                0.09389066                0.00526269                0.05580496                0.00196780
               6.00022626                9.99793774                5.00430261                0.01001080               -0.06282658               -0.02044869                0.10588118                0.00082461                0.06626986                0.00532554
               6.99954952                9.99786127                5.00499013                0.01000000               -0.07661643               -0.02166049                0.12135662               -0.00424768                0.09142288                0.01006729
               7.99869393                9.99772199                5.00618015                0.01000002               -0.10035587               -0.01757234                0.14524963               -0.03038798                0.12982265                0.02803913
               8.99754240                9.99707335                5.00795976                0.99999999               -0.08277210               -0.05362554                0.17331856               -0.02862680                0.07085882                0.00126540
               9.99703849                9.99699617                5.00834707                0.99999998               -0.05039060               -0.05044777                0.16365093                0.00323829                0.00108511               -0.00112742
               0.00108513                0.00146881                6.00502377                1.00000000               -0.02420006               -0.02439940                0.07989751                0.00074367               -0.00366045                0.00340543
               1.00084313                0.00123446                6.00490414                0.99999999               -0.02445952               -0.02497314                0.08171385                0.00030145               -0.00409776               -0.00106477
               2.00059594                0.00101031                6.00477790                0.01000000               -0.01611785               -0.02553493                0.08352034                0.00549418               -0.00396302               -0.00171488
               3.00052077                0.00090038                6.00466257                0.01000000               -0.00904837               -0.03491790                0.09390985                0.00014993                0.00649173               -0.00933330
               4.00041497                0.00076173                6.00481113                0.01000000               -0.00850199               -0.03645197                0.10112156               -0.00704257                0.03187385               -0.01075971
               5.00035073                0.00064049                6.00523871                0.01000005                0.00096230               -0.03830928                0.10708940               -0.01605919                0.06529310               -0.01373825
               6.00043421                0.00053394                6.00611559                0.52304167               -0.01418977               -0.04059603                0.12576047               -0.02801408                0.05303154               -0.00067736
               7.00006693                0.00090472                6.00641801                1.00000000               -0.03562195               -0.03487057                0.11795662               -0.00103110                0.01590102               -0.00194832
               7.99972178                0.00128484                6.00660799                1.00000000               -0.03434226               -0.03422278                0.11581052                0.00056867                0.01007356                0.00021761
               8.99938009                0.00166011                6.00680711                0.99999999               -0.03458666               -0.03432981                0.11644625                0.00050974                0.00785810                0.00073945
               9.99903004                0.00201973                6.00695853                1.00000000               -0.03500458               -0.03449041                0.11720527                0.00096768                0.00537259                0.00496251
               0.00132692                1.00122482                6.00493089                1.00000000               -0.02515264               -0.02484017                0.08292597                0.00048326                0.00102841                0.00365444
               1.00107539                1.00098472                6.00481294                0.01000000               -0.02545007               -0.02543930                0.08471818                0.00005488                0.00271011               -0.00276867
               2.00081792                1.00075496                6.00472801                0.01000000               -0.02144190               -0.02557818                0.08651290               -0.00107479                0.00388057               -0.00867269
               3.00064656                1.00055120                6.00463156                0.01000000               -0.01717150               -0.03178586                0.09553239               -0.00749957                0.01086459               -0.01169398
               4.00047449                1.00039721                6.00478421                0.01000000               -0.01712598               -0.03354834                0.10066597               -0.01202104                0.02685137               -0.01490378
               5.00030404                1.00025739                6.00512839                0.01000000               -0.02262643               -0.03264595                0.10434461               -0.02250214                0.05392840               -0.01683497
               6.00002196                1.00012798                6.00597018                0.01000000               -0.03114329               -0.02653021                0.11998813               -0.01820428                0.04309982               -0.02946654
               6.99968117                1.00055601                6.00621688                1.00000000               -0.03360975               -0.03369595                0.11162725                0.00213672                0.00627461               -0.00231736
               7.99934976                1.00094262                6.00637809                0.99999995               -0.03317143               -0.03351234                0.11115232                0.00088523                0.00125575                0.00036045
               8.99901774                1.00131681                6.00653441                0.99999999               -0.03348329               -0.03363918                0.11217233                0.00055924                0.00022634               -0.00019142
               9.99868010                1.00167483                6.00667968                1.00000000               -0.03376424               -0.03388511                0.11316998                0.00092439               -0.00033012                0.00594034
               0.00157498                2.00097201                6.00484459                0.01000000               -0.02608948               -0.03060574                0.08594305               -0.00859981                0.00153718               -0.00034964
               1.00131408                2.00072567                6.00468746                0.01000000               -0.02835053               -0.02509812                0.08772191               -0.01155290                0.00203995               -0.00432171
               2.00100797                2.00049874                6.00453922                0.01008481               -0.02927811               -0.02568467                0.09337804               -0.01235206                0.00432705               -0.01188396
               3.00072852                2.00026466                6.00452736                0.01000000               -0.02698084               -0.02747618                0.09590751               -0.01480236                0.01374687               -0.01373874
               4.00046835                2.00009077                6.00463904                0.01000001               -0.02792993               -0.02850015                0.09896260               -0.01436531                0.02287638               -0.01972798
               5.00016992                1.99998757                6.00492806                0.01000000               -0.03484192               -0.02490310                0.10258740               -0.01277527                0.02788979               -0.02381377
               5.99977151                2.00000333                6.00528871                0.01000000               -0.04374469               -0.01525959                0.10368278               -0.00110339                0.04315160               -0.04250204
               6.99929503                2.00023080                6.00601265                0.01000002               -0.03964181               -0.02765338                0.10508671                0.01363592                0.02367472               -0.02825927
               7.99897868                2.00061460                6.00615304                0.01149067               -0.03179848               -0.03281847                0.10625494                0.01265928               -0.00835171               -0.01147028
               8.99865906                2.00098733                6.00624550                1.00000000               -0.03230879               -0.03236213                0.10837706                0.00064544               -0.00670936               -0.00358411
               9.99833250                2.00134203                6.00642114                0.99999997               -0.03265590               -0.03277605                0.10953837                0.00078868               -0.00239299                0.00577068
               0.00164760                3.00061270                6.00467184                0.01000000               -0.03300003               -0.03141660                0.10476402               -0.01050629                0.00137100                0.00791035
               1.00131760                3.00048276                6.00456293                0.01000000               -0.03078564               -0.02442963                0.10021227               -0.01841586                0.00142941                0.00421024
               2.00103189                3.00024126                6.00448000                0.01000000               -0.02795578               -0.02605472                0.09402703               -0.02261660                0.00584922               -0.00403606
               3.00075848                3.00000167                6.00442896                0.01000001               -0.02838073               -0.02722586                0.09533059               -0.01812749                0.01103072               -0.01283090
               4.00046427                2.99982721                6.00449188                0.01000000               -0.03112604               -0.02690402                0.09746561               -0.01027161                0.01726673               -0.01921587
               5.00013596                2.99975933                6.00467248                0.01002460               -0.03538055               -0.02453552                0.10002647                0.00062770                0.02425407               -0.02409757
               5.99975666                2.99982279                6.00499398                0.01014460               -0.03966697               -0.02237955                0.10280755                0.01503714                0.02439785               -0.02423395
               6.99934262                3.00000294                6.00530306                0.01000001               -0.04551219               -0.02544573                0.10678578                0.02985971                0.02303539               -0.03996593
               7.99884642                3.00028625                6.00569455                0.01000000               -0.05197044               -0.03215527                0.11566924                0.03456097                0.01020607               -0.02633328
               8.99830322                3.00066957                6.00590740                0.01000000               -0.04299754               -0.03736813                0.10525396                0.03487787               -0.00271787               -0.00932356
               9.99798647                3.00101931                6.00614086                0.12438856               -0.03167480               -0.05518682                0.10579468                0.03662376               -0.00145238               -0.00753890
               0.00162473                4.00034368                6.00493274                0.01004162               -0.03075293               -0.02064040                0.09504409               -0.01486611               -0.00964100                0.02299896
               1.00131721                4.00023708                6.00471862                0.01000000               -0.02940051               -0.02252129                0.09451402               -0.02081213               -0.00670123                0.01280452
               2.00103672                3.99997765                6.00450018                0.01000001               -0.02685901               -0.02812980                0.09485734               -0.02407411               -0.00055950               -0.00008217
               3.00078003                3.99972014                6.00438601                0.01000000               -0.02657321               -0.02997670                0.09487607               -0.01613887                0.00814119               -0.01239829
               4.00050526                3.99955269                6.00438447                0.01000003               -0.02965613               -0.02952422                0.09707449               -0.00402470                0.01614073               -0.01758053
               5.00018690                3.99949686                6.00451189                0.01003708               -0.03383079               -0.02879354                0.09988685                0.00834910                0.02253593               -0.01908550
               5.99982864                3.99955574                6.00473736                0.01000001               -0.03790701               -0.02938552                0.10273139                0.02091526                0.02458088               -0.01989020
               6.99942876                3.99972188                6.00500684                0.01000000               -0.04126888               -0.03168350                0.10718172                0.03246730                0.02171516               -0.01550938
               7.99900327                3.99997149                6.00526861                0.01000000               -0.04026036               -0.03618691                0.11070294                0.04409447                0.01685841               -0.01360117
               8.99862356                4.00023997                6.00550317                0.01000000               -0.03188821               -0.04651529                0.11079350                0.04252667                0.00867753               -0.00722129
               9.99836550                4.00023830                6.00561426                0.01000005               -0.02580524               -0.06397065                0.10778355                0.03001353                0.00687476               -0.01975405
               0.00156348                5.00019990                6.00511302                0.01000004               -0.02960915               -0.00281363                0.09343196               -0.01789867                0.00312269                0.04129972
               1.00126739                5.00003234                6.00490653                0.01000000               -0.02480678               -0.02467358                0.09158496               -0.02652613               -0.00079927                0.02049296
               2.00106734                4.99967867                6.00463830                0.01000000               -0.02033577               -0.03296113                0.09371390               -0.02244662               -0.00280580               -0.00259156
               3.00086067                4.99940214                6.00438790                0.01002745               -0.02301388               -0.03373919                0.09435583               -0.00936469                0.00603697               -0.01351922
               4.00060706                4.99923673                6.00434074                0.01003872               -0.02803898               -0.03316530                0.09679626                0.00265345                0.01872503               -0.01686111
               5.00029989                4.99918346                6.00442933                0.01000007               -0.03285607               -0.03291991                0.09997173                0.01333952                0.02600188               -0.01597893
               5.99994994                4.99923508                6.00462303                0.01000000               -0.03618346               -0.03430083                0.10420284                0.02179470                0.02999519               -0.01119705
               6.99957622                4.99936927                6.00489097                0.01000000               -0.03698590               -0.03844984                0.10926647                0.02901947                0.03087473               -0.00275511
               7.99921022                4.99956251                6.00518243                0.01000000               -0.03446377               -0.04461824                0.11296067                0.03382315                0.02731256                0.00749462
               8.99888695                4.99973927                6.00540941                0.01000000               -0.03100715               -0.05005166                0.11360823                0.02678990                0.01787717                0.01384655
               9.99859008                4.99973990                6.00547672                0.01000000               -0.02968644               -0.04388542                0.11094337                0.01460412                0.01274115                0.00913212
               0.00160188                6.00028740                6.00580569                0.98648890               -0.02939691               -0.01127709                0.10271817               -0.02575774               -0.00378892                0.03772835
               1.00130791                5.99974361                6.00538177                0.01000000               -0.01919448               -0.02887319                0.09427078               -0.02011250               -0.01442020                0.01079132
               2.00121799                5.99931843                6.00474469                0.01000000               -0.01366180               -0.03711412                0.09299995               -0.01056946               -0.01376123               -0.00894681
               3.00103467                5.99904536                6.00443111                0.01000002               -0.02204907               -0.03628351                0.09389014                0.00153550                0.01047070               -0.01751071
               4.00077701                5.99888938                6.00433788                0.01000001               -0.02896645               -0.03546204                0.09647606                0.01025192                0.02440253               -0.01863958
               5.00045534                5.99883846                6.00441557                0.01000000               -0.03491403               -0.03457577                0.10030539                0.01606882                0.03446297               -0.01375572
               6.00007873                5.99886973                6.00464275                0.01000000               -0.03868131               -0.03649339                0.10657724                0.01724613                0.04134854               -0.00409683
               6.99968172                5.99895289                6.00498192                0.01000000               -0.03844952               -0.04250315                0.11304817                0.01568046                0.04365988                0.00957669
               7.99930974                5.99907913                6.00535008                0.01000001               -0.03498762               -0.05069854                0.11817602                0.01433254                0.04027102                0.02475024
               8.99898197                5.99923893                6.00565506                0.01009310               -0.03267051               -0.05280352                0.11966224                0.01080270                0.02725879                0.03872558
               9.99865633                5.99936059                6.00573534                0.01000000               -0.03256395               -0.03747798                0.11581121                0.00627949                0.01840258                0.04367786
               0.00213592                6.99997435                6.00600511                1.00000000               -0.03018053               -0.03173848                0.10486900                0.00009836               -0.00280702                0.01694359
               1.00183411                6.99945487                6.00548063                1.00000000               -0.02908591               -0.02929912                0.09695269               -0.00054552               -0.00673998               -0.00365846
               2.00155420                6.99893639                6.00487566                0.01000002               -0.02568434               -0.03262277                0.08970173                0.00278647               -0.00009971               -0.01290198
               3.00132043                6.99867647                6.00448059                0.01000001               -0.02675996               -0.03707541                0.09391202                0.01266930                0.01612118               -0.02128872
               4.00101900                6.99852749                6.00435164                0.01000000               -0.03397521               -0.03556808                0.09637408                0.01895684                0.03426359               -0.02131259
               5.00064092                6.99849195                6.00447046                0.01000000               -0.04192812               -0.03248450                0.10164706                0.01870293                0.04785089               -0.01141097
               6.00018044                6.99850521                6.00478230                0.01000000               -0.04802463               -0.03346359                0.10948725                0.01019225                0.05648338                0.00133373
               6.99968043                6.99851921                6.00525206                0.01000000               -0.04848053               -0.04010320                0.11846514               -0.00313217                0.06016322                0.01822559
               7.99921083                6.99854854                6.00578737                0.01000000               -0.04294446               -0.05292792                0.12684640               -0.01439979                0.05584272                0.04467860
               8.99882154                6.99868320                6.00625260                0.01000000               -0.03692315               -0.06205665                0.13052032               -0.01340743                0.03708068                0.06997390
               9.99847236                6.99899034                6.00641076                0.01005440               -0.03491753               -0.04593978                0.12672346               -0.00876257                0.02354878                0.09288253
               0.00264281                7.99965263                6.00628015                0.99999999               -0.03078408               -0.03245238                0.10737777               -0.00014780               -0.00101267                0.02163313
               1.00233497                7.99915762                6.00566259                0.99999999               -0.02953427               -0.02989822                0.09899185               -0.00057427               -0.00049014                0.00226984
               2.00205212                7.99866597                6.00505397                0.01000001               -0.03190033               -0.02727438                0.09071556                0.00566513                0.00413206               -0.01366278
               3.00169696                7.99830385                6.00452942                0.01000000               -0.03557269               -0.03767377                0.09188956                0.02258828                0.01893374               -0.03567052
               4.00134067                7.99817802                6.00438745                0.01000000               -0.04226390               -0.03021731                0.09492928                0.02870924                0.04761725               -0.02040907
               5.00085168                7.99818877                6.00458041                0.01000000               -0.05426799               -0.02562763                0.10194231                0.02113293                0.06323163               -0.00783037
               6.00025531                7.99820045                6.00499100                0.01000001               -0.06379687               -0.02594552                0.11153256                0.00518731                0.07202504                0.00544957
               6.99957574                7.99815082                6.00562767                0.01000000               -0.06987767               -0.03016307                0.12390691               -0.01805507                0.08380913                0.02171877
               7.99885775                7.99802057                6.00651230                0.01000000               -0.06518627               -0.04297959                0.13857944               -0.04577720                0.08162487                0.05125196
               8.99827202                7.99799780                6.00729213                0.01000002               -0.04954800               -0.06891888                0.14816144               -0.06423999                0.05554139                0.13794564
               9.99786680                7.99844179                6.00773139                0.01000002               -0.04052241               -0.09078495                0.14819840               -0.05023137                0.03954745                0.15339858
               0.00312298                8.99932531                6.00656976                0.99999999               -0.03136932               -0.03285853                0.10894999               -0.00002477                0.00246079                0.01792135
               1.00280929                8.99885691                6.00587511                1.00000000               -0.03008538               -0.03016121                0.10016179               -0.00035626                0.00183975                0.00255668
               2.00252128                8.99839090                6.00516639                1.00000000               -0.02745735               -0.02757249                0.09099439               -0.00065441               -0.00337715               -0.00970138
               3.00226014                8.99792299                6.00436822                0.01000000               -0.04065051               -0.03133014                0.08130651                0.02725389                0.03760130               -0.02879401
               4.00170827                8.99792314                6.00448287                0.01000000               -0.06094991               -0.01740673                0.09186845                0.02857242                0.07275635               -0.01384417
               5.00104115                8.99797939                6.00472172                0.01000000               -0.06930669               -0.01716017                0.10036224                0.01638084                0.07335592               -0.00269454
               6.00032213                8.99798630                6.00522163                0.01008257               -0.07709662               -0.01817442                0.11112424                0.00301412                0.08400783                0.00639268
               6.99949921                8.99791595                6.00600515                0.01000000               -0.09369134               -0.01958366                0.12570371               -0.01496698                0.10283745                0.01642513
               7.99844830                8.99768895                6.00718383                0.01000001               -0.11918477               -0.02177406                0.14624264               -0.04591592                0.15903788                0.03887551
               8.99711552                8.99730482                6.00942265                0.99999999               -0.09342745               -0.06141390                0.18251094               -0.07854094                0.09609413                0.09413841
               9.99657976                8.99717464                6.00971740                0.99998316               -0.05357614               -0.08863619                0.17361150               -0.07083770               -0.00098713                0.08480402
               0.00357911                9.99899546                6.00676718                1.00000000               -0.03168584               -0.03298420                0.11017984                0.00150589                0.01247983                0.01336969
               1.00326225                9.99855440                6.00606097                1.00000000               -0.03030795               -0.03025089                0.10130167                0.00124869                0.01569075                0.00110683
               2.00297295                9.99811452                6.00542091                0.99999998               -0.02762260               -0.02763772                0.09232645                0.00130957                0.01549398               -0.00286529
               3.00270980                9.99767725                6.00471729                0.01000000               -0.05586153               -0.02457472                0.08356167                0.03073346                0.04211320               -0.00397859
               4.00185572                9.99782988                6.00462142                0.01000005               -0.07968275               -0.00932553                0.08853450                0.02316110                0.06063068               -0.00436355
               5.00111614                9.99784557                6.00486228                0.01000000               -0.07383406               -0.01338274                0.09732209                0.00785369                0.07192874                0.00310801
               6.00037904                9.99783697                6.00537907                0.01000000               -0.07711929               -0.01493312                0.10713728                0.00136954                0.08581780                0.00839905
               6.99957376                9.99775915                6.00621117                0.01000000               -0.09142346               -0.01567996                0.12166992               -0.00513961                0.11714827                0.01338366
               7.99855057                9.99758509                6.00763094                0.01000001               -0.11791234               -0.01038586                0.14578145               -0.03925516                0.16323154                0.03480150
               8.99721551                9.99676952                6.00969289                0.99997424               -0.09200815               -0.05352959                0.17333282               -0.03580183                0.08959881                0.00123626
               9.99671040                9.99666907                6.00998765                1.00000000               -0.05051056               -0.05055700                0.16444008                0.00301922                0.00111084               -0.00110197
               0.00115905                0.00158061                7.00582474                1.00000000               -0.02430899               -0.02448294                0.08029996                0.00066756               -0.00365903                0.00340566
               1.00091596                0.00130006                7.00572239                0.99999999               -0.02454234               -0.02498855                0.08194100                0.00026214               -0.00408395               -0.00106595
               2.00066820                0.00102822                7.00561365                0.01000000               -0.01774500               -0.02548949                0.08359743                0.00338914                0.00018654               -0.00170586
               3.00056106                0.00082815                7.00559797                0.01000005               -0.01133130               -0.03329398                0.09320972               -0.00199486                0.01367739               -0.00945005
               4.00044157                0.00068026                7.00581362                0.01000000               -0.01182836               -0.03453881                0.10077620               -0.00557552                0.04023737               -0.01102062
               5.00032449                0.00062771                7.00635757                0.01000005               -0.00698489               -0.03741518                0.10977630               -0.01205453                0.06632079               -0.01438018
               6.00030188                0.00064829                7.00716077                0.46697974               -0.01749175               -0.03118860                0.11512319               -0.02074709                0.05038504               -0.00163191
               6.99997465                0.00110628                7.00757568                0.99999367               -0.03373468               -0.03429346                0.11672730                0.00083404                0.02089679               -0.00202474
               7.99962718                0.00153964                7.00777446                1.00000000               -0.03480305               -0.03440576                0.11658416                0.00030470                0.00986839               -0.00019774
               8.99927859                0.00196138                7.00797202                0.99999999               -0.03494420               -0.03437614                0.11668771                0.00027499                0.00752993                0.00082030
               9.99892830                0.00236923                7.00813086                1.00000000               -0.03502953               -0.03452941                0.11717457                0.00082523                0.00553025                0.00500869
               0.00144627                1.00133578                7.00576053                1.00000000               -0.02514981               -0.02487738                0.08300620                0.00042721                0.00102257                0.00366555
               1.00119477                1.00105017                7.00565959                0.01000001               -0.02541122               -0.02540194                0.08463263                0.00002509                0.00268377               -0.00279398
               2.00093805                1.00077332                7.00559185                0.01000000               -0.02398417               -0.02706925                0.08626482               -0.00494373                0.00721701               -0.00706201
               3.00071509                1.00049521                7.00558046                0.01000000               -0.02260050               -0.03065447                0.09449089               -0.00960906                0.01554587               -0.01223009
               4.00048604                1.00033487                7.00578016                0.01000000               -0.02475808               -0.03206499                0.10018810               -0.00993711                0.03209696               -0.01515999
               5.00021993                1.00025356                7.00621832                0.01000000               -0.03154570               -0.03179604                0.10699928               -0.01034445                0.05193257               -0.01911359
               5.99985512                1.00033640                7.00697014                0.01000000               -0.03413045               -0.02679833                0.11069514               -0.00639929                0.04062471               -0.02048000
               6.99953732                1.00076334                7.00732913                1.00000000               -0.03262234               -0.03361605                0.11187558               -0.00078556                0.01161369               -0.00216063
               7.99920268                1.00119558                7.00749677                0.99999995               -0.03353855               -0.03370913                0.11207235                0.00030542                0.00146474               -0.00013962
               8.99886655                1.00161762                7.00765762                1.00000000               -0.03369874               -0.03373754                0.11251014                0.00033392                0.00047641                0.00011220
               9.99852870                1.00202394                7.00781051                0.99999999               -0.03378466               -0.03392374                0.11305253                0.00074903                0.00003054                0.00616072
               0.00173880                2.00108306                7.00570310                0.01000001               -0.02598870               -0.03395243                0.08572336               -0.01469892                0.00154367                0.00603065
               1.00147891                2.00079202                7.00556272                0.01000000               -0.03072551               -0.02758394                0.08733942               -0.01650318                0.00365024               -0.00058173
               2.00112429                2.00048683                7.00546250                0.01000332               -0.03357911               -0.02836353                0.09212664               -0.01747420                0.00687435               -0.01101420
               3.00080733                2.00021506                7.00547809                0.01000001               -0.03199054               -0.02811559                0.09521921               -0.01541285                0.01574691               -0.01549696
               4.00048448                2.00003896                7.00563376                0.01000001               -0.03456330               -0.02866216                0.09947704               -0.00977058                0.02460654               -0.02053092
               5.00011607                1.99999179                7.00594981                0.01000000               -0.04101857               -0.02592318                0.10298981               -0.00108918                0.03124232               -0.02546538
               5.99966411                2.00011232                7.00637735                0.01000000               -0.05081514               -0.02304162                0.10674562                0.01365701                0.04491481               -0.03707649
               6.99909976                2.00043395                7.00707776                0.01008772               -0.04425487               -0.03160394                0.10695293                0.02190942                0.02260272               -0.02496639
               7.99877901                2.00086546                7.00722231                0.01276007               -0.03214227               -0.03461248                0.10743436                0.01410118               -0.00737367               -0.00569740
               8.99845692                2.00128663                7.00733037                1.00000000               -0.03241827               -0.03248983                0.10860968                0.00042819               -0.00567737               -0.00293005
               9.99813065                2.00169076                7.00751353                0.99999997               -0.03262716               -0.03274732                0.10915754                0.00070933               -0.00193237                0.00616975
               0.00173437                3.00065673                7.00568594                0.01000001               -0.02734366               -0.03543045                0.09802884               -0.01423937               -0.00433221                0.00942633
               1.00146094                3.00049850                7.00554259                0.01000000               -0.02844243               -0.02977157                0.09603275               -0.02313536                0.00065364                0.00443143
               2.00116552                3.00020605                7.00541589                0.01000001               -0.03031130               -0.03009781                0.09389993               -0.02446087                0.00538885               -0.00503226
               3.00085471                2.99993290                7.00538329                0.01000001               -0.03258157               -0.03016759                0.09570292               -0.01635001                0.01231365               -0.01462716
               4.00051389                2.99976162                7.00547137                0.01000000               -0.03649661               -0.02939262                0.09830716               -0.00369646                0.01958557               -0.01992714
               5.00012478                2.99973510                7.00568071                0.01000003               -0.04138971               -0.02794237                0.10126801                0.01219174                0.02572895               -0.02304376
               5.99968610                2.99987557                7.00600757                0.01000001               -0.04512034               -0.02753652                0.10279631                0.02845498                0.02768979               -0.02402673
               6.99922237                3.00013126                7.00638048                0.01003084               -0.05270378               -0.03181850                0.10748006                0.04587365                0.03033911               -0.03438676
               7.99863202                3.00050333                7.00683718                0.01000000               -0.05862793               -0.03748072                0.11830811                0.04972753                0.00950800               -0.01894763
               8.99804981                3.00096782                7.00695767                0.01000000               -0.04486928               -0.04250485                0.10503073                0.04769627               -0.00748923               -0.00400598
               9.99773464                3.00136899                7.00719398                0.01001222               -0.03151753               -0.06522640                0.10516324                0.05009805               -0.00161225               -0.00379447
               0.00177048                4.00037445                7.00580349                0.01000001               -0.03036000               -0.01934612                0.09511362               -0.01451034               -0.00201907                0.03908197
               1.00146688                4.00019659                7.00563131                0.01000000               -0.02849061               -0.02888256                0.09450903               -0.02160474               -0.00073566                0.01623153
               2.00120067                3.99988488                7.00545625                0.01000001               -0.02710619               -0.03442864                0.09503197               -0.02163787                0.00278617               -0.00384637
               3.00092476                3.99961171                7.00533777                0.01000000               -0.02961605               -0.03466779                0.09572485               -0.01033261                0.01052659               -0.01363485
               4.00060835                3.99945110                7.00536185                0.01018580               -0.03394026               -0.03329382                0.09702160                0.00460156                0.01962400               -0.01778858
               5.00024596                3.99943294                7.00551280                0.01009424               -0.03856545               -0.03257555                0.09923434                0.02105945                0.02561200               -0.01728314
               5.99983704                3.99956159                7.00575548                0.01000003               -0.04282413               -0.03436151                0.10318040                0.03586238                0.02922586               -0.01451013
               6.99938947                3.99979758                7.00607620                0.01000000               -0.04500208               -0.03767823                0.10822772                0.04788851                0.02820015               -0.00940800
               7.99893700                4.00011584                7.00639002                0.01000000               -0.04221437               -0.04419347                0.11183762                0.06259196                0.01985189               -0.01069105
               8.99854519                4.00043653                7.00661116                0.01000000               -0.03033635               -0.05718002                0.11152292                0.05801991                0.00770615                0.00130585
               9.99833027                4.00038623                7.00669664                0.01000000               -0.02149117               -0.07910573                0.10831563                0.04186704                0.00562644               -0.01329528
               0.00179989                5.00026981                7.00645244                0.01327936               -0.02814753               -0.00809715                0.09659767               -0.02185507               -0.02015382                0.04848107
               1.00151842                4.99992084                7.00598641                0.01000000               -0.02411211               -0.03187200                0.09331975               -0.02413210               -0.01644866                0.02018722
               2.00131765                4.99951748                7.00554186                0.01000000               -0.02182920               -0.03906788                0.09383700               -0.01475749               -0.00463025               -0.00564551
               3.00108183                4.99923954                7.00534146                0.01000003               -0.02664807               -0.03943936                0.09541854                0.00106804                0.01235404               -0.01507070
               4.00078469                4.99909575                7.00531055                0.01009586               -0.03231764               -0.03727587                0.09624786                0.01432204                0.02392618               -0.01706274
               5.00043548                4.99908359                7.00542834                0.01000000               -0.03729913               -0.03681749                0.09866425                0.02587378                0.03239277               -0.01360157
               6.00003871                4.99918834                7.00566564                0.01000000               -0.04047948               -0.03954312                0.10479112                0.03468897                0.03783056               -0.00459511
               6.99962589                4.99937770                7.00598853                0.01000000               -0.03968960               -0.04515597                0.10993112                0.04190335                0.03901116                0.00549335
               7.99924491                4.99961946                7.00631374                0.01000000               -0.03430320               -0.05306604                0.11281241                0.04587556                0.03358606                0.01618296
               8.99893983                4.99982422                7.00655073                0.01000001               -0.02861617               -0.06026743                0.11382743                0.03569799                0.02126196                0.02269541
               9.99867259                4.99978688                7.00659793                0.01000000               -0.02672361               -0.05185467                0.11171946                0.01916000                0.01449187                0.01592934
               0.00203131                6.00021251                7.00683070                0.97582053               -0.02947411               -0.01848800                0.10263659               -0.02157564               -0.00370118                0.02179710
               1.00173657                5.99955915                7.00632328                0.01000000               -0.02222429               -0.03247597                0.09449258               -0.01271178               -0.01091226                0.00395203
               2.00158683                5.99910352                7.00567414                0.01000000               -0.01843582               -0.04361399                0.09293728                0.00199744               -0.00757300               -0.01077245
               3.00136785                5.99882292                7.00537369                0.01000001               -0.02680390               -0.04127257                0.09453367                0.01495628                0.01745972               -0.01849114
               4.00105075                5.99870559                7.00530217                0.01000003               -0.03485071               -0.03990996                0.09693673                0.02436001                0.03287918               -0.01802761
               5.00067084                5.99869659                7.00541937                0.01000000               -0.04070192               -0.03861701                0.10111015                0.02824534                0.04499405               -0.01042517
               6.00023671                5.99877073                7.00571640                0.01000000               -0.04372119               -0.04093292                0.10756417                0.02741039                0.05313509                0.00276855
               6.99979642                5.99889447                7.00611802                0.01000000               -0.04143614               -0.04845274                0.11369432                0.02370048                0.05497371                0.01932777
               7.99940799                5.99905452                7.00653713                0.01000000               -0.03523415               -0.05861374                0.11873776                0.01999795                0.04899766                0.03749666
               8.99909173                5.99923119                7.00684562                0.01000001               -0.03099088               -0.06153069                0.11964997                0.01368565                0.03134127                0.05240220
               9.99878817                5.99934914                7.00688301                0.01001750               -0.03035641               -0.04217606                0.11629144                0.00720325                0.01942993                0.05529720
               0.00267510                6.99990005                7.00705228                0.99994542               -0.03019281               -0.03160810                0.10476950                0.00021529               -0.00239714                0.01787097
               1.00237317                6.99927132                7.00644830                1.00000000               -0.02906352               -0.02917202                0.09686993               -0.00029807               -0.00616687               -0.00272957
               2.00209383                6.99864520                7.00576993                0.01002858               -0.02971391               -0.03640807                0.08945584                0.01288619                0.00655508               -0.01563942
               3.00177889                6.99841409                7.00542071                0.01000002               -0.03478067               -0.04118080                0.09335308                0.02713959                0.02673634               -0.02268589
               4.00139821                6.99829755                7.00532450                0.01000000               -0.04218241               -0.03959079                0.09750770                0.03372503                0.04468596               -0.02057851
               5.00093524                6.99831125                7.00549206                0.01000000               -0.05045864               -0.03475616                0.10281042                0.03088701                0.06078299               -0.00776797
               6.00038904                6.99836968                7.00588320                0.01000000               -0.05595687               -0.03545720                0.11031952                0.01760014                0.07149197                0.00820043
               6.99981611                6.99840864                7.00644147                0.01000000               -0.05404446               -0.04345119                0.11916114               -0.00131344                0.07561880                0.02915808
               7.99930815                6.99844719                7.00705894                0.01000000               -0.04485900               -0.05924272                0.12716741               -0.01715488                0.06872728                0.06092076
               8.99891893                6.99859361                7.00755292                0.01000000               -0.03636982               -0.07009004                0.13113800               -0.01684921                0.04357236                0.09069712
               9.99858076                6.99894335                7.00766809                0.01000001               -0.03381703               -0.04956710                0.12840831               -0.01130406                0.02568523                0.11566244
               0.00329306                7.99958035                7.00735154                0.99999999               -0.03076080               -0.03225085                0.10696748                0.00006767               -0.00092479                0.02225081
               1.00298546                7.99897571                7.00665118                1.00000000               -0.02956400               -0.02978376                0.09887403               -0.00029168               -0.00044222                0.00243190
               2.00270178                7.99837536                7.00596057                0.01000001               -0.03635796               -0.02723216                0.09083725                0.01065330                0.00866265               -0.01445161
               3.00225830                7.99799930                7.00544458                0.01000000               -0.04368458               -0.04433196                0.09131646                0.03896127                0.02880397               -0.04227833
               4.00182809                7.99791377                7.00534072                0.01000000               -0.05209249               -0.03131174                0.09539247                0.04505965                0.06028732               -0.02193742
               5.00121645                7.99800147                7.00560457                0.01000000               -0.06683895               -0.02409400                0.10284532                0.03271137                0.07867248               -0.00528429
               6.00049131                7.99806158                7.00611339                0.01000000               -0.07619042               -0.02438356                0.11252364                0.00962429                0.09037306                0.01066192
               6.99969264                7.99802544                7.00687035                0.01000000               -0.08056957               -0.02928798                0.12445161               -0.02146789                0.10460099                0.03115241
               7.99887992                7.99786967                7.00789874                0.01000000               -0.07170283               -0.04453068                0.13876539               -0.05685477                0.10115007                0.06746952
               8.99825858                7.99782938                7.00877443                0.01000005               -0.05086625               -0.07509993                0.14817237               -0.07883689                0.06853655                0.17123874
               9.99786260                7.99835779                7.00922105                0.01000000               -0.03959855               -0.10014456                0.14920441               -0.06021248                0.04747877                0.18421633
               0.00388573                8.99925503                7.00765732                0.99999999               -0.03134026               -0.03273020                0.10863756                0.00013413                0.00238668                0.01805579
               1.00357232                8.99867565                7.00687744                0.99999996               -0.03012143               -0.03017830                0.10036039               -0.00016558                0.00154413                0.00231720
               2.00328330                8.99810056                7.00608055                0.99999999               -0.02763096               -0.02768112                0.09185068               -0.00029943               -0.00409093               -0.01049389
               3.00301971                8.99752745                7.00519039                0.01000000               -0.04930290               -0.03614956                0.08303241                0.04441644                0.04625373               -0.03485608
               4.00229724                8.99767131                7.00540576                0.01000000               -0.07890245               -0.01300757                0.09313250                0.04477080                0.09005792               -0.01604482
               5.00144166                8.99782936                7.00573567                0.01000000               -0.08698423               -0.01223961                0.10158811                0.02406111                0.09000051               -0.00124424
               6.00055756                8.99788201                7.00633113                0.01000001               -0.09314955               -0.01353772                0.11173212                0.00479677                0.10370436                0.00853585
               6.99957867                8.99782288                7.00725987                0.01000000               -0.10952212               -0.01542610                0.12680929               -0.01887330                0.12753823                0.02111121
               7.99836711                8.99755658                7.00864673                0.01000001               -0.13623011               -0.01729408                0.14608924               -0.05671778                0.19480019                0.04992198
               8.99685406                8.99709161                7.01124392                1.00000000               -0.10237119               -0.06358938                0.18174123               -0.09485124                0.11826776                0.11546651
               9.99631969                8.99694046                7.01145339                1.00000000               -0.05343733               -0.09620814                0.17358265               -0.08468487               -0.00098257                0.10150922
               0.00445451                9.99892574                7.00786913                1.00000000               -0.03178919               -0.03292883                0.11017920                0.00151830                0.01250701                0.01341444
               1.00413662                9.99837214                7.00707738                0.99999999               -0.03052578               -0.03035065                0.10188433                0.00122904                0.01569758                0.00090746
               2.00384399                9.99782174                7.00635117                0.99999998               -0.02803746               -0.02788214                0.09353914                0.00127809                0.01558103               -0.00320077
               3.00357587                9.99727631                7.00556286                0.01000000               -0.07112004               -0.02511376                0.08529140                0.04721053                0.04936255               -0.00402647
               4.00242159                9.99765362                7.00552109                0.01000000               -0.10444479               -0.00176952                0.09120851                0.03645360                0.07453280               -0.00587527
               5.00148697                9.99775668                7.00585484                0.01000000               -0.09139317               -0.00726867                0.09932460                0.01139229                0.08647016                0.00423078
               6.00059373                9.99779083                7.00644535                0.01000002               -0.09231829               -0.00911795                0.10814240                0.00162950                0.10387290                0.00873714
               6.99964061                9.99771692                7.00742353                0.01000000               -0.10584457               -0.01059639                0.12388956               -0.00715799                0.14278993                0.01492154
               7.99847684                9.99752379                7.00909578                0.01000000               -0.13314690               -0.00327892                0.14634883               -0.04699359                0.19624897                0.04211783
               8.99697767                9.99655760                7.01142641                1.00000000               -0.10028222               -0.05340138                0.17336783               -0.04214717                0.10729915                0.00124159
               9.99647119                9.99643363                7.01163588                0.99999999               -0.05064750               -0.05068334                0.16520863                0.00275376                0.00110586               -0.00110759
               0.00121665                0.00166534                8.00662977                1.00000000               -0.02441140               -0.02455726                0.08069191                0.00059995               -0.00367713                0.00340704
               1.00097254                0.00133873                8.00654296                0.99949640               -0.02462825               -0.02502146                0.08220177                0.00024407               -0.00409240               -0.00106765
               2.00072409                0.00101979                8.00644985                0.01000000               -0.01890981               -0.02549180                0.08370782                0.00211410                0.00403332               -0.00169972
               3.00059434                0.00074640                8.00652676                0.01000000               -0.01319838               -0.03199205                0.09289942               -0.00309364                0.02187777               -0.00911442
               4.00046012                0.00060826                8.00682666                0.01000000               -0.01321691               -0.03343766                0.10083655               -0.00390684                0.04728960               -0.01109105
               5.00033000                0.00063137                8.00743423                0.01000000               -0.01181601               -0.03484918                0.10838244               -0.00401593                0.07920615               -0.01498627
               6.00022380                0.00088255                8.00841805                0.45929246               -0.02294113               -0.03807576                0.12131791               -0.01371669                0.05646786               -0.00047054
               6.99987118                0.00135734                8.00875256                0.99999505               -0.03504956               -0.03466132                0.11732505               -0.00075070                0.01574562               -0.00278004
               7.99952281                0.00183626                8.00893968                1.00000000               -0.03484464               -0.03442893                0.11666587                0.00017621                0.00895958               -0.00027252
               8.99917429                0.00230533                8.00914086                0.99999999               -0.03499160               -0.03446254                0.11691613                0.00014208                0.00757794                0.00082809
               9.99882297                0.00276061                8.00930202                1.00000000               -0.03513122               -0.03452330                0.11715005                0.00072299                0.00551793                0.00509191
               0.00154926                1.00141976                8.00659101                1.00000000               -0.02515054               -0.02490588                0.08308323                0.00037394                0.00100467                0.00367327
               1.00129775                1.00108851                8.00650559                0.01000091               -0.02539325               -0.02538467                0.08458230                0.00001327                0.00266101               -0.00279434
               2.00104139                1.00076487                8.00645331                0.01000000               -0.02642922               -0.02826828                0.08609096               -0.00780181                0.01038009               -0.00543772
               3.00076917                1.00042648                8.00652138                0.01000000               -0.02814150               -0.02972574                0.09397196               -0.01065616                0.02141790               -0.01217621
               4.00047856                1.00027388                8.00678798                0.01000000               -0.03082341               -0.03096655                0.10058129               -0.00574771                0.03624887               -0.01576425
               5.00015270                1.00028288                8.00726837                0.01000000               -0.03774568               -0.03077495                0.10588380               -0.00254624                0.06190289               -0.01882228
               5.99972365                1.00050179                8.00818408                0.01000000               -0.03829418               -0.03290853                0.11710142                0.00229519                0.04499181               -0.02819550
               6.99938682                1.00101072                8.00845439                1.00000000               -0.03365387               -0.03386094                0.11256025                0.00105663                0.00666508               -0.00308754
               7.99905057                1.00149197                8.00861953                0.99999998               -0.03366410               -0.03380127                0.11247080                0.00028823                0.00125188               -0.00018668
               8.99871353                1.00196071                8.00878461                1.00000000               -0.03378226               -0.03383281                0.11280183                0.00017067                0.00069077                0.00023571
               9.99837493                1.00241538                8.00894074                0.99999999               -0.03386076               -0.03393303                0.11308199                0.00069593                0.00017832                0.00631763
               0.00188663                2.00116722                8.00655906                0.01046628               -0.02589314               -0.03594573                0.08547910               -0.01869863                0.00155593                0.00929607
               1.00162770                2.00083104                8.00643425                0.01000000               -0.03282705               -0.02928584                0.08695808               -0.02049130                0.00526744                0.00161036
               2.00123009                2.00045442                8.00638175                0.01000001               -0.03777468               -0.03089996                0.09191784               -0.02107913                0.00980102               -0.00894366
               3.00087220                2.00015188                8.00643175                0.01000001               -0.03706630               -0.02885171                0.09544056               -0.01426935                0.01823707               -0.01571964
               4.00048876                1.99998893                8.00662858                0.01000001               -0.04105158               -0.02866575                0.09966878               -0.00280010                0.02771039               -0.02120407
               5.00005117                2.00001587                8.00698785                0.01000000               -0.04734509               -0.02737074                0.10384800                0.00985485                0.03297792               -0.02497948
               5.99954186                2.00022438                8.00742362                0.01000000               -0.05745205               -0.02688315                0.10584152                0.02756423                0.04567718               -0.04286445
               6.99890213                2.00068012                8.00815170                0.01006035               -0.04816350               -0.03469765                0.10778140                0.03344182                0.02403559               -0.02325908
               7.99857859                2.00116024                8.00830173                0.01384038               -0.03239170               -0.03761935                0.10820649                0.01786881               -0.00678149                0.00365240
               8.99825430                2.00162868                8.00841770                0.99999999               -0.03255185               -0.03260208                0.10885783                0.00024049               -0.00513710               -0.00253390
               9.99792755                2.00208195                8.00860429                0.99999997               -0.03267445               -0.03275384                0.10912794                0.00066064               -0.00166985                0.00634035
               0.00184765                3.00070085                8.00663241                0.01000001               -0.02469276               -0.04042026                0.09133846               -0.01770126               -0.00331439                0.01699073
               1.00160072                3.00050280                8.00648359                0.01000000               -0.02743439               -0.03565750                0.09234486               -0.02659712               -0.00045634                0.00777033
               2.00129896                3.00014687                8.00635800                0.01000001               -0.03257251               -0.03398350                0.09441277               -0.02487274                0.00587326               -0.00575697
               3.00094927                2.99984944                8.00634302                0.01000001               -0.03701960               -0.03313021                0.09626504               -0.01167766                0.01447134               -0.01526755
               4.00055857                2.99970057                8.00645802                0.01000000               -0.04174619               -0.03155959                0.09867902                0.00599889                0.02229451               -0.02088135
               5.00011435                2.99973547                8.00669784                0.01006685               -0.04739407               -0.03061554                0.10101112                0.02589542                0.02821777               -0.02333748
               5.99961069                2.99996413                8.00704990                0.01010934               -0.04972778               -0.03084543                0.10385671                0.04446060                0.02946823               -0.02033814
               6.99911979                3.00031677                8.00745266                0.01000002               -0.05756494               -0.03772234                0.10372468                0.06157778                0.03376856               -0.02919618
               7.99845939                3.00073959                8.00806071                0.01000000               -0.06615809               -0.04395594                0.14247074                0.06393229               -0.00979996               -0.00305785
               8.99779663                3.00130866                8.00800802                0.01000000               -0.04888995               -0.04778294                0.10511558                0.06187349               -0.01607783                0.00197466
               9.99748159                3.00176030                8.00824413                0.01001229               -0.03150400               -0.07567537                0.10508628                0.06413939               -0.00166013               -0.00003679
               0.00192870                4.00035881                8.00683501                0.01000000               -0.02789725               -0.02792711                0.09892665               -0.01185247               -0.00584184                0.02260494
               1.00164973                4.00011789                8.00660880                0.01000000               -0.02713593               -0.03793427                0.09636171               -0.01678945               -0.00298556                0.00748480
               2.00138599                3.99977475                8.00640082                0.01000001               -0.02823909               -0.03995017                0.09502850               -0.01539391                0.00366301               -0.00397121
               3.00108495                3.99948928                8.00630051                0.01000000               -0.03316352               -0.03923189                0.09622401               -0.00136134                0.01318723               -0.01484320
               4.00072271                3.99935774                8.00632490                0.01000001               -0.03897149               -0.03727076                0.09763578                0.01772101                0.02241013               -0.01864046
               5.00030552                3.99940356                8.00649658                0.01000000               -0.04364749               -0.03653029                0.09999494                0.03640203                0.03041730               -0.01666240
               5.99984976                3.99960747                8.00680097                0.01008275               -0.04736466               -0.03909405                0.10333126                0.05288927                0.03459078               -0.01003435
               6.99935823                3.99992567                8.00717139                0.01000000               -0.04922128               -0.04397244                0.10933688                0.06311024                0.03085156               -0.00148755
               7.99886534                4.00028112                8.00750536                0.01000000               -0.04435879               -0.05002661                0.10799978                0.08038489                0.02356673               -0.00705560
               8.99847105                4.00067302                8.00773363                0.01000000               -0.02791361               -0.06749751                0.11190043                0.07593418                0.00712306                0.00964695
               9.99830707                4.00056844                8.00778057                0.01004896               -0.01639837               -0.09440920                0.10814391                0.05473928                0.00340699               -0.00663652
               0.00209245                5.00014231                8.00704498                0.01000198               -0.02434607               -0.01176527                0.08505492               -0.00912022                0.00708556                0.04677661
               1.00184899                4.99974411                8.00677293                0.01000000               -0.02363825               -0.03785639                0.08978645               -0.00989744                0.00569543                0.01808377
               2.00161969                4.99934787                8.00651504                0.01000000               -0.02549679               -0.04499217                0.09574944               -0.00245883                0.00703302               -0.00788999
               3.00133906                4.99906481                8.00629627                0.01006961               -0.03104918               -0.04464971                0.09524336                0.01390862                0.01535517               -0.01660058
               4.00099871                4.99895515                8.00626570                0.01000000               -0.03732005               -0.04214304                0.09678315                0.03031282                0.02894631               -0.01643270
               5.00059266                4.99900486                8.00640262                0.01000002               -0.04261708               -0.04186640                0.10057316                0.04312840                0.04029550               -0.01013777
               6.00014636                4.99918225                8.00671885                0.01000000               -0.04421546               -0.04499678                0.10566157                0.05127404                0.04640308                0.00089915
               6.99970835                4.99943732                8.00708959                0.01000000               -0.04133115               -0.05195822                0.10944298                0.05795232                0.04550118                0.01285363
               7.99931974                4.99973905                8.00743868                0.01000000               -0.03401791               -0.05986324                0.11339980                0.06090683                0.03857211                0.02539054
               8.99902799                4.99995871                8.00768596                0.01000001               -0.02671081               -0.06941099                0.11378877                0.04624619                0.02443781                0.03184180
               9.99878552                4.99987212                8.00771111                0.01000303               -0.02424646               -0.05860366                0.11193512                0.02449428                0.01548562                0.02423825
               0.00254269                6.00012351                8.00785842                0.96445462               -0.02964661               -0.01656855                0.10279865               -0.01610126               -0.00370607                0.04308121
               1.00224622                5.99936076                8.00727163                0.01000000               -0.02632865               -0.03358670                0.09508706               -0.00522332               -0.00790456                0.01162809
               2.00201611                5.99887491                8.00660344                0.01000000               -0.02451939               -0.05053474                0.09344590                0.01643656               -0.00138272               -0.01614618
               3.00175583                5.99859628                8.00632178                0.01011401               -0.03135994               -0.04564677                0.09378208                0.03007447                0.02504152               -0.02047189
               4.00138892                5.99851488                8.00627661                0.01008633               -0.04074199               -0.04388920                0.09656046                0.04063056                0.04142432               -0.01692470
               5.00094099                5.99856623                8.00643778                0.01000000               -0.04730662               -0.04267369                0.10214203                0.04489404                0.05487277               -0.00605290
               6.00044278                5.99870753                8.00679404                0.01000000               -0.04902644               -0.04550073                0.10805845                0.04173921                0.06374274                0.00883698
               6.99996047                5.99888651                8.00725581                0.01000000               -0.04403505               -0.05436403                0.11405978                0.03425186                0.06521672                0.02866084
               7.99956208                5.99908385                8.00772484                0.01000000               -0.03487770               -0.06668545                0.11850210                0.02762362                0.05733160                0.05000075
               8.99926291                5.99928480                8.00804806                0.01000001               -0.02959671               -0.06951936                0.12059720                0.01841816                0.03605836                0.06685250
               9.99897015                5.99939637                8.00806116                0.01000001               -0.02927632               -0.04532881                0.11864694                0.00966660                0.02208971                0.06965479
               0.00329593                6.99981093                8.00810050                0.99992784               -0.03028022               -0.03154483                0.10483321                0.00026051               -0.00230964                0.01836596
               1.00299313                6.99907238                8.00741802                1.00000000               -0.02915176               -0.02918164                0.09713557               -0.00014471               -0.00592582               -0.00227973
               2.00271289                6.99833717                8.00666477                0.01004050               -0.03462741               -0.04042970                0.08973414                0.02476796                0.01222096               -0.01830663
               3.00230058                6.99815187                8.00634766                0.01000002               -0.04357631               -0.04538387                0.09281062                0.04386252                0.03727641               -0.02493448
               4.00184137                6.99807737                8.00630180                0.01000000               -0.05013486               -0.04284299                0.09697123                0.04985107                0.05570511               -0.02095660
               5.00129788                6.99815139                8.00652666                0.01000000               -0.05902458               -0.03633760                0.10300962                0.04531652                0.07319612               -0.00525506
               6.00066088                6.99827223                8.00698869                0.01000000               -0.06404080               -0.03708831                0.11092867                0.02764328                0.08545657                0.01411084
               7.00001706                6.99835004                8.00763528                0.01000000               -0.05934762               -0.04655214                0.11918447                0.00275301                0.08999344                0.03925019
               7.99947392                6.99840535                8.00833072                0.01000000               -0.04666139               -0.06508426                0.12749531               -0.01835638                0.08114174                0.07628401
               8.99908384                6.99856833                8.00887536                0.01000001               -0.03591052               -0.07766148                0.13203229               -0.01911410                0.05177466                0.11036741
               9.99875571                6.99896554                8.00897893                0.01000000               -0.03281241               -0.05277741                0.13030346               -0.01262975                0.03064978                0.13686084
               0.00402501                7.99949261                8.00841950                0.99999999               -0.03079216               -0.03210522                0.10671247                0.00017881               -0.00087491                0.02251954
               1.00371709                7.99877712                8.00764007                1.00000000               -0.02965154               -0.02976596                0.09900458               -0.00012418               -0.00041031                0.00250466
               2.00343198                7.99806631                8.00687072                0.01000002               -0.04121025               -0.02733779                0.09131598                0.01625499                0.01265810               -0.01488343
               3.00289289                7.99768861                8.00635575                0.01000000               -0.05227805               -0.05221399                0.09170572                0.05755703                0.03840533               -0.04793702
               4.00238642                7.99765802                8.00629530                0.01000000               -0.06202118               -0.03277510                0.09625091                0.06368272                0.07347086               -0.02345866
               5.00165246                7.99783948                8.00663732                0.01000000               -0.07947134               -0.02235728                0.10361528                0.04628266                0.09420554               -0.00409014
               6.00079699                7.99796577                8.00724147                0.01000000               -0.08850247               -0.02235905                0.11284216                0.01635594                0.10775761                0.01526675
               6.99988241                7.99795546                8.00811671                0.01000000               -0.09101628               -0.02825263                0.12513274               -0.02331460                0.12429944                0.04028840
               7.99897667                7.99778217                8.00928760                0.01000000               -0.07809895               -0.04575018                0.13861236               -0.06687812                0.12031593                0.08316061
               8.99832043                7.99773157                8.01025558                0.01000000               -0.05267707               -0.08030786                0.14863612               -0.09254837                0.08059735                0.20284275
               9.99792313                7.99834082                8.01071548                0.01000001               -0.03973068               -0.10877701                0.15091569               -0.06980174                0.05529707                0.21272324
               0.00473048                8.99916883                8.00874251                0.99999998               -0.03135375               -0.03262352                0.10843886                0.00020932                0.00233862                0.01810178
               1.00441694                8.99847706                8.00788232                0.99999996               -0.03019831               -0.03022258                0.10063827               -0.00006754                0.00138173                0.00218868
               2.00412651                8.99779042                8.00700340                0.99999999               -0.02784619               -0.02785210                0.09270671               -0.00011820               -0.00448362               -0.01091541
               3.00386002                8.99710759                8.00602886                0.01000000               -0.05811820               -0.04184174                0.08459204                0.06328451                0.05499818               -0.03969525
               4.00296415                8.99742187                8.00634552                0.01000000               -0.09721158               -0.00881567                0.09456667                0.06323119                0.10677084               -0.01753875
               5.00191578                8.99770424                8.00675348                0.01000001               -0.10460670               -0.00738242                0.10261741                0.03360048                0.10661465               -0.00104597
               6.00087201                8.99782505                8.00745627                0.01000001               -0.10907059               -0.00912515                0.11332271                0.00857783                0.12372692                0.01082114
               6.99973437                8.99778499                8.00854134                0.01000001               -0.12558775               -0.01126004                0.12844036               -0.02190006                0.15146504                0.02707483
               7.99836026                8.99749034                8.01010561                0.01000001               -0.15300776               -0.01264114                0.14572018               -0.06634116                0.22973202                0.06035163
               8.99667422                8.99696217                8.01305748                1.00000000               -0.11095432               -0.06510955                0.18097141               -0.10996881                0.13989746                0.13607527
               9.99614117                8.99679000                8.01318905                1.00000000               -0.05330457               -0.10294394                0.17355042               -0.09769378               -0.00098429                0.11755610
               0.00541274                9.99884014                8.00897077                1.00000000               -0.03185880               -0.03286905                0.11011738                0.00147995                0.01252098                0.01341966
               1.00509416                9.99817267                8.00809866                0.99999999               -0.03068283               -0.03043857                0.10231233                0.00117822                0.01572336                0.00080410
               2.00479909                9.99750927                8.00729170                1.00000000               -0.02835155               -0.02811437                0.09447865                0.00121261                0.01568251               -0.00336679
               3.00452712                9.99685177                8.00642312                0.01000000               -0.08723462               -0.02558175                0.08667494                0.06533248                0.05679903               -0.00408173
               4.00305439                9.99748170                8.00644559                0.01000000               -0.13029177                0.00598359                0.09310124                0.05102787                0.08795810               -0.00715810
               5.00192129                9.99769183                8.00684877                0.01006217               -0.10832957               -0.00124066                0.10066599                0.01562854                0.10193010                0.00398966
               6.00088780                9.99778326                8.00754192                0.01000001               -0.10710835               -0.00417868                0.11145560                0.00350052                0.12357939                0.00968205
               6.99977912                9.99773026                8.00868896                0.01000000               -0.12075695               -0.00547253                0.12646636               -0.00822096                0.16780949                0.01850915
               7.99847266                9.99752935                8.01055792                0.01000644               -0.14788614                0.00390043                0.14684192               -0.05380368                0.22634406                0.04882746
               8.99682140                9.99642938                8.01316025                0.99999947               -0.10795362               -0.05327936                0.17340026               -0.04765195                0.12477836                0.00124070
               9.99631359                9.99628194                8.01329182                0.99997745               -0.05078073               -0.05080580                0.16597882                0.00249861                0.00110745               -0.00110671
               0.00125912                0.00172626                9.00743858                1.00000000               -0.02450917               -0.02463070                0.08108835                0.00052841               -0.00364303                0.00341910
               1.00101403                0.00135345                9.00736642                0.99997272               -0.02470272               -0.02504499                0.08243248                0.00021896               -0.00406145               -0.00108913
               2.00076507                0.00098731                9.00728780                0.01000001               -0.01961136               -0.02546405                0.08377107                0.00163791                0.00791400               -0.00171003
               3.00062180                0.00065663                9.00745596                0.01000001               -0.01425872               -0.03099308                0.09280961               -0.00387747                0.02975733               -0.00894266
               4.00047989                0.00053580                9.00783036                0.01000000               -0.01522911               -0.03181439                0.10053686               -0.00143310                0.05550418               -0.01067674
               5.00031722                0.00065971                9.00852521                0.01000000               -0.01834925               -0.03362158                0.10879920                0.00301591                0.08710182               -0.01506327
               6.00011291                0.00110681                9.00958713                0.44069723               -0.02746403               -0.03398850                0.11706753               -0.00503240                0.05900387               -0.00182282
               6.99976794                0.00164700                9.00992219                1.00000000               -0.03474203               -0.03445601                0.11690871                0.00010630                0.01548402               -0.00314615
               7.99941807                0.00217447                9.01010778                1.00000000               -0.03500652               -0.03446772                0.11681661                0.00011541                0.00878991               -0.00034375
               8.99906781                0.00269045                9.01031035                0.99999999               -0.03508600               -0.03449502                0.11699122                0.00009351                0.00758613                0.00085672
               9.99871635                0.00319364                9.01047386                1.00000000               -0.03514624               -0.03456219                0.11721828                0.00068530                0.00560602                0.00514114
               0.00163722                1.00147996                9.00742220                1.00000000               -0.02515170               -0.02493398                0.08316904                0.00032600                0.00102980                0.00368825
               1.00138570                1.00110300                9.00735124                0.01000001               -0.02536779               -0.02536130                0.08450771                0.00001237                0.00269827               -0.00281495
               2.00112986                1.00073267                9.00731367                0.01000000               -0.02884589               -0.02920189                0.08585310               -0.00992837                0.01361647               -0.00359983
               3.00080878                1.00034670                9.00745990                0.01000000               -0.03329198               -0.02888030                0.09383880               -0.01057845                0.02738339               -0.01186652
               4.00046402                1.00021766                9.00779178                0.01006349               -0.03734522               -0.02954856                0.09973170               -0.00102553                0.04176972               -0.01547509
               5.00006188                1.00032349                9.00833600                0.01000000               -0.04475417               -0.02984910                0.10582956                0.01063171                0.06692499               -0.01945547
               5.99956894                1.00076692                9.00931217                0.01000000               -0.04133530               -0.03587964                0.11306072                0.01399216                0.04683090               -0.02741383
               6.99923517                1.00130244                9.00958033                1.00000000               -0.03357198               -0.03382501                0.11264165               -0.00013511                0.00638325               -0.00329757
               7.99889750                1.00182980                9.00974619                0.99999998               -0.03380037               -0.03385726                0.11275501                0.00011902                0.00125832               -0.00026925
               8.99855916                1.00234550                9.00991365                0.99999996               -0.03387403               -0.03389533                0.11299979                0.00010104                0.00079620                0.00035116
               9.99822002                1.00284802                9.01007215                1.00000000               -0.03391465               -0.03397323                0.11323307                0.00063653                0.00028732                0.00638295
               0.00201955                2.00122758                9.00741269                0.01000349               -0.02579784               -0.03796828                0.08525205               -0.02170973                0.00154469                0.00952490
               1.00176157                2.00084623                9.00730188                0.01000000               -0.03483697               -0.03118275                0.08657452               -0.02418966                0.00712887                0.00239639
               2.00132281                2.00040327                9.00730085                0.01000001               -0.04181631               -0.03304077                0.09166999               -0.02367552                0.01299896               -0.00643220
               3.00092524                2.00007902                9.00738690                0.01000000               -0.04201120               -0.02939540                0.09532315               -0.01115505                0.02121548               -0.01525914
               4.00048258                1.99994483                9.00762713                0.01000001               -0.04723268               -0.02849896                0.09922183                0.00623246                0.03096205               -0.02141932
               4.99998059                2.00006273                9.00802677                0.01000000               -0.05343913               -0.02819352                0.10323172                0.02398804                0.03593892               -0.02601266
               5.99941380                2.00038921                9.00849419                0.01000001               -0.06391121               -0.03377320                0.10697169                0.04297426                0.04749356               -0.04345855
               6.99870236                2.00097050                9.00923339                0.01000000               -0.05182060               -0.03873967                0.10836203                0.03799379                0.02455787               -0.02520274
               7.99837739                2.00149733                9.00938644                0.02501568               -0.03253766               -0.02956246                0.10865395                0.00126073               -0.00647080                0.03275416
               8.99805161                2.00201255                9.00950753                0.99999999               -0.03266677               -0.03270602                0.10910763                0.00012621               -0.00482417               -0.00227547
               9.99772405                2.00251417                9.00969608                0.99999999               -0.03275576               -0.03280185                0.10930992                0.00062254               -0.00153714                0.00639228
               0.00196573                3.00072059                9.00751271                0.01000000               -0.02395121               -0.04067979                0.09072875               -0.01979769               -0.00053617                0.02015055
               1.00172622                3.00047935                9.00738949                0.01000000               -0.02710885               -0.03946416                0.09174605               -0.02844700                0.00169063                0.00934379
               2.00142356                3.00007185                9.00730414                0.01000000               -0.03410514               -0.03774251                0.09408868               -0.02305720                0.00826333               -0.00550716
               3.00104412                2.99975879                9.00730859                0.01000003               -0.04092972               -0.03587138                0.09639441               -0.00424983                0.01668571               -0.01564823
               4.00060496                2.99964768                9.00744495                0.01000001               -0.04734333               -0.03371067                0.09880863                0.01893687                0.02463001               -0.02083961
               5.00009725                2.99975962                9.00770093                0.01000002               -0.05421581               -0.03339035                0.10140547                0.04207151                0.03088765               -0.02266326
               5.99952065                3.00009146                9.00808470                0.01000000               -0.06051594               -0.03486294                0.10408360                0.06041337                0.02894891               -0.01944211
               6.99888693                3.00052765                9.00845497                0.01000002               -0.08199879               -0.04198001                0.10885523                0.08734181                0.05915214               -0.02387868
               7.99788067                3.00123855                9.00968660                0.01000001               -0.06710450               -0.04502828                0.11588667                0.08162190               -0.00746784               -0.00170386
               8.99754484                3.00169138                9.00905998                0.01000000               -0.03257270               -0.05305073                0.10532352                0.06571274               -0.04470044                0.00738042
               9.99722922                3.00219198                9.00929571                0.07899170               -0.03156271               -0.08638280                0.10533903                0.07908355               -0.00166295                0.00330774
               0.00210608                4.00041399                9.00778202                0.01000003               -0.02647079               -0.02693285                0.09552528               -0.00970631               -0.00338294                0.03446601
               1.00184137                4.00005694                9.00755855                0.01006679               -0.02619265               -0.04298283                0.09463832               -0.01647637               -0.00127991                0.01148466
               2.00158222                3.99964842                9.00735682                0.01000001               -0.02884757               -0.04573946                0.09498762               -0.00919700                0.00573265               -0.00588407
               3.00126442                3.99936159                9.00726225                0.01000001               -0.03608697               -0.04362668                0.09629011                0.01081771                0.01664316               -0.01624467
               4.00086049                3.99927062                9.00731457                0.01000001               -0.04430902               -0.04161469                0.09905491                0.03428174                0.02712062               -0.01855059
               5.00037824                3.99939492                9.00751270                0.01003428               -0.05032217               -0.04099982                0.10195654                0.05561628                0.03427628               -0.01373259
               5.99985404                3.99969196                9.00782210                0.01000000               -0.05380625               -0.04391026                0.10413222                0.07475655                0.03989630               -0.00591642
               6.99930211                4.00013090                9.00826293                0.01000000               -0.05039728               -0.04886475                0.10810632                0.09169782                0.03253499                0.00783897
               7.99884610                4.00059676                9.00855001                0.01000001               -0.04448389               -0.06653749                0.11149838                0.11799736                0.02579093               -0.02305646
               8.99841244                4.00095153                9.00884917                0.01000000               -0.02707810               -0.07723776                0.11054310                0.09005335                0.01107030                0.01858819
               9.99830453                4.00078652                9.00885952                0.01000001               -0.01079009               -0.11004654                0.10803037                0.06863776                0.00179483                0.00026804
               0.00248569                5.00018193                9.00815354                0.01001335               -0.03234304               -0.01976915                0.10722226               -0.00498914               -0.00003894                0.05601317
               1.00216226                4.99961969                9.00778214                0.01000000               -0.02753635               -0.04551633                0.09963614               -0.00163904                0.00046873                0.01882883
               2.00193497                4.99915706                9.00745685                0.01000000               -0.02619948               -0.05087783                0.09419553                0.00966768                0.00792623               -0.01040990
               3.00163827                4.99888625                9.00724633                0.01000002               -0.03388494               -0.04997473                0.09559021                0.02947058                0.02109289               -0.01895494
               4.00125727                4.99881538                9.00724621                0.01003579               -0.04250185               -0.04698118                0.09866487                0.04780633                0.03661525               -0.01740015
               5.00078824                4.99893963                9.00743980                0.01000001               -0.04887375               -0.04717157                0.10322334                0.06352524                0.04769450               -0.00808966
               6.00027979                4.99921325                9.00777887                0.01000000               -0.04860771               -0.05071631                0.10623269                0.07251112                0.05241718                0.00679969
               6.99981608                4.99955036                9.00817739                0.01000000               -0.04299021               -0.06044569                0.10980783                0.07811905                0.05243624                0.02004040
               7.99941999                4.99990780                9.00858173                0.01000000               -0.03299637               -0.07171327                0.11326565                0.07562681                0.04399848                0.03761838
               8.99915616                5.00014663                9.00882651                0.01000001               -0.02439937               -0.07863504                0.11421399                0.05736936                0.02684240                0.04116949
               9.99893200                4.99999105                9.00883663                0.01005349               -0.02241537               -0.06560539                0.11252491                0.02940327                0.01740573                0.03329641
               0.00313078                6.00001860                9.00888667                0.95221310               -0.02973164               -0.02378211                0.10285777               -0.01179016               -0.00372341                0.03847691
               1.00283346                5.99914662                9.00822502                0.01000000               -0.03108813               -0.03812035                0.09560002                0.00701890               -0.00483062                0.00821222
               2.00250902                5.99863086                9.00754306                0.01000001               -0.03189775               -0.05726364                0.09424644                0.03445641                0.00384965               -0.01959794
               3.00219551                5.99836210                9.00724934                0.01000000               -0.03728888               -0.05024127                0.09403153                0.04746254                0.03183423               -0.02286967
               4.00176324                5.99833099                9.00723338                0.01000000               -0.04723171               -0.04778277                0.09744008                0.05827156                0.05064036               -0.01723305
               5.00125087                5.99845149                9.00746221                0.01000000               -0.05348512               -0.04665133                0.10288589                0.06353373                0.06550964               -0.00471459
               6.00069354                5.99867763                9.00787757                0.01000000               -0.05404612               -0.05043955                0.10873041                0.05901305                0.07418725                0.01446420
               7.00016995                5.99892199                9.00839921                0.01000000               -0.04655871               -0.06088044                0.11434835                0.04713634                0.07465467                0.03784345
               7.99976236                5.99916250                9.00890717                0.01000000               -0.03466892               -0.07488471                0.11877097                0.03638797                0.06509682                0.06152621
               8.99947657                5.99937883                9.00925757                0.01000000               -0.02793007               -0.07765919                0.12107239                0.02309833                0.04108959                0.08017170
               9.99920376                5.99947441                9.00925595                0.01000003               -0.02728121               -0.04823936                0.11945775                0.01228840                0.02521662                0.08167529
               0.00399387                6.99970629                9.00914894                1.00000000               -0.03034800               -0.03149348                0.10484656                0.00028125               -0.00235446                0.01867970
               1.00369039                6.99885728                9.00839101                0.99999997               -0.02926256               -0.02925545                0.09749144               -0.00009684               -0.00584769               -0.00202998
               2.00340861                6.99801179                9.00756461                0.01000000               -0.04014959               -0.04458999                0.09033995                0.03771964                0.01749890               -0.02121094
               3.00288739                6.99788143                9.00727692                0.01000002               -0.05376530               -0.05013718                0.09356400                0.06271261                0.04779958               -0.02693201
               4.00233331                6.99785973                9.00726393                0.01000000               -0.05875596               -0.04650584                0.09712263                0.06889384                0.06732291               -0.02106418
               5.00171227                6.99800660                9.00755226                0.01000000               -0.06718773               -0.03793196                0.10332689                0.06241252                0.08649030               -0.00312673
               6.00098955                6.99820446                9.00810178                0.01000000               -0.07191658               -0.03891440                0.11142939                0.03998458                0.09935448                0.01915202
               7.00027394                6.99833275                9.00882515                0.01000000               -0.06493229               -0.04984191                0.11954787                0.00840937                0.10386725                0.04885071
               7.99969091                6.99841010                9.00960885                0.01004143               -0.04838660               -0.07022534                0.12703626               -0.01771482                0.09270410                0.09078591
               8.99930621                6.99859344                9.01019356                0.01000001               -0.03521465               -0.08373536                0.13141604               -0.02088793                0.05762862                0.12887504
               9.99898662                6.99902626                9.01027416                0.01000000               -0.03195956               -0.05361372                0.13033258               -0.01446930                0.03373631                0.15739877
               0.00483442                7.99938874                9.00948578                0.99999999               -0.03083876               -0.03202479                0.10657063                0.00022794               -0.00085384                0.02264387
               1.00452603                7.99856151                9.00863128                1.00000000               -0.02975760               -0.02982246                0.09927876               -0.00004971               -0.00039614                0.00254533
               2.00423926                7.99773906                9.00778689                0.01000000               -0.04621052               -0.02752593                0.09198493                0.02181553                0.01674905               -0.01510780
               3.00360182                7.99735935                9.00727869                0.01000000               -0.06116611               -0.06076242                0.09308906                0.07759853                0.04780482               -0.05301041
               4.00301594                7.99740088                9.00726574                0.01000001               -0.07237148               -0.03447391                0.09693751                0.08541142                0.08652307               -0.02450241
               5.00215439                7.99769285                9.00767688                0.01000000               -0.09244308               -0.02048021                0.10410287                0.06246967                0.10968939               -0.00263590
               6.00116708                7.99789934                9.00837023                0.01000000               -0.10109458               -0.02032379                0.11357554                0.02434918                0.12504774                0.01945036
               7.00013250                7.99792515                9.00937300                0.01008786               -0.10098560               -0.02703094                0.12478478               -0.02283362                0.14266167                0.04890368
               7.99914737                7.99775799                9.01067099                0.01000000               -0.08449205               -0.04584064                0.13729414               -0.07331600                0.13755366                0.09695495
               8.99844266                7.99770412                9.01174716                0.01013702               -0.05493139               -0.08424992                0.14705557               -0.10467482                0.09290358                0.23185597
               9.99804874                7.99840213                9.01223937                0.01000001               -0.03939152               -0.11555103                0.14906782               -0.07768711                0.06387676                0.23833371
               0.00565288                8.99906580                9.00982610                0.99999999               -0.03138128               -0.03255605                0.10830022                0.00024060                0.00231881                0.01814103
               1.00533907                8.99826084                9.00889021                0.99999996               -0.03028996               -0.03029828                0.10095349               -0.00001999                0.00130685                0.00212881
               2.00504708                8.99746127                9.00793469                0.99999999               -0.02807576               -0.02806276                0.09354069               -0.00003671               -0.00468147               -0.01112754
               3.00477755                8.99666618                9.00688223                0.01000000               -0.06695188               -0.04765911                0.08602614                0.08325591                0.06353202               -0.04422814
               4.00370804                8.99717025                9.00729709                0.01000000               -0.11571743               -0.00452818                0.09585106                0.08349895                0.12264902               -0.01923289
               5.00246320                8.99759700                9.00778801                0.01000001               -0.12319027               -0.00234769                0.10382924                0.04512983                0.12325612               -0.00067154
               6.00124424                8.99779799                9.00859758                0.01000000               -0.12522897               -0.00430861                0.11474543                0.01265905                0.14256032                0.01395204
               6.99995862                8.99779213                9.00982868                0.01000001               -0.13993095               -0.00666413                0.12795116               -0.02281994                0.17302803                0.03146168
               7.99844562                8.99749329                9.01156114                0.01000001               -0.16950259               -0.00811365                0.14527824               -0.07493120                0.26212230                0.06984208
               8.99656857                8.99690844                9.01486335                1.00000000               -0.12043820               -0.06636271                0.18020437               -0.12406857                0.16093937                0.15537448
               9.99603685                8.99671524                9.01492440                0.99985675               -0.05317179               -0.10980875                0.17351727               -0.11024777               -0.00098424                0.13171389
               0.00644915                9.99873761                9.01007147                1.00000000               -0.03189927               -0.03281815                0.11000628                0.00141990                0.01254448                0.01344220
               1.00613016                9.99795554                9.00912363                1.00000000               -0.03079813               -0.03052928                0.10265733                0.00111863                0.01575813                0.00076005
               2.00583319                9.99717781                9.00824074                1.00000000               -0.02861000               -0.02834631                0.09529835                0.00114217                0.01575204               -0.00344771
               3.00555796                9.99640617                9.00729636                0.01165353               -0.10390404               -0.02600078                0.08794354                0.08466584                0.06391831               -0.00410564
               4.00375510                9.99731031                9.00738312                0.01000000               -0.15643533                0.01400617                0.09425646                0.06669258                0.10168069               -0.00839948
               5.00242925                9.99764590                9.00786816                0.01000001               -0.12649873                0.00488998                0.10275937                0.02174764                0.11729813                0.00425402
               6.00122513                9.99781317                9.00867446                0.01000003               -0.12242269                0.00151831                0.11359204                0.00538810                0.14089081                0.01218599
               6.99998080                9.99779187                9.00995286                0.01000000               -0.13463509               -0.00002589                0.12699390               -0.00865532                0.19111466                0.02045764
               7.99853243                9.99759572                9.01203262                0.01000000               -0.16207298                0.01024271                0.14780870               -0.06206883                0.25619853                0.05569834
               8.99673934                9.99637687                9.01489442                0.99985358               -0.11511158               -0.05315753                0.17343269               -0.05241138                0.14127914                0.00124185
               9.99623020                9.99620596                9.01495545                1.00000000               -0.05091387               -0.05092802                0.16674754                0.00224338                0.00110676               -0.00110825
               0.00128810                0.00176647               10.00825154                1.00000000               -0.02460212               -0.02470569                0.08149282                0.00045173               -0.00366020                0.00341844
               1.00104208                0.00134732               10.00819161                0.99999933               -0.02476348               -0.02505585                0.08262994                0.00018580               -0.00407556               -0.00108339
               2.00079283                0.00093386               10.00812527                0.01000000               -0.01975716               -0.02540349                0.08377135                0.00184058                0.01176517               -0.00171241
               3.00064694                0.00055966               10.00838295                0.01000001               -0.01459441               -0.03014597                0.09264810               -0.00392037                0.03803809               -0.00836572
               4.00050094                0.00047188               10.00883740                0.01000000               -0.01658336               -0.03042681                0.10044357                0.00113500                0.06366555               -0.01140084
               5.00031527                0.00070854               10.00961022                0.01000001               -0.02470190               -0.03163234                0.10804198                0.01176018                0.09608061               -0.01633085
               6.00000690                0.00139600               10.01075940                0.42557734               -0.03275291               -0.03495449                0.11689550                0.00438181                0.06316439               -0.00094993
               6.99966021                0.00197812               10.01109073                1.00000000               -0.03482294               -0.03445506                0.11675251               -0.00014637                0.01493100               -0.00331573
               7.99931044                0.00255256               10.01127601                1.00000000               -0.03501426               -0.03446383                0.11679185                0.00008367                0.00861028               -0.00038933
               8.99895992                0.00311585               10.01148069                1.00000000               -0.03511905               -0.03453079                0.11705083                0.00007206                0.00761241                0.00087437
               9.99860806                0.00366686               10.01164638                1.00000000               -0.03518606               -0.03460468                0.11731140                0.00066252                0.00563213                0.00517227
               0.00171178                1.00151942               10.00825439                1.00000000               -0.02515307               -0.02496337                0.08326525                0.00028581                0.00102107                0.00368610
               1.00146024                1.00109676               10.00819574                0.01000000               -0.02533571               -0.02533023                0.08440708                0.00002157                0.00268395               -0.00280780
               2.00120506                1.00067982               10.00817037                0.01000000               -0.03107612               -0.02992775                0.08554273               -0.01131681                0.01706498               -0.00168598
               3.00083872                1.00025821               10.00839815                0.01000000               -0.03836038               -0.02808320                0.09366844               -0.00944579                0.03331951               -0.01139501
               4.00043785                1.00016761               10.00878261                0.01000528               -0.04339574               -0.02822529                0.09908621                0.00506002                0.04674441               -0.01588664
               4.99997081                1.00039222               10.00938496                0.01000000               -0.05109610               -0.02889273                0.10503629                0.02332371                0.07361685               -0.01995421
               5.99941593                1.00104646               10.01044530                0.01000000               -0.04451716               -0.04066625                0.11303346                0.02597797                0.05058951               -0.02950957
               6.99908046                1.00163357               10.01070723                1.00000000               -0.03367576               -0.03383492                0.11268755                0.00011466                0.00586716               -0.00352020
               7.99874242                1.00220793               10.01087463                0.99999998               -0.03384834               -0.03388270                0.11288895                0.00007779                0.00124153               -0.00030605
               8.99840350                1.00277054               10.01104461                0.99999996               -0.03393673               -0.03395062                0.11317600                0.00005641                0.00086082                0.00040957
               9.99806368                1.00332081               10.01120540                0.99999997               -0.03398157               -0.03403129                0.11344412                0.00060869                0.00033726                0.00642584
               0.00213914                2.00126721               10.00826410                0.01000000               -0.02570317               -0.03924456                0.08503616               -0.02407022                0.00154804                0.01270301
               1.00188210                2.00084071               10.00816574                0.01000000               -0.03670451               -0.03318756                0.08618834               -0.02745263                0.00903161                0.00469788
               2.00140505                2.00033530               10.00821515                0.01000001               -0.04559350               -0.03495295                0.09122987               -0.02513254                0.01659556               -0.00410192
               3.00097023                1.99999800               10.00833821                0.01000000               -0.04684581               -0.02985419                0.09492679               -0.00622403                0.02432988               -0.01484213
               4.00046813                1.99990737               10.00861302                0.01000001               -0.05336701               -0.02856351                0.09858768                0.01768322                0.03447715               -0.02117154
               4.99990289                2.00013069               10.00905249                0.01000001               -0.05915098               -0.02979737                0.10282369                0.03984248                0.03963699               -0.02544146
               5.99928511                2.00058268               10.00956305                0.01000001               -0.07009307               -0.03995438                0.10668519                0.05952147                0.05041495               -0.04483158
               6.99850103                2.00130142               10.01031894                0.01000000               -0.05550411               -0.04119603                0.10864704                0.04563549                0.02532440               -0.01882060
               7.99817503                2.00187491               10.01047481                0.02763571               -0.03264335               -0.03329949                0.10896262                0.00490124               -0.00629615                0.01489944
               8.99784817                2.00243684               10.01059985                0.99999999               -0.03276635               -0.03279549                0.10936052                0.00006680               -0.00465253               -0.00212643
               9.99751970                2.00298623               10.01079049                0.99999999               -0.03284652               -0.03288972                0.10961241                0.00059887               -0.00146627                0.00641334
               0.00208336                3.00073453               10.00844699                0.01000001               -0.02402662               -0.04299536                0.09289613               -0.02170922               -0.00079614                0.02500165
               1.00184310                3.00043301               10.00831851                0.01000000               -0.02691210               -0.04428940                0.09255584               -0.02932661                0.00215150                0.01166021
               2.00154512                2.99998076               10.00823977                0.01000000               -0.03504610               -0.04154685                0.09343086               -0.01900007                0.01023405               -0.00554803
               3.00114217                2.99966112               10.00827091                0.01002411               -0.04431441               -0.03856741                0.09595383                0.00526990                0.01977431               -0.01579760
               4.00065883                2.99959634               10.00843419                0.01000001               -0.05249114               -0.03609518                0.09889860                0.03408510                0.02831083               -0.02042051
               5.00009235                2.99979627               10.00872595                0.01000002               -0.06116039               -0.03703247                0.10235529                0.06158244                0.03463056               -0.02148648
               5.99943562                3.00024737               10.00913157                0.01000000               -0.06957060               -0.03938511                0.10572102                0.08128623                0.03751392               -0.01714721
               6.99870094                3.00080965               10.00962977                0.01000000               -0.08652999               -0.04706947                0.10990462                0.10372757                0.04772045               -0.02072654
               7.99770502                3.00154194               10.01037845                0.01000000               -0.07037149               -0.04750272                0.09188262                0.09624385               -0.00041962                0.00010232
               8.99729351                3.00211463               10.01011449                0.01000000               -0.03640770               -0.05792942                0.10561021                0.08279315               -0.02656803                0.01150920
               9.99697687                3.00266302               10.01035091                0.12525506               -0.03166389               -0.09766768                0.10575203                0.09496635               -0.00166145                0.00655738
               0.00230799                4.00040730               10.00874552                0.01000003               -0.02586576               -0.02883040                0.09663907               -0.00768236               -0.00323441                0.03682245
               1.00204933                3.99995492               10.00850156                0.01000847               -0.02555317               -0.04893971                0.09461050               -0.00954855               -0.00018611                0.01183845
               2.00179693                3.99950437               10.00830057                0.01000001               -0.02946379               -0.05136678                0.09456889                0.00203191                0.00873001               -0.00702754
               3.00146006                3.99922665               10.00822631                0.01000001               -0.03911232               -0.04812486                0.09637572                0.02552375                0.02078224               -0.01718064
               4.00101468                3.99918547               10.00830600                0.01000000               -0.04882732               -0.04539991                0.09902670                0.05210426                0.03181973               -0.01822245
               5.00048351                3.99939004               10.00853571                0.01000000               -0.05586139               -0.04513579                0.10241144                0.07655224                0.04006401               -0.01242052
               5.99989745                3.99979497               10.00888361                0.01000001               -0.06012481               -0.04922983                0.10596188                0.09957467                0.04516298               -0.00266418
               6.99928102                4.00036003               10.00933352                0.01000001               -0.05512668               -0.05538983                0.10754334                0.11915770                0.04150188                0.00723880
               7.99879492                4.00092486               10.00973533                0.01004729               -0.04490350               -0.07038370                0.11107373                0.13818915                0.02730101               -0.00132492
               8.99838295                4.00127825               10.00994449                0.01000000               -0.02363307               -0.08704621                0.10882973                0.10622252                0.00736579                0.02677459
               9.99832226                4.00103288               10.00994118                0.01000001               -0.00606867               -0.12606996                0.10817746                0.08228895                0.00197537                0.00684806
               0.00283447                5.00015792               10.00918942                0.01000001               -0.02794090               -0.02548297                0.10198325                0.00380554               -0.00447810                0.05621477
               1.00255506                4.99945421               10.00876565                0.01000000               -0.02602195               -0.05193967                0.09761915                0.01196986                0.00122787                0.01660378
               2.00231403                4.99895343               10.00839895                0.01000001               -0.02917553               -0.05645902                0.09479982                0.02581383                0.01169089               -0.01203442
               3.00197155                4.99869862               10.00820808                0.01000002               -0.03882481               -0.05591789                0.09645350                0.04885230                0.02708836               -0.02047081
               4.00153753                4.99868834               10.00823900                0.01000000               -0.04788294               -0.05164817                0.09943315                0.06845485                0.04298918               -0.01697630
               5.00101389                4.99889355               10.00846708                0.01000001               -0.05402055               -0.05152729                0.10300695                0.08489579                0.05474330               -0.00594226
               6.00045712                4.99926277               10.00884350                0.01000000               -0.05298392               -0.05605302                0.10672061                0.09501863                0.06033823                0.01057033
               6.99995421                4.99970185               10.00928575                0.01000001               -0.04532658               -0.06822108                0.11084684                0.10072166                0.05885335                0.02702392
               7.99955059                5.00013426               10.00970399                0.01000000               -0.03221377               -0.08187971                0.11272776                0.09412992                0.04904430                0.04216212
               8.99930994                5.00037371               10.00997024                0.01000000               -0.02185991               -0.08785349                0.11359211                0.06801688                0.02967553                0.05062719
               9.99911339                5.00014162               10.00996161                0.01000000               -0.01965437               -0.07202663                0.11253389                0.03456367                0.01845497                0.04202871
               0.00379152                5.99989764               10.00991558                0.93956791               -0.02982941               -0.02862518                0.10291386               -0.00163956               -0.00372114                0.03749623
               1.00349322                5.99891613               10.00918363                0.01000000               -0.03613615               -0.04143441                0.09610919                0.01914953               -0.00197347                0.00623777
               2.00306879                5.99837519               10.00848837                0.01000001               -0.03955142               -0.06421518                0.09477868                0.05275490                0.00949741               -0.02296081
               3.00270219                5.99810829               10.00820241                0.01000000               -0.04399721               -0.05573750                0.09584043                0.06815111                0.03970460               -0.02502470
               4.00218885                5.99815250               10.00822542                0.01000001               -0.05475987               -0.05323039                0.09954329                0.08130781                0.05990751               -0.01776459
               5.00160700                5.99835949               10.00849550                0.01000000               -0.05996603               -0.05096843                0.10382130                0.08486789                0.07525923               -0.00232408
               6.00098953                5.99867391               10.00896864                0.01000000               -0.05915186               -0.05500781                0.10929219                0.07770322                0.08427830                0.01951569
               7.00042396                5.99899561               10.00954277                0.01000000               -0.04919325               -0.06742940                0.11457766                0.06232371                0.08431297                0.04629791
               8.00000566                5.99928726               10.01010026                0.01000000               -0.03440161               -0.08385057                0.11916100                0.04672887                0.07298467                0.07304294
               8.99973593                5.99952118               10.01046951                0.01000000               -0.02639744               -0.08587353                0.12121333                0.02831232                0.04546252                0.09303955
               9.99947771                5.99959235               10.01045032                0.01000000               -0.02582122               -0.05057610                0.11952029                0.01490883                0.02734505                0.09482541
               0.00476470                6.99958541               10.01019743                1.00000000               -0.03041932               -0.03146530                0.10485422                0.00028271               -0.00245433                0.01887280
               1.00446050                6.99862552               10.00936785                1.00000000               -0.02938679               -0.02936451                0.09789374               -0.00007225               -0.00585748               -0.00190283
               2.00417696                6.99766912               10.00847157                0.01000000               -0.04516258               -0.04905521                0.09109723                0.05045523                0.02280766               -0.02401621
               3.00355725                6.99758387               10.00821894                0.01000000               -0.06322347               -0.05426003                0.09431353                0.08112719                0.05785083               -0.02985180
               4.00291249                6.99762373               10.00824425                0.01000001               -0.06837076               -0.05088482                0.09840024                0.09100804                0.07927463               -0.02317342
               5.00218984                6.99787419               10.00859320                0.01000001               -0.07687133               -0.04042421                0.10479028                0.08368218                0.09939319               -0.00125434
               6.00137507                6.99816261               10.00921728                0.01000000               -0.08012505               -0.04074719                0.11185477                0.05456879                0.11322591                0.02441294
               7.00058734                6.99835327               10.01002624                0.01000000               -0.07077337               -0.05327988                0.12004420                0.01527838                0.11686811                0.05746609
               7.99995960                6.99845725               10.01087145                0.01000002               -0.05081203               -0.07591408                0.12651210               -0.01745518                0.10433007                0.10455848
               8.99957110                6.99865624               10.01150368                0.01000001               -0.03451811               -0.09111419                0.13146818               -0.02264787                0.06537618                0.14643164
               9.99926924                6.99913010               10.01158558                0.01000002               -0.03018600               -0.05675436                0.13077750               -0.01568812                0.03848031                0.17559894
               0.00571695                7.99926833               10.01055091                0.99999999               -0.03088852               -0.03197266                0.10647586                0.00024744               -0.00083645                0.02269660
               1.00540807                7.99832884               10.00962565                1.00000000               -0.02987025               -0.02991189                0.09961830               -0.00001364               -0.00038522                0.00257143
               2.00511955                7.99739408               10.00871042                0.01000000               -0.05189683               -0.02775592                0.09275033                0.02790754                0.02105653               -0.01522776
               3.00437013                7.99702309               10.00821753                0.01000000               -0.07004248               -0.06892570                0.09359129                0.09758629                0.06009513               -0.06217448
               4.00371870                7.99713481               10.00823405                0.01006177               -0.08141871               -0.03519518                0.09632255                0.10633809                0.09977916               -0.02614747
               5.00274176                7.99755101               10.00871938                0.01000000               -0.10584365               -0.01873293                0.10463743                0.08073689                0.12470692               -0.00124976
               6.00160182                7.99785897               10.00951298                0.01000000               -0.11534326               -0.01813770                0.11453436                0.03432469                0.14134487                0.02403506
               7.00043489                7.99793001               10.01061240                0.01000001               -0.11241192               -0.02594498                0.12439189               -0.02229742                0.16084999                0.05663845
               7.99935359                7.99776898               10.01203349                0.01000000               -0.09123842               -0.04658513                0.13766613               -0.08113424                0.15437637                0.11079993
               8.99861012                7.99769890               10.01319669                0.01000001               -0.05686749               -0.08669200                0.14593745               -0.11765364                0.10444695                0.26282630
               9.99821624                7.99845726               10.01369683                0.01000001               -0.03938864               -0.12109512                0.14661811               -0.08765594                0.07067429                0.26603896
               0.00664864                8.99894596               10.01090851                1.00000000               -0.03141507               -0.03250519                0.10818584                0.00025136                0.00231103                0.01818942
               1.00633449                8.99802729               10.00990139                1.00000000               -0.03038886               -0.03039023                0.10128828                0.00000126                0.00127374                0.00210707
               2.00604086                8.99711401               10.00887421                0.99999999               -0.02831158               -0.02829377                0.09435869               -0.00000397               -0.00477843               -0.01123447
               3.00576825                8.99620536               10.00774939                0.01000000               -0.07647584               -0.05408480                0.08737048                0.10494030                0.07192938               -0.04876541
               4.00451134                8.99691983               10.00826254                0.01000000               -0.13439200                0.00034245                0.09631188                0.10458387                0.13801158               -0.02075837
               5.00308041                8.99749953               10.00883007                0.01000000               -0.14143943                0.00328080                0.10438395                0.05570924                0.13847855                0.00033487
               6.00168255                8.99779986               10.00975118                0.01000000               -0.14245179                0.00071282                0.11567649                0.01769671                0.16024599                0.01628687
               7.00023138                8.99783437               10.01110036                0.01000001               -0.15572611               -0.00194773                0.12797753               -0.02329744                0.19459505                0.03704916
               7.99856803                8.99752555               10.01301118                0.01000001               -0.18508172               -0.00343176                0.14595327               -0.08052394                0.29354027                0.07987901
               8.99652974                8.99692240               10.01666157                0.99999997               -0.12843193               -0.06534075                0.17944144               -0.13516630                0.18151427                0.17600215
               9.99599939                8.99670819               10.01665940                0.99999999               -0.05303512               -0.11297957                0.17348535               -0.12154954               -0.00098890                0.14877238
               0.00755933                9.99861823               10.01117089                1.00000000               -0.03192831               -0.03277308                0.10987264                0.00134998                0.01257543                0.01347353
               1.00724005                9.99772104               10.01015180                1.00000000               -0.03089686               -0.03062505                0.10297422                0.00105502                0.01579533                0.00074382
               2.00694139                9.99682821               10.00919766                0.99999999               -0.02884663               -0.02858004                0.09607775                0.00107166                0.01579995               -0.00348660
               3.00666312                9.99594140               10.00818199                0.01000001               -0.12125928               -0.02639619                0.08917477                0.10515865                0.07064200               -0.00411706
               4.00451621                9.99714166               10.00833072                0.01000002               -0.18436033                0.02218278                0.09548232                0.08424788                0.11479480               -0.00998544
               5.00297591                9.99761662               10.00890396                0.01000343               -0.14476437                0.01170957                0.10414179                0.02612795                0.13167754                0.00511952
               6.00162092                9.99787322               10.00981376                0.01000000               -0.13663263                0.00733643                0.11437943                0.00755857                0.15828646                0.01323520
               7.00024326                9.99789106               10.01122883                0.01000001               -0.14829230                0.00566935                0.12779298               -0.00745624                0.21336800                0.02438952
               7.99865507                9.99770034               10.01351409                0.01000003               -0.17595527                0.01747967                0.14782599               -0.06624449                0.28484642                0.06325881
               8.99672415                9.99639208               10.01662890                0.99999999               -0.12207096               -0.05303167                0.17346754               -0.05569310                0.15708692                0.00123800
               9.99621366                9.99619767               10.01662677                0.99999999               -0.05104951               -0.05105259                0.16751180                0.00198492                0.00111161               -0.00110441
               0.00130577                0.00178892               11.00906843                0.99996173               -0.02469846               -0.02478024                0.08189123                0.00037760               -0.00365850                0.00341691
               1.00105879                0.00132352               11.00901902                0.99999685               -0.02483707               -0.02508004                0.08285833                0.00015853               -0.00407371               -0.00107727
               2.00080903                0.00086286               11.00896323                0.01000002               -0.01941732               -0.02537946                0.08382727                0.00274139                0.01563135               -0.00170511
               3.00067044                0.00045891               11.00930892                0.01000000               -0.01415449               -0.02953754                0.09248829               -0.00302583                0.04609609               -0.00781530
               4.00052594                0.00041736               11.00983923                0.01000000               -0.01768059               -0.02930575                0.09994288                0.00485055                0.07150401               -0.01178758
               5.00031683                0.00078360               11.01068605                0.01000001               -0.03151294               -0.03014631                0.10727908                0.02040234                0.10463202               -0.01663529
               5.99989568                0.00171601               11.01192504                0.41150634               -0.03834381               -0.03429333                0.11589962                0.01448315                0.06721983               -0.00123144
               6.99954995                0.00234770               11.01225724                1.00000000               -0.03476821               -0.03438739                0.11650407               -0.00000632                0.01471116               -0.00348340
               7.99920032                0.00296943               11.01244361                0.99999999               -0.03501349               -0.03445588                0.11671501                0.00008345                0.00851813               -0.00040661
               8.99884968                0.00358011               11.01265136                0.99999996               -0.03513593               -0.03455726                0.11707563                0.00007482                0.00763190                0.00088333
               9.99849760                0.00417906               11.01282009                1.00000000               -0.03520841               -0.03466338                0.11743693                0.00065330                0.00565839                0.00519303
               0.00177494                1.00154112               11.00908750                1.00000000               -0.02515397               -0.02499336                0.08335675                0.00023403                0.00101928                0.00368476
               1.00152340                1.00107272               11.00903938                0.01000000               -0.02530962               -0.02530529                0.08432571                0.00001546                0.00268194               -0.00280469
               2.00126875                1.00060906               11.00902452                0.01000000               -0.03302348               -0.03055162                0.08529348               -0.01179864                0.02057864                0.00030386
               3.00086293                1.00016354               11.00933326                0.01000000               -0.04283249               -0.02747457                0.09331170               -0.00706159                0.03956694               -0.01091567
               4.00041210                1.00012430               11.00977351                0.01000000               -0.04957043               -0.02737706                0.09925886                0.01252578                0.05245962               -0.01616955
               4.99987152                1.00048214               11.01043672                0.01000000               -0.05768182               -0.02853478                0.10533028                0.03776240                0.07997154               -0.02027292
               5.99925846                1.00137308               11.01157284                0.01000000               -0.04741730               -0.04548519                0.11216474                0.03908250                0.05391228               -0.03041297
               6.99892318                1.00200383               11.01183408                1.00000000               -0.03367572               -0.03380749                0.11263331               -0.00005290                0.00564325               -0.00364543
               7.99858495                1.00262487               11.01200397                0.99999998               -0.03387799               -0.03389639                0.11295556                0.00004761                0.00123629               -0.00032533
               8.99824562                1.00323453               11.01217717                0.99999996               -0.03398845               -0.03399852                0.11333146                0.00003726                0.00089899                0.00044612
               9.99790518                1.00383242               11.01234103                0.99999999               -0.03404384               -0.03410647                0.11369604                0.00058122                0.00036852                0.00645004
               0.00224724                2.00128905               11.00911341                0.01000000               -0.02560886               -0.04009555                0.08482161               -0.02557207                0.00154900                0.01560747
               1.00199115                2.00081742               11.00902564                0.01000000               -0.03824968               -0.03479998                0.08579472               -0.02920817                0.01102202                0.00699853
               2.00148224                2.00025182               11.00912545                0.01000001               -0.04885879               -0.03667951                0.09082082               -0.02504549                0.02049593               -0.00157214
               3.00101397                1.99990942               11.00928543                0.01000000               -0.05121959               -0.03043988                0.09448494                0.00001221                0.02793069               -0.01446680
               4.00045785                1.99986981               11.00959888                0.01000703               -0.05953381               -0.02890065                0.09872221                0.03037619                0.03883807               -0.02108373
               4.99982330                2.00021291               11.01008324                0.01000001               -0.06511043               -0.03177323                0.10323522                0.05787253                0.04357878               -0.02525674
               5.99915564                2.00080631               11.01062789                0.01000007               -0.07630995               -0.04725613                0.10637140                0.07836461                0.05330210               -0.04484654
               6.99829710                2.00167155               11.01140633                0.01000001               -0.05925403               -0.04526406                0.10878465                0.05782456                0.02632354               -0.02014985
               7.99797056                2.00229151               11.01156569                0.03435604               -0.03271098               -0.03223999                0.10918044                0.00155966               -0.00618994                0.01955457
               8.99764288                2.00290014               11.01169474                0.99999999               -0.03285601               -0.03288061                0.10962251                0.00004132               -0.00455462               -0.00203989
               9.99731344                2.00349693               11.01188833                1.00000000               -0.03294357               -0.03299926                0.10997855                0.00057761               -0.00142675                0.00642583
               0.00220677                3.00073920               11.00937063                0.01000000               -0.02303023               -0.04405235                0.09195363               -0.02214507               -0.00025062                0.03032414
               1.00197646                3.00037672               11.00924060                0.01000000               -0.02654650               -0.04854237                0.09191257               -0.02861414                0.00362891                0.01491546
               2.00167584                2.99987547               11.00917276                0.01000000               -0.03656389               -0.04515654                0.09314066               -0.01360734                0.01272849               -0.00506689
               3.00124519                2.99955474               11.00922767                0.01000000               -0.04798504               -0.04143031                0.09567457                0.01657355                0.02319765               -0.01579146
               4.00071614                2.99954629               11.00942293                0.01000001               -0.05763526               -0.03842255                0.09876973                0.05107838                0.03210414               -0.02002417
               5.00009248                2.99984668               11.00974804                0.01000000               -0.06745124               -0.04037643                0.10214866                0.08301412                0.03926412               -0.02025454
               5.99936711                3.00042796               11.01019912                0.01000000               -0.07490053               -0.04397828                0.10552248                0.10278591                0.03931950               -0.01500213
               6.99859447                3.00109855               11.01065307                0.01000000               -0.09897768               -0.05259267                0.10495377                0.12677291                0.05444496               -0.01875592
               7.99738756                3.00198008               11.01152425                0.01012612               -0.07767247               -0.05233954                0.10434213                0.11444773               -0.00234962                0.00433183
               8.99704102                3.00257692               11.01117218                0.01000001               -0.03322051               -0.06344318                0.10595043                0.09516931               -0.03106394                0.01466009
               9.99672315                3.00317244               11.01141075                0.13882252               -0.03178744               -0.10920754                0.10624323                0.11141319               -0.00166240                0.00954189
               0.00252930                4.00040800               11.00971480                0.01000003               -0.02467005               -0.03015160                0.09658945               -0.00429825               -0.00329686                0.04116320
               1.00228260                3.99984657               11.00945076                0.01000000               -0.02486084               -0.05535086                0.09507879               -0.00292395                0.00096143                0.01324445
               2.00203208                3.99934869               11.00924819                0.01000891               -0.03039834               -0.05734486                0.09499622                0.01423843                0.01151268               -0.00725743
               3.00167463                3.99908081               11.00918977                0.01000001               -0.04222993               -0.05270020                0.09635231                0.04237382                0.02486279               -0.01761936
               4.00118748                3.99910136               11.00929510                0.01000001               -0.05363610               -0.04949209                0.09899986                0.07332366                0.03680232               -0.01772502
               5.00060191                3.99940538               11.00956093                0.01000000               -0.06139963               -0.04928411                0.10235795                0.10057458                0.04520350               -0.01029312
               5.99995949                3.99992674               11.00994134                0.01001184               -0.06607362               -0.05441644                0.10556435                0.12575519                0.05014149                0.00000289
               6.99928044                4.00061970               11.01041380                0.01000001               -0.05891741               -0.06084836                0.10734321                0.14280813                0.04353447                0.01368176
               7.99878114                4.00124472               11.01077149                0.01000001               -0.04632682               -0.07969826                0.10613656                0.16702015                0.03007709                0.00089568
               8.99835390                4.00163127               11.01102577                0.01000000               -0.02152350               -0.09713846                0.10761058                0.12595482                0.01039773                0.03421890
               9.99835067                4.00131278               11.01102307                0.01000000               -0.00032281               -0.14249798                0.10808371                0.09791140                0.00313525                0.01293681
               0.00324367                5.00013617               11.01019320                0.01000002               -0.02663739               -0.03237443                0.09992118                0.01290115               -0.00315370                0.05924154
               1.00297729                4.99926971               11.00973453                0.01000000               -0.02586537               -0.05886985                0.09700723                0.02655038                0.00214912                0.01570551
               2.00272636                4.99872858               11.00935284                0.01000001               -0.03186508               -0.06248364                0.09570641                0.04395630                0.01510834               -0.01360479
               3.00233999                4.99850073               11.00917540                0.01000000               -0.04341586               -0.06150346                0.09677563                0.07028934                0.03269660               -0.02132111
               4.00185804                4.99855644               11.00923488                0.01000000               -0.05306992               -0.05654591                0.09957003                0.09205409                0.04982346               -0.01656979
               5.00127859                4.99886099               11.00949994                0.01000001               -0.05950744               -0.05632441                0.10322989                0.10970517                0.06199877               -0.00367871
               6.00066790                4.99933963               11.00991328                0.01000001               -0.05729671               -0.06162857                0.10714984                0.11964603                0.06766753                0.01470588
               7.00013266                4.99988158               11.01039433                0.01000002               -0.04757546               -0.07561214                0.11058323                0.12453231                0.06551897                0.03309646
               7.99971639                5.00038611               11.01083629                0.01000000               -0.03203028               -0.08944060                0.11268070                0.11333744                0.05381465                0.05193339
               8.99949205                5.00063415               11.01109835                0.01000000               -0.01990107               -0.09625481                0.11341899                0.08091146                0.03258679                0.06059742
               9.99931836                5.00032248               11.01108731                0.01000002               -0.01736902               -0.07829188                0.11227598                0.04075129                0.02090157                0.05067713
               0.00452025                5.99976052               11.01094495                0.92677826               -0.02990518               -0.03438791                0.10292919                0.00887958               -0.00372400                0.03812680
               1.00422120                5.99866917               11.01014721                0.01000000               -0.04200378               -0.04462486                0.09657389                0.03301559                0.00067258                0.00520649
               2.00368018                5.99809902               11.00943863                0.01000007               -0.04843265               -0.07095809                0.09525456                0.07344475                0.01477470               -0.02649486
               3.00325255                5.99785074               11.00916614                0.01000000               -0.05059365               -0.06157318                0.09645480                0.09015810                0.04668002               -0.02656228
               4.00266831                5.99797045               11.00922425                0.01001512               -0.06198603               -0.05844106                0.10001363                0.10573186                0.06864780               -0.01791231
               5.00201283                5.99827889               11.00953864                0.01000001               -0.06682407               -0.05516807                0.10468661                0.10861211                0.08456397                0.00020930
               6.00133182                5.99869417               11.01006342                0.01000001               -0.06441147               -0.05956220                0.10965069                0.09908518                0.09399502                0.02443674
               7.00072460                5.99910746               11.01069076                0.01000000               -0.05182536               -0.07345692                0.11453920                0.07931038                0.09368968                0.05377682
               8.00029532                5.99945590               11.01129039                0.01000000               -0.03444202               -0.09090337                0.11871228                0.05912011                0.08053879                0.08330728
               9.00003576                5.99970618               11.01168183                0.01000000               -0.02531366               -0.09196274                0.12110887                0.03492911                0.04977900                0.10643979
               9.99978904                5.99974694               11.01164636                0.01000001               -0.02467152               -0.05153772                0.11975574                0.01777933                0.02943247                0.10720472
               0.00560394                6.99944841               11.01124603                1.00000000               -0.03048441               -0.03144619                0.10484355                0.00027739               -0.00259360                0.01902139
               1.00529910                6.99837721               11.01034889                1.00000000               -0.02951301               -0.02948854                0.09830909               -0.00006929               -0.00591105               -0.00182508
               2.00501368                6.99730941               11.00938656                0.01000001               -0.05136848               -0.05335794                0.09192454                0.06401957                0.02758933               -0.02664284
               3.00427173                6.99726927               11.00916319                0.01000000               -0.07345745               -0.06326656                0.09592360                0.10528719                0.06690056               -0.03143993
               4.00354454                6.99738762               11.00923193                0.01000001               -0.07723094               -0.05554049                0.09950200                0.11648689                0.08945380               -0.02420426
               5.00272711                6.99775763               11.00964806                0.01000001               -0.08617508               -0.04239499                0.10556511                0.10587647                0.11116448                0.00056356
               6.00182103                6.99814838               11.01033887                0.01000000               -0.08849881               -0.04240133                0.11217370                0.07119704                0.12537228                0.02973981
               7.00095714                6.99841244               11.01122604                0.01000000               -0.07604831               -0.05618288                0.11977337                0.02620276                0.12950268                0.06594956
               8.00030007                6.99856804               11.01213909                0.01000001               -0.05287681               -0.08108221                0.12685950               -0.01311258                0.11585636                0.11892685
               8.99989960                6.99879490               11.01282292                0.01000000               -0.03538220               -0.09517047                0.13172845               -0.02219137                0.07263360                0.16438975
               9.99959242                6.99929173               11.01288971                0.01000001               -0.03071762               -0.05489223                0.13039179               -0.01667250                0.04155990                0.19413227
               0.00666821                7.99913159               11.01161530                0.99999999               -0.03093958               -0.03194073                0.10640524                0.00025118               -0.00082809                0.02271463
               1.00635882                7.99807940               11.01062364                1.00000000               -0.02998528               -0.03001952                0.09998947                0.00000039               -0.00038126                0.00258977
               2.00606851                7.99703186               11.00964189                0.01122924               -0.05393666               -0.02800412                0.09356049                0.02979185                0.02445330               -0.01529754
               3.00528008                7.99658541               11.00915052                0.01013405               -0.07794126               -0.07714267                0.09088372                0.11919270                0.06869804               -0.06653654
               4.00450968                7.99685964               11.00919219                0.01000001               -0.09552432               -0.03646039                0.09763950                0.13443184                0.11177167               -0.02764796
               5.00336960                7.99743099               11.00976963                0.01000000               -0.12043635               -0.01692581                0.10585187                0.10017668                0.13832000                0.00032044
               6.00210096                7.99784614               11.01066092                0.01000000               -0.12703013               -0.01627176                0.11456689                0.04553159                0.15651653                0.02850581
               7.00082899                7.99798380               11.01186084                0.01000000               -0.12251735               -0.02478818                0.12508906               -0.01892489                0.17921853                0.06466801
               7.99965061                7.99783426               11.01342431                0.01000000               -0.09803732               -0.04788908                0.13876749               -0.08629391                0.17212837                0.12548092
               8.99886825                7.99780277               11.01466590                0.01000000               -0.05943345               -0.08993121                0.14700904               -0.12670645                0.11519811                0.29277419
               9.99846194                7.99864910               11.01517173                0.01000000               -0.04063091               -0.12654896                0.14830341               -0.09391794                0.07713777                0.29475931
               0.00771335                8.99880960               11.01198981                1.00000000               -0.03145094               -0.03246355                0.10807823                0.00025289                0.00231173                0.01823793
               1.00739884                8.99777682               11.01091597                1.00000000               -0.03049181               -0.03049092                0.10163332                0.00001026                0.00126011                0.00210068
               2.00710351                8.99674933               11.00982186                0.99999999               -0.02855127               -0.02853445                0.09516751                0.00000465               -0.00483068               -0.01129436
               3.00682781                8.99572642               11.00862964                0.01000001               -0.08579577               -0.05633919                0.08865725                0.12333694                0.07924985               -0.05230065
               4.00538759                8.99665841               11.00922333                0.01000000               -0.15418370                0.00573030                0.09622023                0.12560246                0.15322447               -0.02117306
               5.00374414                8.99741912               11.00987569                0.01000000               -0.16043681                0.00847580                0.10572393                0.06873487                0.15352779                0.00174362
               6.00217886                8.99782295               11.01091111                0.01000000               -0.15768073                0.00532816                0.11630720                0.02312938                0.17778943                0.01865300
               7.00059052                8.99791668               11.01238823                0.01000000               -0.17118189                0.00194595                0.12905410               -0.02469309                0.21608067                0.04207219
               7.99875522                8.99761026               11.01448020                0.01000001               -0.20199447                0.00103988                0.14657993               -0.08708614                0.32506376                0.08904791
               8.99655063                8.99699627               11.01845218                0.99999997               -0.13669066               -0.06679061                0.17869697               -0.14746835                0.20038449                0.19485372
               9.99602141                8.99676075               11.01839411                1.00000000               -0.05292263               -0.11999864                0.17345419               -0.13381531               -0.00099114                0.16454809
               0.00873883                9.99848232               11.01226893                0.99999658               -0.03195426               -0.03272794                0.10973373                0.00127508                0.01260977                0.01350652
               1.00841929                9.99746958               11.01118311                1.00000000               -0.03099162               -0.03072346                0.10328944                0.00098808                0.01583076                0.00073868
               2.00811900                9.99646117               11.01016230                0.99999998               -0.02907758               -0.02881576                0.09684911                0.00100142                0.01583809               -0.00350773
               3.00783774                9.99545863               11.00907985                0.01000001               -0.13949839               -0.02677878                0.09039680                0.12664621                0.07722893               -0.00412431
               4.00532903                9.99697424               11.00929277                0.01005672               -0.21289886                0.03158272                0.09662076                0.10123775                0.12720420               -0.00995319
               5.00357976                9.99760051               11.00995099                0.01000000               -0.16315263                0.01813914                0.10486781                0.03248572                0.14610202                0.00668804
               6.00206598                9.99795271               11.01096205                0.01005929               -0.15159710                0.01297595                0.11564515                0.00982278                0.17482780                0.01420834
               7.00054782                9.99802272               11.01250872                0.01000000               -0.16183458                0.01060398                0.12831558               -0.00915281                0.23411915                0.02690869
               7.99882929                9.99785506               11.01498914                0.01000000               -0.18897120                0.02447958                0.14765093               -0.07038123                0.31268273                0.06866249
               8.99676840                9.99646696               11.01836377                1.00000000               -0.12863004               -0.05293188                0.17350338               -0.05852041                0.17287026                0.00123527
               9.99625669                9.99624912               11.01830569                0.99999999               -0.05117076               -0.05116231                0.16825652                0.00174494                0.00110772               -0.00110760
               0.00131375                0.00179667               12.00988936                1.00000000               -0.02479501               -0.02485368                0.08228440                0.00030387               -0.00366183                0.00341152
               1.00106580                0.00128505               12.00984878                1.00000000               -0.02490978               -0.02510168                0.08308653                0.00013071               -0.00407625               -0.00107918
               2.00081556                0.00077717               12.00980182                0.01000000               -0.01864717               -0.02534913                0.08388858                0.00419935                0.01944937               -0.00170542
               3.00069286                0.00035467               12.01023272                0.01000000               -0.01308368               -0.02912892                0.09224951               -0.00165830                0.05389564               -0.00741279
               4.00055389                0.00036757               12.01083625                0.01000000               -0.01853807               -0.02830089                0.09956621                0.00896172                0.07909335               -0.01158845
               5.00032210                0.00087450               12.01175580                0.01000000               -0.03868833               -0.02849255                0.10675883                0.03028991                0.11275027               -0.01650319
               5.99978012                0.00207576               12.01307739                0.39663287               -0.04431218               -0.03404180                0.11499763                0.02568300                0.07144782               -0.00106656
               6.99943586                0.00275476               12.01342081                1.00000000               -0.03467185               -0.03431892                0.11621708                0.00003289                0.01498457               -0.00358082
               7.99908668                0.00342372               12.01361031                0.99999999               -0.03498845               -0.03443834                0.11660253                0.00009397                0.00846468               -0.00042266
               8.99873609                0.00408190               12.01382220                0.99999999               -0.03514517               -0.03458103                0.11708928                0.00008832                0.00764864                0.00089201
               9.99838378                0.00472884               12.01399512                1.00000000               -0.03523087               -0.03472679                0.11757699                0.00064986                0.00567478                0.00521050
               0.00182841                1.00154814               12.00992153                1.00000000               -0.02515487               -0.02502213                0.08344372                0.00018478                0.00101788                0.00368085
               1.00157686                1.00103404               12.00988226                0.01000000               -0.02528318               -0.02528001                0.08424639                0.00001213                0.00268038               -0.00280558
               2.00132275                1.00052368               12.00987624                0.01000000               -0.03478912               -0.03107743                0.08504842               -0.01155221                0.02410510                0.00236961
               3.00088108                1.00006338               12.01026439                0.01000001               -0.04695801               -0.02702037                0.09296217               -0.00382830                0.04608294               -0.01048598
               4.00038359                1.00008456               12.01076779                0.01000000               -0.05550886               -0.02656472                0.09914692                0.02096960                0.05824128               -0.01613243
               4.99977090                1.00058957               12.01149157                0.01000000               -0.06433845               -0.02801295                0.10504912                0.05370748                0.08583349               -0.02031879
               5.99909682                1.00173534               12.01268859                0.01000000               -0.05043493               -0.05081498                0.11140598                0.05349726                0.05699901               -0.03135021
               6.99876220                1.00241157               12.01295989                1.00000000               -0.03363825               -0.03376576                0.11251302               -0.00010788                0.00591290               -0.00372810
               7.99842405                1.00307934               12.01313375                0.99999998               -0.03388948               -0.03390035                0.11298100                0.00003250                0.00123843               -0.00034056
               8.99808441                1.00373609               12.01331123                0.99999996               -0.03403578               -0.03404334                0.11347912                0.00002862                0.00092422                0.00046891
               9.99774334                1.00438157               12.01347932                0.99999999               -0.03410769               -0.03419035                0.11397148                0.00055842                0.00038796                0.00646905
               0.00234564                2.00129623               12.00996053                0.01000000               -0.02551422               -0.04042588                0.08460294               -0.02617808                0.00154976                0.01836520
               1.00209050                2.00077945               12.00988163                0.01000000               -0.03952343               -0.03639166                0.08540593               -0.03019633                0.01308622                0.00934920
               2.00155518                2.00015562               12.01003157                0.01000001               -0.05175435               -0.03834986                0.09041006               -0.02376599                0.02441199                0.00117066
               3.00105542                1.99981426               12.01022791                0.01000000               -0.05540471               -0.03112099                0.09408995                0.00777667                0.03177345               -0.01376112
               4.00044708                1.99983627               12.01058746                0.01000000               -0.06549750               -0.02924628                0.09866667                0.04484712                0.04316132               -0.02092122
               4.99974547                2.00031424               12.01111719                0.01000001               -0.07095081               -0.03380387                0.10310467                0.07768610                0.04731842               -0.02511062
               5.99902807                2.00105946               12.01169048                0.01000001               -0.08278821               -0.05507350                0.10610216                0.09926875                0.05606103               -0.04556739
               6.99808970                2.00207944               12.01249464                0.01000000               -0.06326252               -0.04922555                0.10883637                0.06943817                0.02741562               -0.01895008
               7.99776282                2.00274572               12.01265842                0.03894608               -0.03276348               -0.03282821                0.10934703                0.00182231               -0.00612572                0.01380910
               8.99743443                2.00340103               12.01279230                0.99999999               -0.03294164               -0.03296372                0.10989183                0.00003149               -0.00449322               -0.00198771
               9.99710398                2.00404503               12.01299006                1.00000000               -0.03304491               -0.03312258                0.11038198                0.00055761               -0.00140225                0.00643777
               0.00233840                3.00073962               12.01028606                0.01000001               -0.02248568               -0.04441208                0.09128055               -0.02211625                0.00046445                0.03567788
               1.00211354                3.00030620               12.01015676                0.01000001               -0.02628877               -0.05267820                0.09143109               -0.02691344                0.00473742                0.01842369
               2.00181262                2.99975668               12.01010259                0.01000000               -0.03787904               -0.04882444                0.09284666               -0.00661276                0.01531131               -0.00403571
               3.00135596                2.99944096               12.01018440                0.01000000               -0.05160372               -0.04438595                0.09551772                0.02989704                0.02673370               -0.01537199
               4.00078055                2.99949963               12.01040959                0.01000001               -0.06272625               -0.04086295                0.09856933                0.07025129                0.03608163               -0.01953557
               5.00010144                2.99991349               12.01076893                0.01000000               -0.07317811               -0.04409849                0.10183758                0.10650601                0.04295684               -0.01927806
               5.99931699                3.00063387               12.01124202                0.01000000               -0.08183623               -0.04892953                0.10446033                0.12664548                0.04308862               -0.01290010
               6.99846471                3.00142706               12.01172884                0.01000000               -0.10890368               -0.05935186                0.10623632                0.15103806                0.04924098               -0.01639204
               7.99713891                3.00242278               12.01246529                0.01000000               -0.08394902               -0.05574924                0.09906949                0.13357179               -0.00092285                0.00668458
               8.99678573                3.00307681               12.01223350                0.01000003               -0.03362115               -0.06822846                0.10632525                0.11006126               -0.02522682                0.01701970
               9.99646649                3.00371912               12.01247577                0.15507945               -0.03192413               -0.12149874                0.10677638                0.12854896               -0.00166441                0.01210864
               0.00277015                4.00040799               12.01067731                0.01000000               -0.02349766               -0.03135079                0.09603044               -0.00069214               -0.00247016                0.04502123
               1.00253517                3.99972589               12.01040314                0.01000000               -0.02409881               -0.06171667                0.09496234                0.00480025                0.00230308                0.01474421
               2.00228817                3.99917913               12.01020049                0.01000000               -0.03123819               -0.06328932                0.09506766                0.02816746                0.01410991               -0.00713037
               3.00191041                3.99892654               12.01015335                0.01000001               -0.04542996               -0.05725657                0.09635607                0.06136833                0.02877161               -0.01771914
               4.00137957                3.99901901               12.01028600                0.01000000               -0.05845295               -0.05359171                0.09895626                0.09673178                0.04158223               -0.01706371
               5.00074135                3.99943227               12.01058286                0.01000000               -0.06660797               -0.05356117                0.10202606                0.12679394                0.05028560               -0.00851692
               6.00004741                4.00008087               12.01099490                0.01000000               -0.07098935               -0.05995303                0.10492837                0.15296204                0.05451750                0.00355627
               6.99932156                4.00089241               12.01148038                0.01000001               -0.06314561               -0.06701195                0.10665080                0.17133679                0.04775381                0.01746799
               7.99878450                4.00163073               12.01185806                0.01000001               -0.04911214               -0.08843761                0.10785790                0.19639992                0.03330307                0.01264783
               8.99833932                4.00203646               12.01209670                0.01000000               -0.01970734               -0.10736104                0.10773118                0.14546193                0.01222745                0.04184698
               9.99839035                4.00161505               12.01210285                0.01000483                0.00510353               -0.15936193                0.10802469                0.11221015                0.00547315                0.01829847
               0.00368875                5.00011260               12.01118784                0.01000003               -0.02503496               -0.04003181                0.09928253                0.02304568               -0.00198157                0.06228389
               1.00343840                4.99907187               12.01070580                0.01000000               -0.02567134               -0.06599973                0.09693168                0.04280577                0.00410968                0.01520147
               2.00317532                4.99849090               12.01031308                0.01000001               -0.03474773               -0.06837788                0.09596159                0.06405660                0.01858157               -0.01469610
               3.00274345                4.99829583               12.01014359                0.01000000               -0.04829343               -0.06686433                0.09685125                0.09383377                0.03784073               -0.02189424
               4.00220946                4.99842780               12.01023040                0.01000000               -0.05839940               -0.06109066                0.09950061                0.11780944                0.05601304               -0.01574586
               5.00157546                4.99884227               12.01053168                0.01000000               -0.06466831               -0.06083543                0.10280713                0.13623869                0.06872519               -0.00110984
               6.00091609                4.99943481               12.01098650                0.01000001               -0.06169362               -0.06719060                0.10721404                0.14572199                0.07453514                0.01894142
               7.00034159                5.00008682               12.01149741                0.01000003               -0.04966158               -0.08264850                0.11015709                0.14842144                0.07215789                0.03854698
               7.99992286                5.00065402               12.01195761                0.01000000               -0.03154695               -0.09900644                0.11245365                0.13418215                0.05882649                0.05959695
               8.99971065                5.00092959               12.01223862                0.01000000               -0.01846764               -0.10555280                0.11373082                0.09570413                0.03540189                0.07060440
               9.99955351                5.00053188               12.01220713                0.01000000               -0.01571426               -0.08405068                0.11204833                0.04757715                0.02168847                0.05911287
               0.00531252                5.99960735               12.01197416                0.91388035               -0.02995297               -0.04085569                0.10287027                0.02077205               -0.00372732                0.03921975
               1.00501299                5.99840590               12.01111510                0.01000000               -0.04835860               -0.04796432                0.09696280                0.04837894                0.00311070                0.00428517
               2.00434535                5.99781158               12.01039346                0.01000001               -0.05814066               -0.07789448                0.09565820                0.09612381                0.01987115               -0.02946609
               3.00385018                5.99758925               12.01013151                0.01000000               -0.05780172               -0.06625611                0.09674198                0.11460331                0.05359118               -0.02669685
               4.00318931                5.99779720               12.01022569                0.01000000               -0.06955350               -0.06280469                0.10004335                0.13167765                0.07682063               -0.01689695
               5.00245911                5.99821556               12.01058923                0.01000001               -0.07360058               -0.05939010                0.10499282                0.13352931                0.09335102                0.00284675
               6.00171730                5.99873706               12.01116166                0.01003709               -0.06941652               -0.06374515                0.10947625                0.12061609                0.10300470                0.02910683
               7.00107078                5.99923944               12.01183356                0.01000000               -0.05459656               -0.07923188                0.11398317                0.09745644                0.10219521                0.06093979
               8.00062537                5.99965060               12.01247450                0.01000000               -0.03476160               -0.09760763                0.11838855                0.07214749                0.08771954                0.09353903
               9.00037554                5.99992540               12.01289169                0.01000000               -0.02440254               -0.09848145                0.12107101                0.04229687                0.05421774                0.11835202
              10.00013732                5.99993404               12.01284543                0.01000000               -0.02382249               -0.05222559                0.12029240                0.02153136                0.03208648                0.11939519
               0.00650710                6.99929549               12.01229431                1.00000000               -0.03053480               -0.03142555                0.10479031                0.00026920               -0.00274112                0.01916831
               1.00620176                6.99811259               12.01133403                1.00000000               -0.02963300               -0.02961715                0.09871236               -0.00008101               -0.00597060               -0.00174596
               2.00591444                6.99693301               12.01031006                0.01000000               -0.05759342               -0.05793760                0.09279582                0.07972540                0.03321899               -0.02905264
               3.00504989                6.99697070               12.01013741                0.01000000               -0.08488713               -0.06816664                0.09684725                0.12911589                0.07660266               -0.03409361
               4.00421670                6.99717171               12.01023429                0.01000001               -0.08718498               -0.06033748                0.10042728                0.14147382                0.09748678               -0.02288988
               5.00330619                6.99765447               12.01070450                0.01000003               -0.09560835               -0.04428873                0.10603353                0.12842616                0.12067953                0.00360048
               6.00230453                6.99815991               12.01146075                0.01000000               -0.09645084               -0.04401072                0.11190357                0.08856769                0.13675187                0.03431624
               7.00137717                6.99850218               12.01242171                0.01000000               -0.08123473               -0.05891264                0.11947469                0.03635283                0.14125826                0.07417551
               8.00067984                6.99870187               12.01340864                0.01000000               -0.05520120               -0.08565583                0.12683145               -0.00882518                0.12567721                0.13159400
               9.00027315                6.99895996               12.01413825                0.01000000               -0.03564903               -0.10001394                0.13140215               -0.02116933                0.07839739                0.18066756
               9.99996686                6.99948737               12.01419342                0.01000001               -0.03062882               -0.05429938                0.13045535               -0.01675853                0.04494552                0.21232912
               0.00768371                7.99897884               12.01267901                0.99999999               -0.03098581               -0.03191968                0.10633655                0.00024382               -0.00082237                0.02272331
               1.00737385                7.99781355               12.01162544                1.00000000               -0.03009857               -0.03013767                0.10037483               -0.00000666               -0.00037842                0.00260789
               2.00708174                7.99665282               12.01058163                0.01038148               -0.05900281               -0.02826474                0.09440054                0.03642505                0.02479842               -0.01535607
               3.00619380                7.99622592               12.01003521                0.01000181               -0.08733572               -0.08703464                0.09318408                0.14197624                0.07080158               -0.06426842
               4.00533502                7.99659045               12.01018684                0.01000000               -0.10771844               -0.03879585                0.09995793                0.16084704                0.12266987               -0.02795569
               5.00403943                7.99732978               12.01083641                0.01000000               -0.13470409               -0.01507195                0.10677286                0.12116945                0.15066581                0.00206975
               6.00264094                7.99785684               12.01180432                0.01000000               -0.13917776               -0.01440609                0.11462349                0.05763343                0.17029794                0.03286412
               7.00125587                7.99806118               12.01311418                0.01000000               -0.13249274               -0.02371256                0.12527763               -0.01563143                0.19501339                0.07200230
               7.99999109                7.99793749               12.01480884                0.01000000               -0.10446043               -0.04800991                0.13819945               -0.09052713                0.18732121                0.13853230
               8.99916666                7.99792513               12.01613687                0.01000000               -0.06218736               -0.09191757                0.14702366               -0.13695248                0.12459491                0.31905001
               9.99874734                7.99884805               12.01666290                0.01000000               -0.04193228               -0.13110841                0.14930357               -0.10126423                0.08308629                0.31868147
               0.00884256                8.99865709               12.01307008                0.99991464               -0.03149166               -0.03243527                0.10798634                0.00024631                0.00231574                0.01827774
               1.00852764                8.99750983               12.01193405                0.99999999               -0.03059889               -0.03060103                0.10199045                0.00000281                0.00125326                0.00209373
               2.00823058                8.99636771               12.01077756                1.00000000               -0.02879274               -0.02878238                0.09597087               -0.00000746               -0.00487170               -0.01134530
               3.00795178                8.99523001               12.00952253                0.01000000               -0.09504008               -0.06337203                0.08990904                0.14557546                0.08586131               -0.05276404
               4.00632978                8.99639579               12.01018695                0.01000000               -0.17443000                0.01066319                0.09780996                0.14885738                0.16695571               -0.02184259
               5.00446318                8.99735303               12.01094454                0.01000000               -0.18019862                0.01349969                0.10684726                0.08326178                0.16828048                0.00195101
               6.00272580                8.99787179               12.01207732                0.01000000               -0.17396419                0.00993350                0.11707668                0.02968568                0.19345873                0.02201868
               7.00098390                8.99802793               12.01368145                0.01000000               -0.18602246                0.00635372                0.12894382               -0.02437187                0.23623863                0.04653461
               7.99900536                8.99774167               12.01594278                0.01000001               -0.21801849                0.00591155                0.14623036               -0.09218650                0.35512090                0.09750913
               8.99662353                8.99712161               12.02023550                0.99999998               -0.14548181               -0.06657569                0.17798353               -0.15890649                0.21886475                0.21287214
               9.99609572                8.99686520               12.02012848                1.00000000               -0.05278118               -0.12478521                0.17341965               -0.14540982               -0.00099350                0.17911238
               0.00998316                9.99833014               12.01336557                1.00000000               -0.03198705               -0.03269590                0.10961969                0.00120019                0.01264695                0.01353250
               1.00966329                9.99720153               12.01221759                1.00000000               -0.03108752               -0.03082994                0.10361756                0.00091716                0.01586963                0.00073317
               2.00936141                9.99607718               12.01113465                0.99999998               -0.02930317               -0.02905350                0.09761644                0.00093055                0.01587460               -0.00352695
               3.00907723                9.99495848               12.00998992                0.01000001               -0.15861295               -0.02715312                0.09161544                0.14887122                0.08339135               -0.00413353
               4.00618915                9.99680372               12.01026314                0.01000004               -0.24242818                0.04079269                0.09750635                0.11800246                0.13911182               -0.00912027
               5.00422866                9.99759978               12.01100131                0.01000000               -0.18146985                0.02467488                0.10531318                0.03913782                0.15948513                0.00628233
               6.00255975                9.99805551               12.01212666                0.01000002               -0.16650574                0.01837270                0.11729451                0.01281897                0.19034192                0.01640284
               7.00089855                9.99818826               12.01379515                0.01000001               -0.17530382                0.01603269                0.12807858               -0.00852507                0.25699071                0.02947685
               7.99905368                9.99805572               12.01646711                0.01002820               -0.20167703                0.03140443                0.14839600               -0.07490003                0.34012303                0.07432239
               8.99686501                9.99659361               12.02009897                1.00000000               -0.13508550               -0.05279986                0.17353493               -0.06102070                0.18817611                0.00123258
               9.99635197                9.99635235               12.01999190                0.99999999               -0.05130399               -0.05128491                0.16897140                0.00149862                0.00110391               -0.00111083
               0.00131370                0.00179281               13.01071412                1.00000000               -0.02488954               -0.02492511                0.08267270                0.00023108               -0.00366044                0.00341317
               1.00106481                0.00123498               13.01068075                1.00000000               -0.02498133               -0.02512232                0.08331105                0.00010348               -0.00407480               -0.00107847
               2.00081408                0.00067990               13.01064100                0.01000000               -0.01754461               -0.02531989                0.08394966                0.00608134                0.02319012               -0.00170511
               3.00071392                0.00024732               13.01115391                0.01000000               -0.01146750               -0.02886947                0.09199381                0.00004389                0.06153572               -0.00693697
               4.00058473                0.00032252               13.01183055                0.01000001               -0.01916108               -0.02720822                0.09919451                0.01323589                0.08654195               -0.01157225
               5.00033069                0.00098200               13.01282123                0.01000000               -0.04625519               -0.02676301                0.10627524                0.04115712                0.12066089               -0.01667986
               5.99965962                0.00247228               13.01422499                0.38181361               -0.05069832               -0.03392925                0.11445139                0.03784590                0.07562908               -0.00102205
               6.99931673                0.00319793               13.01458158                1.00000000               -0.03457000               -0.03424858                0.11591497                0.00004697                0.01530079               -0.00367265
               7.99896822                0.00391411               13.01477566                0.99999999               -0.03494434               -0.03441504                0.11645486                0.00011286                0.00841787               -0.00043272
               8.99861784                0.00461988               13.01499315                0.99996100               -0.03514864               -0.03460652                0.11710433                0.00010780                0.00766221                0.00089977
               9.99826525                0.00531488               13.01517163                1.00000000               -0.03525909               -0.03480141                0.11775233                0.00065237                0.00568612                0.00523252
               0.00187385                1.00154356               13.01075638                1.00000000               -0.02515461               -0.02504948                0.08352774                0.00013631                0.00101795                0.00368252
               1.00162230                1.00098376               13.01072430                0.01000001               -0.02525620               -0.02525426                0.08416541                0.00000834                0.00268038               -0.00280477
               2.00136872                1.00042670               13.01072549                0.01000000               -0.03646272               -0.03155051                0.08480356               -0.01075039                0.02768804                0.00450753
               3.00089304                0.99995862               13.01119251                0.01000001               -0.05094886               -0.02665683                0.09263158                0.00016833                0.05251877               -0.00993437
               4.00034974                1.00005044               13.01175644                0.01000000               -0.06128294               -0.02564654                0.09857035                0.03014087                0.06371911               -0.01600720
               4.99966739                1.00071437               13.01253771                0.01000000               -0.07098128               -0.02743327                0.10429527                0.07092513                0.09160336               -0.02039128
               5.99893012                1.00213299               13.01380096                0.01000000               -0.05355512               -0.05653742                0.11099863                0.06904328                0.06032592               -0.03224313
               6.99859628                1.00285544               13.01408434                1.00000000               -0.03358717               -0.03371635                0.11235588               -0.00011423                0.00621894               -0.00379903
               7.99825837                1.00356996               13.01426359                0.99999998               -0.03388761               -0.03389798                0.11297427                0.00002686                0.00123763               -0.00035030
               8.99791853                1.00427382               13.01444675                1.00000000               -0.03408007               -0.03408794                0.11362611                0.00002191                0.00094261                0.00048682
               9.99757677                1.00496687               13.01462046                0.99999999               -0.03417578               -0.03428248                0.11427350                0.00053605                0.00040172                0.00649125
               0.00243604                2.00129182               13.01080547                0.01000002               -0.02542007               -0.04037882                0.08438314               -0.02615227                0.00155007                0.02112486
               1.00218184                2.00072990               13.01073376                0.01000000               -0.04059167               -0.03800364                0.08502037               -0.03052738                0.01522395                0.01186242
               2.00162420                2.00004889               13.01093365                0.01000001               -0.05441449               -0.04004339                0.09002847               -0.02150067                0.02842272                0.00415041
               3.00109355                1.99971418               13.01116723                0.01000000               -0.05962030               -0.03183852                0.09374011                0.01702576                0.03565117               -0.01286332
               4.00043180                1.99980959               13.01157222                0.01000000               -0.07134486               -0.02966992                0.09822118                0.06113267                0.04730987               -0.02049286
               4.99966665                2.00043334               13.01214534                0.01000001               -0.07661897               -0.03594654                0.10250969                0.09918681                0.05086943               -0.02488697
               5.99889942                2.00134153               13.01274993                0.01000001               -0.08945875               -0.06337250                0.10581408                0.12145571                0.05884756               -0.04602515
               6.99787747                2.00252360               13.01358306                0.01000000               -0.06745154               -0.05352403                0.10882346                0.08271794                0.02859409               -0.01916615
               7.99755039                2.00323615               13.01375263                0.04453487               -0.03280528               -0.03279144                0.10948213                0.00102963               -0.00607975                0.01288860
               8.99722137                2.00393812               13.01389258                0.99999999               -0.03302589               -0.03304522                0.11016494                0.00002777               -0.00445005               -0.00195117
               9.99688987                2.00462923               13.01409597                0.99999999               -0.03314991               -0.03325216                0.11080906                0.00053761               -0.00138409                0.00645185
               0.00247465                3.00073599               13.01119624                0.01000001               -0.02199687               -0.04425899                0.09085209               -0.02162034                0.00116607                0.04103088
               1.00225468                3.00022369               13.01106923                0.01000001               -0.02601159               -0.05687395                0.09107038               -0.02432573                0.00600023                0.02213844
               2.00195442                2.99962583               13.01102969                0.01000000               -0.03909121               -0.05266457                0.09254026                0.00190151                0.01787508               -0.00270842
               3.00147286                2.99932185               13.01113803                0.01000000               -0.05505891               -0.04734693                0.09521382                0.04511085                0.03022400               -0.01458925
               4.00085324                2.99945704               13.01139431                0.01000001               -0.06768396               -0.04351543                0.09829333                0.09157033                0.03985573               -0.01890043
               5.00011918                2.99999544               13.01178479                0.01000000               -0.07921379               -0.04805259                0.10142192                0.13202845                0.04669203               -0.01825615
               5.99926897                3.00086554               13.01228833                0.01000001               -0.08815776               -0.05440697                0.10433799                0.15212129                0.04520654               -0.01111435
               6.99835603                3.00178496               13.01277779                0.01000000               -0.12022606               -0.06615564                0.10539919                0.17717353                0.04958241               -0.01438265
               7.99686445                3.00291413               13.01350564                0.01000001               -0.09150120               -0.06153972                0.10188353                0.15542215               -0.00104524                0.00954262
               8.99652600                3.00361291               13.01329869                0.01000000               -0.03295696               -0.07375154                0.10672221                0.12599914               -0.02424618                0.01974279
               9.99620531                3.00430182               13.01354628                0.17048772               -0.03206946               -0.13409186                0.10733858                0.14678974               -0.00166778                0.01438671
               0.00302823                4.00040664               13.01163541                0.01000000               -0.02227558               -0.03254935                0.09558669                0.00325125               -0.00186399                0.04894613
               1.00280547                3.99959242               13.01135000                0.01000000               -0.02320820               -0.06809570                0.09446456                0.01342634                0.00361296                0.01638795
               2.00256407                3.99899560               13.01114955                0.01000000               -0.03204582               -0.06920719                0.09473822                0.04403025                0.01679179               -0.00670976
               3.00216456                3.99876724               13.01111689                0.01000001               -0.04872241               -0.06185788                0.09626791                0.08251539                0.03251543               -0.01749068
               4.00158962                3.99893928               13.01127423                0.01000000               -0.06329180               -0.05776011                0.09875928                0.12210039                0.04603446               -0.01628324
               5.00089872                3.99947228               13.01160145                0.01000000               -0.07186472               -0.05815032                0.10166192                0.15459609                0.05469839               -0.00684908
               6.00015232                4.00025339               13.01203991                0.01000000               -0.07631837               -0.06569202                0.10442318                0.18260517                0.05839912                0.00684082
               6.99937235                4.00120049               13.01254682                0.01000000               -0.06607210               -0.07428085                0.10650616                0.20003230                0.05033988                0.02329610
               7.99883088                4.00200535               13.01292865                0.01000001               -0.05093496               -0.09762605                0.10783630                0.22749336                0.03636255                0.01911741
               8.99835365                4.00246309               13.01318039                0.01000000               -0.01915207               -0.11808267                0.10873013                0.16833074                0.01454688                0.04823910
               9.99844784                4.00194739               13.01318357                0.01000001                0.00941848               -0.17698339                0.10838854                0.12892074                0.00677066                0.02349249
               0.00416813                5.00008500               13.01217885                0.01000001               -0.02338739               -0.04840979                0.09889399                0.03445674               -0.00099169                0.06542416
               1.00393426                4.99886177               13.01167316                0.01000000               -0.02539651               -0.07328892                0.09658640                0.06076679                0.00594101                0.01514483
               2.00366020                4.99824169               13.01127208                0.01000001               -0.03773852               -0.07414429                0.09582066                0.08600285                0.02206571               -0.01542732
               3.00317949                4.99808470               13.01111242                0.01000000               -0.05349948               -0.07221277                0.09687587                0.11938660                0.04273421               -0.02224850
               4.00259021                4.99830184               13.01122489                0.01000000               -0.06412466               -0.06553341                0.09937696                0.14525597                0.06160770               -0.01505069
               5.00189699                4.99883243               13.01155609                0.01000000               -0.06986716               -0.06546401                0.10260125                0.16475081                0.07500061                0.00132966
               6.00119287                4.99955170               13.01205756                0.01012738               -0.06461413               -0.07256666                0.10608305                0.17310881                0.08016709                0.02311546
               7.00060471                5.00029934               13.01259747                0.01003724               -0.05205784               -0.08992657                0.10923085                0.17466087                0.07698985                0.04455465
               8.00015171                5.00096161               13.01308536                0.01000000               -0.03270678               -0.10648482                0.11246800                0.15563043                0.06237568                0.06847503
               8.99995058                5.00125126               13.01337297                0.01000000               -0.01682969               -0.11447540                0.11358644                0.10980381                0.03716062                0.07972131
               9.99981512                5.00076216               13.01332828                0.01000000               -0.01354580               -0.08994204                0.11257776                0.05486188                0.02283147                0.06754574
               0.00616382                5.99943845               13.01300235                0.90068950               -0.02996997               -0.04790364                0.10272162                0.03389584               -0.00373718                0.04048987
               1.00586412                5.99812664               13.01208646                0.01000000               -0.05513102               -0.05149069                0.09726106                0.06519700                0.00533256                0.00379759
               2.00506120                5.99751271               13.01135179                0.01000001               -0.06859884               -0.08507488                0.09601200                0.12054192                0.02459270               -0.03205832
               3.00449214                5.99732299               13.01110098                0.01000001               -0.06570994               -0.07004990                0.09696600                0.14079838                0.05993008               -0.02760241
               4.00374700                5.99762861               13.01122512                0.01000000               -0.07741313               -0.06665835                0.10001760                0.15884895                0.08449885               -0.01617870
               5.00294388                5.99816300               13.01163849                0.01012909               -0.07997052               -0.06249902                0.10409171                0.15953465                0.10089163                0.00555068
               6.00214759                5.99880206               13.01225294                0.01000001               -0.07441090               -0.06798249                0.10809770                0.14424758                0.10983170                0.03295949
               7.00145566                5.99940196               13.01297043                0.01000000               -0.05780061               -0.08420090                0.11324409                0.11516509                0.10919876                0.06809837
               8.00099158                5.99987566               13.01365816                0.01000000               -0.03532400               -0.10480086                0.11826040                0.08584914                0.09427732                0.10341965
               9.00074918                6.00017358               13.01410325                0.01003960               -0.02341476               -0.10440946                0.12042844                0.05025442                0.05823438                0.12959046
              10.00052328                6.00014855               13.01405220                0.01000002               -0.02258998               -0.05206569                0.11922146                0.02579120                0.03463527                0.13000978
               0.00746967                6.99912693               13.01334183                1.00000000               -0.03057331               -0.03140803                0.10470368                0.00025837               -0.00287225                0.01936498
               1.00716393                6.99783196               13.01232314                1.00000000               -0.02974877               -0.02975495                0.09910929               -0.00011079               -0.00600621               -0.00161057
               2.00687469                6.99654019               13.01124247                0.01000000               -0.06421887               -0.06277374                0.09371686                0.09726231                0.03761064               -0.03118409
               3.00587956                6.99668370               13.01110014                0.01000000               -0.09737577               -0.07040341                0.09653930                0.15136173                0.08513410               -0.03422329
               4.00492717                6.99696867               13.01124048                0.01000000               -0.09826567               -0.06403726                0.10087725                0.16568148                0.10697985               -0.02222529
               5.00391424                6.99758245               13.01176873                0.01000001               -0.10441536               -0.04653293                0.10569724                0.15224664                0.13008580                0.00548881
               6.00283887                6.99819205               13.01257694                0.01000000               -0.10399133               -0.04575998                0.11143823                0.10572156                0.14724317                0.03843758
               7.00183441                6.99861533               13.01361553                0.01000000               -0.08708999               -0.06189248                0.11960168                0.04713150                0.15254093                0.08207171
               8.00109707                6.99886559               13.01467572                0.01000000               -0.05758243               -0.09024442                0.12658745               -0.00347448                0.13540822                0.14427391
               9.00068277                6.99916307               13.01545097                0.01000000               -0.03580329               -0.10435341                0.13080780               -0.01939231                0.08389988                0.19610135
              10.00038100                6.99972084               13.01549882                0.01000000               -0.03017647               -0.05304462                0.12968796               -0.01680657                0.04735847                0.22837804
               0.00875892                7.99881029               13.01374203                0.99999999               -0.03102850               -0.03191629                0.10628407                0.00022723               -0.00081082                0.02275162
               1.00844864                7.99753154               13.01263114                1.00000000               -0.03021092               -0.03027116                0.10078167               -0.00002844               -0.00037305                0.00263525
               2.00815470                7.99625724               13.01152990                0.01000000               -0.06788692               -0.02853940                0.09527343                0.04631435                0.02920103               -0.01543618
               3.00709090                7.99591492               13.01101420                0.01000001               -0.09964150               -0.09836390                0.09855230                0.16733654                0.07753127               -0.06751406
               4.00616187                7.99634787               13.01119135                0.01000001               -0.11627309               -0.04117002                0.10085595                0.18474736                0.13105297               -0.02763080
               5.00476544                7.99723235               13.01190508                0.01000000               -0.14663630               -0.01446077                0.10697700                0.14220604                0.16294032                0.00278210
               6.00322915                7.99788686               13.01295339                0.01000000               -0.15203441               -0.01255329                0.11504803                0.07020128                0.18437025                0.03708957
               7.00172475                7.99816411               13.01436639                0.01000000               -0.14274011               -0.02244604                0.12515146               -0.01003329                0.21095612                0.07909932
               8.00037434                7.99807077               13.01618830                0.01000000               -0.11093333               -0.04817114                0.13771200               -0.09355406                0.20231423                0.15138727
               8.99950608                7.99808651               13.01760638                0.01000007               -0.06513710               -0.09357260                0.14686355               -0.14618263                0.13433447                0.34561901
               9.99907160                7.99908766               13.01815780                0.01000000               -0.04344787               -0.13534251                0.14960399               -0.10815649                0.08927670                0.34327051
               0.01003170                8.99848860               13.01414954                1.00000000               -0.03152918               -0.03241509                0.10789265                0.00023339                0.00230507                0.01832125
               1.00971641                8.99722653               13.01295578                0.99999999               -0.03070540               -0.03071867                0.10235020               -0.00001141                0.00123193                0.00208081
               2.00941760                8.99596940               13.01174128                0.99997229               -0.02903781               -0.02903842                0.09677566               -0.00003276               -0.00492910               -0.01141945
               3.00913566                8.99471642               13.01042782                0.01000000               -0.10564500               -0.07368725                0.09114792                0.17310219                0.09306600               -0.05731468
               4.00730470                8.99614527               13.01117953                0.01000000               -0.19581423                0.01457935                0.10011078                0.17574133                0.17988460               -0.02253990
               5.00521937                8.99729324               13.01201264                0.01000000               -0.19967824                0.01901363                0.10733311                0.09681062                0.18164168                0.00207476
               6.00331113                8.99794098               13.01325265                0.01016891               -0.18847660                0.01476109                0.11639497                0.03615025                0.20742123                0.02495428
               7.00144984                8.99816641               13.01496711                0.01000000               -0.20037765                0.01103729                0.12812895               -0.02081897                0.25381963                0.05035138
               7.99930358                8.99790217               13.01740481                0.01000001               -0.23538098                0.01110307                0.14622374               -0.09606042                0.38339108                0.10625141
               8.99674222                8.99729162               13.02201185                0.99999998               -0.15439991               -0.06609192                0.17728889               -0.16935637                0.23670198                0.23026385
               9.99621558                8.99701399               13.02186250                0.99999996               -0.05266398               -0.12937971                0.17338568               -0.15669760               -0.00099846                0.19310540
               0.01128772                9.99816199               13.01446132                1.00000000               -0.03201162               -0.03266144                0.10947764                0.00111968                0.01264392                0.01356985
               1.01096760                9.99691717               13.01325546                1.00000000               -0.03117791               -0.03093678                0.10392787                0.00084333                0.01587890                0.00072733
               2.01066416                9.99567647               13.01211463                0.99999998               -0.02952639               -0.02929344                0.09837486                0.00085697                0.01589900               -0.00355831
               3.01037708                9.99444118               13.01091216                0.01000000               -0.17821402               -0.02752451                0.09282536                0.17229118                0.08919456               -0.00414317
               4.00709988                9.99663945               13.01124289                0.01000002               -0.27355689                0.04941844                0.09866439                0.13809064                0.15045673               -0.00982544
               5.00490594                9.99761262               13.01205726                0.01000000               -0.20104483                0.03193798                0.10671046                0.04578791                0.17305773                0.00645563
               6.00307899                9.99818208               13.01330794                0.01000002               -0.17793779                0.02410997                0.11573564                0.01539705                0.20241557                0.01906759
               7.00134718                9.99838485               13.01507029                0.01000001               -0.18755296                0.02184472                0.12675199               -0.00472830                0.27387914                0.03047947
               7.99932793                9.99829283               13.01795706                0.01000000               -0.21700273                0.03906627                0.14932995               -0.07857414                0.36614106                0.08016510
               8.99700713                9.99676468               13.02183447                0.99999996               -0.14175127               -0.05269401                0.17356763               -0.06314734                0.20256671                0.00122888
               9.99649290                9.99650007               13.02168512                0.99998709               -0.05142278               -0.05139253                0.16966637                0.00127097                0.00110890               -0.00110723
               0.00130729                0.00178042               14.01154282                1.00000000               -0.02498601               -0.02499851                0.08306629                0.00015799               -0.00365992                0.00341361
               1.00105743                0.00117638               14.01151500                1.00000000               -0.02505409               -0.02514462                0.08353888                0.00007633               -0.00407485               -0.00107830
               2.00080620                0.00057409               14.01148081                0.01000000               -0.01616991               -0.02529104                0.08401171                0.00832772                0.02685616               -0.00170500
               3.00073403                0.00013873               14.01207259                0.01000000               -0.00944012               -0.02873616                0.09173530                0.00216002                0.06896429               -0.00641654
               4.00061740                0.00028434               14.01282014                0.01000001               -0.01965733               -0.02615902                0.09870564                0.01799817                0.09377459               -0.01156282
               5.00034088                0.00110795               14.01388130                0.01000002               -0.05425235               -0.02503086                0.10573276                0.05270901                0.12834018               -0.01692154
               5.99953235                0.00290338               14.01536642                0.36671290               -0.05748417               -0.03378386                0.11389874                0.05082564                0.07975534               -0.00099635
               6.99919120                0.00367577               14.01573911                1.00000000               -0.03444422               -0.03416629                0.11557450                0.00006829                0.01569235               -0.00376180
               7.99884347                0.00443922               14.01593941                0.99999999               -0.03489150               -0.03438567                0.11628334                0.00013759                0.00838438               -0.00043892
               8.99849337                0.00519268               14.01616429                0.99997465               -0.03514652               -0.03462848                0.11710567                0.00013274                0.00769395                0.00089686
               9.99814054                0.00593582               14.01635017                1.00000000               -0.03528277               -0.03487752                0.11792675                0.00065702                0.00572272                0.00523004
               0.00191291                1.00153044               14.01159208                1.00000000               -0.02515583               -0.02507795                0.08361466                0.00008768                0.00101854                0.00368250
               1.00166135                1.00092493               14.01156556                0.01000000               -0.02523035               -0.02522966                0.08408718                0.00000577                0.00268054               -0.00280515
               2.00140831                1.00032118               14.01157231                0.01000000               -0.03804254               -0.03198313                0.08456008               -0.00948028                0.03129476                0.00674017
               3.00090050                0.99985136               14.01211702                0.01000001               -0.05477672               -0.02636263                0.09224047                0.00487074                0.05893084               -0.00922891
               4.00031277                1.00002275               14.01273919                0.01000000               -0.06710255               -0.02478962                0.09800546                0.04020259                0.06913866               -0.01583962
               4.99955845                1.00085764               14.01357747                0.01000000               -0.07780361               -0.02692673                0.10370774                0.08935238                0.09726013               -0.02050425
               5.99875670                1.00256554               14.01490857                0.01000000               -0.05672479               -0.06258935                0.11058769                0.08557061                0.06372353               -0.03307876
               6.99842396                1.00333411               14.01520701                1.00000000               -0.03351522               -0.03365505                0.11215833               -0.00012426                0.00659585               -0.00386392
               7.99808639                1.00409537               14.01539323                0.99999998               -0.03387814               -0.03388939                0.11294415                0.00002545                0.00123925               -0.00035576
               8.99774639                1.00484639               14.01558376                1.00000000               -0.03412160               -0.03413023                0.11376613                0.00002028                0.00096588                0.00049600
               9.99740396                1.00558705               14.01576479                1.00000000               -0.03424316               -0.03437880                0.11458500                0.00051432                0.00042428                0.00649706
               0.00252006                2.00127886               14.01164819                0.01000000               -0.02532584               -0.04000715                0.08416337               -0.02556635                0.00155030                0.02398056
               1.00226680                2.00067178               14.01158204                0.01000000               -0.04149466               -0.03960970                0.08463559               -0.03028480                0.01745698                0.01454436
               2.00169016                1.99993443               14.01183214                0.01000001               -0.05684616               -0.04172810                0.08965153               -0.01836438                0.03253553                0.00738653
               3.00112987                1.99961147               14.01210271                0.01000000               -0.06374931               -0.03259255                0.09331403                0.02747186                0.03954806               -0.01172442
               4.00041518                1.99978855               14.01255189                0.01000000               -0.07723669               -0.03015679                0.09771367                0.07880357                0.05148858               -0.01997282
               4.99958514                2.00056942               14.01316739                0.01000001               -0.08239396               -0.03826917                0.10188389                0.12229246                0.05445232               -0.02463873
               5.99876730                2.00165159               14.01380676                0.01000001               -0.09631285               -0.07219635                0.10549796                0.14523369                0.06173780               -0.04668023
               6.99765888                2.00300267               14.01467111                0.01000001               -0.07177994               -0.05792334                0.10876637                0.09624698                0.02980315               -0.01892633
               7.99733170                2.00376143               14.01484806                0.04938694               -0.03283966               -0.03288754                0.10959299                0.00090578               -0.00604273                0.00968886
               8.99700209                2.00451007               14.01499560                0.99999999               -0.03310932               -0.03312677                0.11044174                0.00002950               -0.00441549               -0.00192264
               9.99666951                2.00524825               14.01520624                1.00000000               -0.03325782               -0.03338954                0.11125749                0.00051730               -0.00136944                0.00646138
               0.00261575                3.00073029               14.01210310                0.01000001               -0.02156553               -0.04372839                0.09071968               -0.02057469                0.00201092                0.04649779
               1.00240009                3.00013274               14.01197817                0.01000001               -0.02572111               -0.06110329                0.09077674               -0.02085916                0.00722001                0.02612486
               2.00210133                2.99948662               14.01195339                0.01000000               -0.04021352               -0.05659361                0.09211196                0.01168670                0.02049067               -0.00099970
               3.00159582                2.99919951               14.01208868                0.01000000               -0.05852127               -0.05045726                0.09486114                0.06195763                0.03373157               -0.01349037
               4.00093090                2.99941961               14.01237545                0.01000001               -0.07272813               -0.04628868                0.09804495                0.11466347                0.04351621               -0.01803208
               5.00014126                3.00009226               14.01279736                0.01000000               -0.08513927               -0.05227134                0.10104519                0.15932463                0.04990290               -0.01713839
               5.99922812                3.00112161               14.01332878                0.01000001               -0.09511048               -0.06015675                0.10387518                0.17930569                0.04755543               -0.00902629
               6.99823905                3.00217564               14.01383683                0.01000000               -0.13155022               -0.07320109                0.10576034                0.20483707                0.04760340               -0.01245255
               7.99659711                3.00343761               14.01450296                0.01000000               -0.09894396               -0.06640373                0.10017286                0.17773456               -0.00031866                0.01229042
               8.99626017                3.00418386               14.01436794                0.01000000               -0.03295770               -0.07915547                0.10713441                0.14274431               -0.02099689                0.02255214
               9.99593796                3.00491926               14.01462254                0.18316398               -0.03222140               -0.14726717                0.10792651                0.16603514               -0.00167043                0.01662979
               0.00330368                4.00040430               14.01258904                0.01000000               -0.02103909               -0.03380765                0.09511977                0.00777008               -0.00130067                0.05300962
               1.00309329                3.99944972               14.01229243                0.01000000               -0.02232813               -0.07472133                0.09405039                0.02310844                0.00491680                0.01843009
               2.00285712                3.99880256               14.01209526                0.01000000               -0.03286285               -0.07532580                0.09443784                0.06143309                0.01943444               -0.00582899
               3.00243603                3.99860233               14.01207871                0.01000001               -0.05207084               -0.06663767                0.09619891                0.10548558                0.03620218               -0.01692617
               4.00181570                3.99886277               14.01226119                0.01000000               -0.06831982               -0.06218564                0.09865838                0.14943529                0.05017482               -0.01533924
               5.00106964                3.99952399               14.01261610                0.01000001               -0.07728382               -0.06302194                0.10142396                0.18436088                0.05887034               -0.00486027
               6.00027002                4.00044845               14.01308336                0.01000000               -0.08150081               -0.07187610                0.10412058                0.21322979                0.06207717                0.00972086
               6.99943962                4.00153865               14.01361051                0.01003677               -0.06959237               -0.08106709                0.10591071                0.22997220                0.05347553                0.02768703
               7.99887818                4.00243336               14.01401478                0.01000002               -0.05321431               -0.10718045                0.10836462                0.25930360                0.03778391                0.02975214
               8.99837533                4.00292696               14.01427131                0.01000000               -0.01793829               -0.12913515                0.10915063                0.19101580                0.01557799                0.05438154
               9.99851941                4.00230290               14.01427062                0.01008711                0.01440781               -0.19525510                0.10909766                0.14567212                0.00755738                0.02878139
               0.00468031                5.00005414               14.01316572                0.01000000               -0.02163078               -0.05750632                0.09851982                0.04671064               -0.00013456                0.06885033
               1.00446400                4.99863831               14.01263753                0.01000000               -0.02514664               -0.08089230                0.09638631                0.08014356                0.00764628                0.01553605
               2.00417738                4.99798010               14.01222949                0.01000001               -0.04093417               -0.08012718                0.09571037                0.10970065                0.02529248               -0.01568732
               3.00364532                4.99786676               14.01208111                0.01000000               -0.05897148               -0.07764205                0.09697627                0.14676121                0.04734311               -0.02259067
               4.00299795                4.99817590               14.01221794                0.01000001               -0.07012602               -0.07023671                0.09938832                0.17455701                0.06714322               -0.01421710
               5.00224280                4.99883182               14.01258371                0.01000000               -0.07599485               -0.07050306                0.10254876                0.19438325                0.08030202                0.00330404
               6.00147805                4.99968409               14.01310816                0.01000000               -0.06946047               -0.07857920                0.10535636                0.20172300                0.08504519                0.02660395
               7.00085359                5.00055430               14.01368203                0.01000000               -0.05415887               -0.09776554                0.10921691                0.20099141                0.08063280                0.05217670
               8.00039487                5.00129401               14.01420697                0.01000000               -0.03213223               -0.11523619                0.11202779                0.17733825                0.06602513                0.07701303
               9.00021094                5.00160115               14.01451035                0.01000000               -0.01476777               -0.12438739                0.11350761                0.12455046                0.03944766                0.08810068
              10.00009952                5.00101416               14.01445868                0.01000000               -0.01114269               -0.09696044                0.11306520                0.06193592                0.02403863                0.07456747
               0.00706956                5.99925417               14.01402859                0.88685965               -0.02993595               -0.05555168                0.10246990                0.04810745               -0.00373862                0.04196004
               1.00677020                5.99783187               14.01306033                0.01000000               -0.06234399               -0.05513060                0.09745941                0.08314186                0.00737560                0.00371602
               2.00582268                5.99720001               14.01231370                0.01000001               -0.07973702               -0.09244431                0.09636507                0.14649480                0.02877878               -0.03423446
               3.00517546                5.99704949               14.01207083                0.01000001               -0.07404485               -0.07468689                0.09705010                0.16836364                0.06633922               -0.02895552
               4.00434178                5.99745804               14.01222604                0.01000000               -0.08631728               -0.07074661                0.10015503                0.18771000                0.09154881               -0.01535341
               5.00344911                5.99811393               14.01267106                0.01000000               -0.08798902               -0.06670817                0.10359191                0.18737363                0.10821800                0.00736511
               6.00258200                5.99887687               14.01332361                0.01000007               -0.07997916               -0.07279366                0.10826106                0.16969807                0.11783302                0.03763379
               7.00184953                5.99958334               14.01409844                0.01000000               -0.06019551               -0.09033248                0.11375586                0.13636963                0.11766149                0.07586928
               8.00137809                6.00012864               14.01483971                0.01000000               -0.03516684               -0.11183952                0.11809991                0.10067860                0.10059372                0.11331449
               9.00114619                6.00043921               14.01530026                0.01000002               -0.02229832               -0.11111447                0.11994229                0.05760811                0.06102340                0.14095168
              10.00093212                6.00036370               14.01522986                0.01000002               -0.02140681               -0.05324139                0.11890645                0.02838855                0.03524604                0.14063218
               0.00848706                6.99894311               14.01438838                1.00000000               -0.03060613               -0.03140013                0.10461948                0.00024501               -0.00295511                0.01966848
               1.00818099                6.99753570               14.01331622                1.00000000               -0.02987004               -0.02991281                0.09953237               -0.00017851               -0.00599078               -0.00135250
               2.00788965                6.99613122               14.01218440                0.01000001               -0.07132150               -0.06773597                0.09472369                0.11486727                0.04157540               -0.03301775
               3.00675456                6.99637302               14.01206819                0.01000000               -0.11009744               -0.07507642                0.09726169                0.17686349                0.09338009               -0.03508492
               4.00568771                6.99676097               14.01225184                0.01000002               -0.10915626               -0.06796259                0.10097167                0.19240258                0.11614980               -0.02224763
               5.00457144                6.99749766               14.01281845                0.01000000               -0.11425541               -0.04862030                0.10557586                0.17771629                0.14119557                0.00635187
               6.00340260                6.99822821               14.01368952                0.01000000               -0.11211129               -0.04769681                0.11218766                0.12675169                0.15845107                0.04361889
               7.00232921                6.99874765               14.01481374                0.01000000               -0.09250142               -0.06458717                0.11920981                0.06097775                0.16385274                0.09030473
               8.00155257                6.99905722               14.01594039                0.01000000               -0.06005835               -0.09462471                0.12621916                0.00252523                0.14438537                0.15664084
               9.00112805                6.99937886               14.01675441                0.01000000               -0.03671217               -0.10812958                0.13092259               -0.01851164                0.08871374                0.21195753
              10.00081833                6.99994933               14.01678718                0.01000001               -0.03097206               -0.05069552                0.13075482               -0.01805856                0.04901071                0.24662534
               0.00988928                7.99862617               14.01480470                0.99999999               -0.03107608               -0.03194383                0.10628340                0.00020094               -0.00079656                0.02279786
               1.00957852                7.99723361               14.01364107                1.00000000               -0.03032912               -0.03042854                0.10123360               -0.00006635               -0.00037451                0.00267060
               2.00928270                7.99584529               14.01248709                0.01000007               -0.07477716               -0.02883095                0.09618933                0.05423244                0.03356672               -0.01556149
               3.00808298                7.99554796               14.01200625                0.01000000               -0.11087491               -0.10936350                0.09867944                0.19368933                0.08816459               -0.07425047
               4.00706520                7.99609879               14.01220396                0.01000002               -0.12733924               -0.04337617                0.10134273                0.21242537                0.14215014               -0.02862189
               5.00553619                7.99714152               14.01297595                0.01000000               -0.15990809               -0.01276533                0.10709662                0.16378032                0.17562681                0.00424980
               6.00386704                7.99792293               14.01410528                0.01000000               -0.16480540               -0.01059476                0.11521661                0.08336192                0.19758668                0.04042761
               7.00224008                7.99829160               14.01561721                0.01000003               -0.15348267               -0.02082958                0.12483398               -0.00539374                0.22641439                0.08523594
               8.00079739                7.99823614               14.01756308                0.01000002               -0.11781181               -0.04796390                0.13738793               -0.09695554                0.21697002                0.16410206
               8.99988385                7.99827662               14.01907414                0.01000007               -0.06836797               -0.09400325                0.14649294               -0.15572604                0.14400166                0.37174796
               9.99943003                7.99934978               14.01965498                0.01000000               -0.04538223               -0.13746681                0.14936401               -0.11487732                0.09552378                0.36816017
               0.01127618                8.99830423               14.01522793                0.99998919               -0.03156392               -0.03240967                0.10780137                0.00021337                0.00229980                0.01831406
               1.01096054                8.99692713               14.01398106                0.99999999               -0.03081104               -0.03084479                0.10271214               -0.00002962                0.00120629                0.00203086
               2.01065996                8.99555460               14.01271308                1.00000000               -0.02928414               -0.02929902                0.09757737               -0.00006915               -0.00500503               -0.01153049
               3.01037486                8.99418575               14.01134549                0.01000002               -0.11586540               -0.08205160                0.09236768                0.19943619                0.10026481               -0.06188744
               4.00834265                8.99589344               14.01218916                0.01000000               -0.21759789                0.01908441                0.10125521                0.20222939                0.19282730               -0.02333047
               5.00602290                8.99724235               14.01309121                0.01000000               -0.22114447                0.02490640                0.10765937                0.11057263                0.19483918                0.00331705
               6.00391976                8.99801632               14.01440522                0.01000001               -0.20573848                0.02016713                0.11575973                0.04083546                0.22323982                0.02567504
               7.00190813                8.99833106               14.01624402                0.01000002               -0.21456643                0.01499426                0.12893512               -0.02157272                0.27166250                0.05306612
               7.99962843                8.99809794               14.01886725                0.01000001               -0.25041234                0.01591874                0.14583784               -0.10086629                0.41108223                0.11531857
               8.99689988                8.99749880               14.02378128                0.99999998               -0.16269884               -0.06518326                0.17659924               -0.17967533                0.25383614                0.24702609
               9.99637446                8.99719999               14.02359620                0.99995666               -0.05254275               -0.13324090                0.17335259               -0.16773971               -0.00099915                0.20660952
               0.01264776                9.99797797               14.01555512                1.00000000               -0.03201979               -0.03262579                0.10928923                0.00103253                0.01265387                0.01354971
               1.01232756                9.99661672               14.01429615                1.00000000               -0.03125353               -0.03104074                0.10419786                0.00076915                0.01589803                0.00068653
               2.01202269                9.99525931               14.01310214                0.99999998               -0.02973540               -0.02952842                0.09909192                0.00078346                0.01592746               -0.00360438
               3.01173285                9.99390693               14.01184643                0.01000000               -0.19847487               -0.02788256                0.09398502                0.19685773                0.09486500               -0.00415303
               4.00805319                9.99648048               14.01223642                0.01000003               -0.30540419                0.05870306                0.09990494                0.15769023                0.16226928               -0.01112576
               5.00562477                9.99763965               14.01313552                0.01000000               -0.22290776                0.03973004                0.10780929                0.05247707                0.18525768                0.00718785
               6.00359504                9.99832628               14.01444137                0.01000001               -0.19488790                0.03099562                0.11445159                0.01511912                0.21862971                0.01891260
               7.00172701                9.99859148               14.01633019                0.01000000               -0.19913572                0.02604208                0.12914777               -0.00669973                0.29232662                0.03109407
               7.99961232                9.99855452               14.01945371                0.01000000               -0.22693623                0.04565793                0.14893813               -0.08253729                0.39211864                0.08611669
               8.99718829                9.99697296               14.02357032                0.99996817               -0.14697379               -0.05258412                0.17360314               -0.06463707                0.21631477                0.00123010
               9.99667285                9.99668497               14.02338523                0.99983321               -0.05154415               -0.05150248                0.17035605                0.00103995                0.00110875               -0.00110890
               0.00129614                0.00176255               15.01237545                1.00000000               -0.02508215               -0.02507157                0.08345944                0.00008509               -0.00365989                0.00341357
               1.00104532                0.00111228               15.01235153                1.00000000               -0.02512678               -0.02516670                0.08376688                0.00004884               -0.00407468               -0.00107833
               2.00079360                0.00046280               15.01232124                0.01000532               -0.01457254               -0.02526206                0.08407437                0.01084876                0.03044080               -0.00170510
               3.00075387                0.00003014               15.01298861                0.01000000               -0.00710473               -0.02862127                0.09127226                0.00460958                0.07605932               -0.00589824
               4.00065151                0.00025316               15.01380466                0.01000001               -0.02013235               -0.02512632                0.09822990                0.02310989                0.10075919               -0.01155000
               5.00035122                0.00125123               15.01493589                0.01000000               -0.06272946               -0.02330271                0.10519715                0.06494434                0.13585794               -0.01723959
               5.99939692                0.00336806               15.01650296                0.35154430               -0.06468154               -0.03369910                0.11341821                0.06459649                0.08381392               -0.00096762
               6.99905759                0.00418690               15.01689307                1.00000000               -0.03430925               -0.03407278                0.11519446                0.00007541                0.01606233               -0.00385242
               7.99871073                0.00499768               15.01710133                0.99999999               -0.03483168               -0.03434898                0.11608740                0.00016688                0.00834709               -0.00044577
               8.99836096                0.00579888               15.01733526                1.00000000               -0.03513976               -0.03464540                0.11709045                0.00016231                0.00771434                0.00090172
               9.99800794                0.00659025               15.01753016                1.00000000               -0.03530158               -0.03495131                0.11809144                0.00066252                0.00574077                0.00524690
               0.00194726                1.00151183               15.01242867                0.99999315               -0.02515723               -0.02510658                0.08370239                0.00003925                0.00101841                0.00368271
               1.00169568                1.00086062               15.01240605                0.01000000               -0.02520463               -0.02520520                0.08400946                0.00000276                0.00268064               -0.00280513
               2.00144316                1.00021018               15.01241669                0.01000000               -0.03954519               -0.03236282                0.08431627               -0.00780270                0.03489578                0.00905049
               3.00090478                0.99974393               15.01303732                0.01000001               -0.05855500               -0.02610534                0.09174729                0.01013073                0.06523242               -0.00842396
               4.00027206                1.00000190               15.01371655                0.01000000               -0.07307820               -0.02396455                0.09749881                0.05098315                0.07442278               -0.01561882
               4.99944322                1.00101820               15.01461186                0.01000000               -0.08485053               -0.02652810                0.10321210                0.10893846                0.10292046               -0.02071701
               5.99857505                1.00303107               15.01601271                0.01000000               -0.05998400               -0.06901759                0.11025117                0.10307486                0.06711311               -0.03400692
               6.99824354                1.00384617               15.01632751                1.00000000               -0.03343195               -0.03358197                0.11192093               -0.00011164                0.00694832               -0.00393018
               7.99790641                1.00465419               15.01652247                0.99999999               -0.03386209               -0.03387398                0.11289165                0.00002809                0.00123823               -0.00036135
               8.99756629                1.00545243               15.01672208                1.00000000               -0.03416073               -0.03416968                0.11389852                0.00002330                0.00098451                0.00050997
               9.99722320                1.00624073               15.01691216                0.99999463               -0.03430952               -0.03447718                0.11490281                0.00049313                0.00043926                0.00651610
               0.00259936                2.00126042               15.01248874                0.01000001               -0.02523256               -0.03933693                0.08394501               -0.02434957                0.00155017                0.02713279
               1.00234703                2.00060818               15.01242648                0.01000000               -0.04225594               -0.04124142                0.08425229               -0.02958835                0.01976768                0.01745447
               2.00175424                1.99981554               15.01272668                0.01000001               -0.05911373               -0.04337276                0.08926835               -0.01447914                0.03663813                0.01070435
               3.00116476                1.99950803               15.01303351                0.01000000               -0.06786713               -0.03339411                0.09284239                0.03894924                0.04344064               -0.01036636
               4.00039690                1.99977387               15.01352649                0.01000000               -0.08319681               -0.03073994                0.09718040                0.09777272                0.05549877               -0.01915444
               4.99950082                2.00072067               15.01418301                0.01000001               -0.08832218               -0.04071250                0.10143177                0.14672650                0.05787908               -0.02454064
               5.99863045                2.00198771               15.01485989                0.01000000               -0.10342908               -0.08113292                0.10494318                0.17000760                0.06476622               -0.04757090
               6.99743224                2.00351526               15.01575838                0.01000003               -0.07627054               -0.06248289                0.10866891                0.11114362                0.03106963               -0.01886246
               7.99710504                2.00432020               15.01594449                0.05326692               -0.03286824               -0.03304873                0.10968399                0.00103872               -0.00600565                0.00680921
               8.99677487                2.00511549               15.01610141                0.99999999               -0.03319271               -0.03320908                0.11072199                0.00003469               -0.00438036               -0.00189441
               9.99644119                2.00590070               15.01632112                0.99999998               -0.03336872               -0.03353467                0.11172750                0.00049642               -0.00135377                0.00647533
               0.00276474                3.00072509               15.01301063                0.01000001               -0.02159443               -0.04281015                0.09075230               -0.01912670                0.00253852                0.05282241
               1.00254879                3.00003579               15.01288476                0.01000001               -0.02555064               -0.06532585                0.09047191               -0.01659067                0.00888573                0.03115988
               2.00225373                2.99934272               15.01287193                0.01000000               -0.04116816               -0.06063079                0.09162490                0.02262460                0.02320006                0.00094104
               3.00172543                2.99907605               15.01303525                0.01000000               -0.06194221               -0.05358709                0.09440433                0.08011491                0.03723866               -0.01198037
               4.00101488                2.99938710               15.01335521                0.01000001               -0.07807607               -0.04919289                0.09781644                0.13933679                0.04723007               -0.01685664
               5.00016391                3.00020395               15.01380569                0.01000000               -0.09171330               -0.05659667                0.10069791                0.18872192                0.05410679               -0.01676156
               5.99918062                3.00140841               15.01436583                0.01000000               -0.10149951               -0.06596391                0.10340790                0.20807847                0.05003218               -0.00734859
               6.99813392                3.00259651               15.01489300                0.01000000               -0.14268279               -0.08031168                0.10514117                0.23315025                0.04611610               -0.01121369
               7.99632696                3.00399321               15.01550910                0.01000007               -0.10737195               -0.07119055                0.10324440                0.20062236               -0.00040466                0.01485703
               8.99598648                3.00478824               15.01544138                0.01000000               -0.03321333               -0.08535854                0.10755819                0.16056646               -0.01807050                0.02513746
               9.99566269                3.00557004               15.01570481                0.19724366               -0.03237874               -0.16069099                0.10853973                0.18613798               -0.00167290                0.01889261
               0.00359544                4.00040421               15.01353780                0.01000000               -0.01978424               -0.03513196                0.09464619                0.01259979               -0.00097719                0.05762309
               1.00339759                3.99930166               15.01323101                0.01000000               -0.02144812               -0.08155945                0.09375904                0.03366664                0.00618782                0.02116496
               2.00316647                3.99860292               15.01303830                0.01000000               -0.03374596               -0.08166077                0.09420855                0.08016866                0.02214789               -0.00445051
               3.00272267                3.99843629               15.01304087                0.01000001               -0.05553749               -0.07176389                0.09611427                0.12997810                0.03981110               -0.01579120
               4.00205572                3.99879001               15.01324740                0.01000000               -0.07343618               -0.06672307                0.09856367                0.17840183                0.05418031               -0.01422929
               5.00125395                3.99958874               15.01362993                0.01000001               -0.08281294               -0.06801988                0.10115788                0.21636565                0.06279890               -0.00306433
               6.00039946                4.00066843               15.01412232                0.01000000               -0.08717536               -0.07824429                0.10384944                0.24675614                0.06507420                0.01281173
               6.99951044                4.00190902               15.01466503                0.01000007               -0.07368537               -0.08707834                0.10554152                0.26062983                0.05585394                0.03245430
               7.99892576                4.00289638               15.01509594                0.01002426               -0.05505340               -0.11581353                0.10745050                0.29081139                0.03942461                0.03812970
               8.99840937                4.00340832               15.01536340                0.01000000               -0.01627010               -0.14019613                0.10911193                0.21459168                0.01648239                0.05980932
               9.99860035                4.00268688               15.01536552                0.01000002                0.01909799               -0.21378878                0.10990256                0.16468315                0.00825299                0.03374637
               0.00522184                5.00002246               15.01414925                0.01000005               -0.01984190               -0.06746104                0.09842565                0.05972157                0.00057699                0.07260540
               1.00502342                4.99840460               15.01360089                0.01000000               -0.02496839               -0.08896989                0.09650807                0.10079905                0.00911318                0.01647945
               2.00472247                4.99770950               15.01318628                0.01000001               -0.04427580               -0.08649049                0.09580685                0.13479832                0.02814173               -0.01546348
               3.00413790                4.99764077               15.01305195                0.01000000               -0.06459975               -0.08397509                0.09735838                0.17635221                0.05083196               -0.02157119
               4.00343047                4.99805264               15.01321266                0.01000001               -0.07625473               -0.07511851                0.09931523                0.20624036                0.07197578               -0.01310561
               5.00261281                4.99884356               15.01360706                0.01000000               -0.08175123               -0.07565855                0.10228391                0.22738004                0.08546326                0.00562045
               6.00179545                4.99984352               15.01416469                0.01000001               -0.07471234               -0.08475251                0.10557661                0.23443979                0.09111297                0.03126876
               7.00111856                5.00085495               15.01478181                0.01000001               -0.05757764               -0.10606973                0.11022418                0.23078838                0.08671862                0.05908963
               8.00064390                5.00167694               15.01532592                0.01000000               -0.03153724               -0.12439286                0.11182767                0.20026257                0.07068834                0.08366987
               9.00048782                5.00198432               15.01564312                0.01000000               -0.01223383               -0.13298802                0.11300481                0.13937218                0.04173772                0.09624080
              10.00039922                5.00129426               15.01558958                0.01000000               -0.00885955               -0.10270914                0.11331577                0.06942602                0.02528731                0.08208982
               0.00802558                5.99905499               15.01505175                0.87063477               -0.02990534               -0.06391314                0.10233605                0.06337943               -0.00366184                0.04366257
               1.00772652                5.99752227               15.01403565                0.01000000               -0.06996539               -0.05902176                0.09778566                0.10213995                0.00921434                0.00400876
               2.00662627                5.99687311               15.01327910                0.01000000               -0.09099711               -0.10015323                0.09673926                0.17331401                0.03210392               -0.03539546
               3.00590658                5.99675679               15.01304199                0.01000000               -0.08242644               -0.07970973                0.09730718                0.19781744                0.07157562               -0.02916999
               4.00497774                5.99728764               15.01322822                0.01000000               -0.09479580               -0.07534220                0.10035687                0.21941078                0.09822081               -0.01466447
               5.00401067                5.99807557               15.01371033                0.01000001               -0.09504350               -0.07194796                0.10389792                0.21867003                0.11637649                0.01017210
               6.00307687                5.99897338               15.01441816                0.01000001               -0.08589362               -0.07803846                0.10950204                0.19646058                0.12668894                0.04282562
               7.00229279                5.99978763               15.01524554                0.01000000               -0.06376198               -0.09761483                0.11453764                0.15885937                0.12540696                0.08335638
               8.00180163                6.00040853               15.01602016                0.01000000               -0.03566497               -0.12009507                0.11775609                0.11805681                0.10644496                0.12309135
               9.00157949                6.00074855               15.01650210                0.01000001               -0.02163216               -0.11779931                0.12048837                0.06733033                0.06477883                0.15282962
              10.00136899                6.00063270               15.01643033                0.01000001               -0.02105058               -0.05330165                0.12027501                0.03323741                0.03762416                0.15332043
               0.00955488                6.99874419               15.01543422                0.99999999               -0.03067852               -0.03141489                0.10468490                0.00023039               -0.00294262                0.02016985
               1.00924810                6.99722416               15.01431378                1.00000000               -0.03003292               -0.03010752                0.10008775               -0.00027655               -0.00590055               -0.00087205
               2.00895422                6.99570644               15.01313695                0.01000000               -0.07841886               -0.07278918                0.09584983                0.13284956                0.04525827               -0.03448510
               3.00767972                6.99604657               15.01304537                0.01000000               -0.12271543               -0.08020883                0.09798009                0.20350478                0.10032865               -0.03556686
               4.00649992                6.99654580               15.01325991                0.01000007               -0.11896237               -0.07247700                0.10087775                0.22077286                0.12461583               -0.02237470
               5.00530047                6.99740460               15.01388025                0.01000001               -0.12436595               -0.05154906                0.10675537                0.20514730                0.15142826                0.00920891
               6.00401260                6.99828275               15.01482070                0.01000000               -0.12199365               -0.04968366                0.11276889                0.14804019                0.16979114                0.04807537
               7.00286060                6.99890265               15.01599973                0.01000000               -0.09842439               -0.06745437                0.11873059                0.07473658                0.17423964                0.09777577
               8.00204411                6.99927504               15.01720010                0.01000000               -0.06251748               -0.09912918                0.12613779                0.00904350                0.15396699                0.16866432
               9.00161025                6.99962834               15.01806942                0.01000000               -0.03742154               -0.11269779                0.13139445               -0.01660462                0.09501797                0.22779942
              10.00129568                7.00022823               15.01811392                0.01000001               -0.03145722               -0.04954282                0.13233913               -0.01743988                0.05340934                0.26432733
               0.01107024                7.99842670               15.01586770                0.99999999               -0.03114958               -0.03198681                0.10636145                0.00016991               -0.00078471                0.02288481
               1.01075875                7.99692011               15.01465581                1.00000000               -0.03046951               -0.03060472                0.10175214               -0.00010368               -0.00039193                0.00272820
               2.01046085                7.99541733               15.01345369                0.01000000               -0.08107122               -0.02913473                0.09715311                0.06156690                0.03668452               -0.01575155
               3.00913732                7.99515261               15.01298779                0.01000007               -0.12128386               -0.12040397                0.09839273                0.22029619                0.09579196               -0.07843005
               4.00803518                7.99583810               15.01321820                0.01003610               -0.13803344               -0.04497986                0.10107987                0.24037906                0.15115143               -0.02943625
               5.00637665                7.99704458               15.01404701                0.01000000               -0.17477752               -0.01022923                0.10757426                0.18706133                0.18542961                0.00665010
               6.00453962                7.99797971               15.01525772                0.01000000               -0.17907059               -0.00821840                0.11488180                0.10022364                0.21073588                0.04377999
               7.00279524                7.99843854               15.01686307                0.01000003               -0.16414045               -0.01939478                0.12494581                0.00033489                0.24097016                0.09290241
               8.00125682                7.99842594               15.01893606                0.01000002               -0.12505158               -0.04785695                0.13723046               -0.10000436                0.23110799                0.17602151
               9.00029421                7.99849460               15.02053624                0.01000001               -0.07182084               -0.09461897                0.14619150               -0.16521768                0.15296753                0.39668774
               9.99982040                7.99964184               15.02114508                0.01000000               -0.04738112               -0.14061500                0.14926873               -0.12177093                0.10131173                0.39131003
               0.01257144                8.99810446               15.01630557                1.00000000               -0.03160530               -0.03240497                0.10772863                0.00018608                0.00228905                0.01827729
               1.01225539                8.99661207               15.01501002                0.99999999               -0.03091900               -0.03097020                0.10307789               -0.00004582                0.00116257                0.00195053
               2.01195306                8.99512375               15.01369283                1.00000000               -0.02952600               -0.02955401                0.09837094               -0.00009985               -0.00511575               -0.01168927
               3.01166487                8.99363849               15.01227517                0.01000000               -0.12687679               -0.08981902                0.09357450                0.22626138                0.10691125               -0.06528943
               4.00941553                8.99564620               15.01320463                0.01000000               -0.23823863                0.02421543                0.10142074                0.22912605                0.20445301               -0.02425687
               5.00690010                8.99720001               15.01416582                0.01000000               -0.23962083                0.03115810                0.10742246                0.12508381                0.20666400                0.00458238
               6.00462311                8.99811839               15.01556784                0.01000001               -0.22395187                0.02541572                0.11694441                0.05160149                0.23929596                0.02764840
               7.00242106                8.99851475               15.01754581                0.01000002               -0.23175726                0.01979341                0.13008507               -0.02071754                0.29094765                0.05864228
               7.99998797                8.99831790               15.02032157                0.01000001               -0.26655316                0.02081465                0.14551223               -0.10527257                0.43766143                0.12291953
               8.99709000                8.99773596               15.02554384                0.99999998               -0.17110978               -0.06417007                0.17591300               -0.18971367                0.27070698                0.26336769
               9.99656577                8.99741593               15.02532955                0.99995860               -0.05242270               -0.13710119                0.17331771               -0.17875938               -0.00100079                0.22008777
               0.01405874                9.99777860               15.01664711                1.00000000               -0.03201953               -0.03258598                0.10907043                0.00094084                0.01264999                0.01351176
               1.01373854                9.99630071               15.01533942                1.00000000               -0.03131530               -0.03113592                0.10441489                0.00069783                0.01589978                0.00062554
               2.01343243                9.99482625               15.01409647                1.00000000               -0.02992226               -0.02974954                0.09973577                0.00071296                0.01594119               -0.00367587
               3.01314010                9.99335623               15.01279186                0.01000001               -0.21881266               -0.02822607                0.09506286                0.22233080                0.10030622               -0.00416412
               4.00905618                9.99632241               15.01324099                0.01006841               -0.33669775                0.06762139                0.10071734                0.17964067                0.17400194               -0.01249434
               5.00640614                9.99766775               15.01421344                0.01000000               -0.23996315                0.04677327                0.10775526                0.05888482                0.19746501                0.00824575
               6.00425691                9.99848802               15.01559697                0.01000001               -0.21123818                0.03696336                0.11650432                0.02171368                0.23664487                0.01966507
               7.00218138                9.99883441               15.01765324                0.01002720               -0.21633765                0.03196580                0.13178413               -0.00625737                0.31447167                0.03576780
               7.99993016                9.99884224               15.02093582                0.01000001               -0.23897363                0.05243370                0.14862319               -0.08694103                0.41647757                0.09134527
               8.99740191                9.99721120               15.02530653                0.99997462               -0.15224510               -0.05247581                0.17363884               -0.06592999                0.23047989                0.00123046
               9.99688526                9.99689982               15.02509224                0.99996378               -0.05166457               -0.05161114                0.17104356                0.00081125                0.00110977               -0.00110955
               0.00128192                0.00174225               16.01321200                1.00000000               -0.02517838               -0.02514442                0.08385293                0.00001195               -0.00365954                0.00341481
               1.00103014                0.00104577               16.01319034                1.00000000               -0.02519952               -0.02518877                0.08399526                0.00002183               -0.00407435               -0.00107752
               2.00077793                0.00034908               16.01316230                0.01000000               -0.01291768               -0.02523320                0.08413751                0.01358132                0.03374698               -0.00170548
               3.00077179               -0.00007665               16.01389804                0.01000000               -0.00463104               -0.02853680                0.09088273                0.00737491                0.08290958               -0.00511743
               4.00068531                0.00022956               16.01478474                0.01000001               -0.02060232               -0.02410169                0.09773104                0.02852974                0.10766721               -0.01150559
               5.00035974                0.00141121               16.01598525                0.01000000               -0.07169307               -0.02150349                0.10471224                0.07784388                0.14314396               -0.01750767
               5.99925145                0.00386452               16.01763478                0.33648755               -0.07228316               -0.03360501                0.11292687                0.07911760                0.08773636               -0.00095890
               6.99891408                0.00472984               16.01804300                1.00000000               -0.03416164               -0.03396485                0.11476628                0.00008442                0.01636869               -0.00394627
               7.99856822                0.00558803               16.01826115                0.99999999               -0.03476281               -0.03430504                0.11586410                0.00019914                0.00830976               -0.00045240
               8.99821882                0.00643708               16.01850610                1.00000000               -0.03513345               -0.03466384                0.11707669                0.00019442                0.00773711                0.00090823
               9.99786555                0.00727677               16.01871200                0.99999999               -0.03532713               -0.03503578                0.11828821                0.00067258                0.00575850                0.00526701
               0.00197852                1.00149080               16.01326613                1.00000000               -0.02515798               -0.02513451                0.08378822               -0.00000949                0.00101776                0.00368376
               1.00172694                1.00079388               16.01324575                0.01000000               -0.02517851               -0.02518036                0.08393041                0.00000030                0.00268018               -0.00280400
               2.00147495                1.00009674               16.01325864                0.01000000               -0.04108251               -0.03279003                0.08407261               -0.00589689                0.03841847                0.01144982
               3.00090529                0.99963799               16.01395196                0.01000001               -0.06241348               -0.02585697                0.09128030                0.01594465                0.07143166               -0.00739061
               4.00022668                0.99998855               16.01468917                0.01000000               -0.07922966               -0.02313819                0.09698431                0.06242628                0.07969400               -0.01531944
               4.99932070                1.00119617               16.01564171                0.01000000               -0.09216857               -0.02632191                0.10273518                0.12947535                0.10854528               -0.02076875
               5.99838331                1.00352847               16.01711359                0.01000001               -0.06337660               -0.07587350                0.10990577                0.12149090                0.07040369               -0.03519804
               6.99805317                1.00439019               16.01744543                1.00000000               -0.03333601               -0.03349524                0.11163929               -0.00009475                0.00723579               -0.00399898
               7.99771659                1.00524498               16.01765106                0.99999995               -0.03383866               -0.03385186                0.11281583                0.00002917                0.00123663               -0.00036652
               8.99737639                1.00609044               16.01786173                1.00000000               -0.03420041               -0.03420967                0.11403208                0.00002323                0.00100441                0.00052411
               9.99703258                1.00692641               16.01806284                0.99999998               -0.03438111               -0.03458318                0.11524626                0.00047063                0.00045387                0.00653485
               0.00267558                2.00123956               16.01332709                0.01044121               -0.02513766               -0.03765642                0.08372328               -0.02275259                0.00154976                0.03054723
               1.00242420                2.00054216               16.01326708                0.01000000               -0.04298460               -0.04212404                0.08386559               -0.02783575                0.02216673                0.02052321
               2.00181589                1.99969328               16.01361751                0.01000001               -0.06126622               -0.04514634                0.08898663               -0.00980283                0.04129257                0.01452958
               3.00119888                1.99940622               16.01395956                0.01000000               -0.07201184               -0.03427179                0.09232995                0.05127731                0.04733043               -0.00879927
               4.00037565                1.99976680               16.01449550                0.01000000               -0.08947785               -0.03134855                0.09674605                0.11784651                0.05951564               -0.01810127
               4.99940932                2.00088477               16.01519602                0.01000001               -0.09441997               -0.04430308                0.10120432                0.17361632                0.06111120               -0.02401147
               5.99848725                2.00234705               16.01590563                0.01000003               -0.11068232               -0.09081305                0.10456734                0.19666531                0.06782003               -0.04867420
               6.99719568                2.00405994               16.01684448                0.01000000               -0.08093482               -0.06727349                0.10853083                0.12644401                0.03254930               -0.01928967
               7.99686855                2.00491099               16.01704174                0.05770762               -0.03289118               -0.03308340                0.10975563                0.00084976               -0.00596643                0.00644685
               8.99653785                2.00575288               16.01721004                0.99999999               -0.03327690               -0.03329110                0.11100363                0.00003854               -0.00434384               -0.00186591
               9.99620302                2.00658511               16.01744079                0.99996630               -0.03348347               -0.03368489                0.11221835                0.00047485               -0.00133772                0.00648859
               0.00291826                3.00073767               16.01391815                0.01006572               -0.02017561               -0.04107081                0.08707682               -0.01752020                0.00219706                0.05723736
               1.00271651                2.99995140               16.01378761                0.01000001               -0.02517119               -0.06926343                0.08880925               -0.01257565                0.00954437                0.03534404
               2.00241484                2.99919382               16.01378589                0.01000000               -0.04295955               -0.06470400                0.09149253                0.03377413                0.02541145                0.00337189
               3.00185732                2.99895255               16.01397676                0.01000000               -0.06548911               -0.05682052                0.09413168                0.09960198                0.04062947               -0.01012626
               4.00110506                2.99936157               16.01433178                0.01011523               -0.08222714               -0.05230277                0.09699369                0.16460791                0.05039364               -0.01520552
               5.00021277                3.00031011               16.01481132                0.01000000               -0.09818021               -0.06117187                0.10004048                0.21960025                0.05715316               -0.01571702
               5.99914145                3.00171221               16.01539694                0.01000000               -0.10973327               -0.07206102                0.10326180                0.23918815                0.05269405               -0.00632293
               6.99801811                3.00304472               16.01593965                0.01000000               -0.15504074               -0.08805038                0.10508230                0.26292522                0.04656397               -0.01007551
               7.99604064                3.00458331               16.01656785                0.01000000               -0.11575289               -0.07659275                0.10544746                0.22398192               -0.00019159                0.01669188
               8.99570305                3.00542462               16.01651910                0.01000002               -0.03315008               -0.09157393                0.10798901                0.17834760               -0.01765912                0.02733788
               9.99537764                3.00625271               16.01679334                0.21155622               -0.03254136               -0.17460239                0.10917891                0.20667066               -0.00167516                0.02118104
               0.00389773                4.00041814               16.01448197                0.01000000               -0.01811807               -0.03726851                0.09404136                0.01739091               -0.00053436                0.06127786
               1.00371655                3.99915689               16.01416761                0.01000000               -0.02037544               -0.08940702                0.09359605                0.04368905                0.00707933                0.02368106
               2.00349022                3.99839920               16.01397943                0.01000000               -0.03466918               -0.08818882                0.09418631                0.09936113                0.02438685               -0.00267288
               3.00302316                3.99826981               16.01400100                0.01011602               -0.05899850               -0.07591666                0.09555678                0.15499071                0.04281884               -0.01407732
               4.00231025                3.99872074               16.01423246                0.01000000               -0.07862352               -0.07143023                0.09772183                0.20844094                0.05711840               -0.01277090
               5.00145069                3.99966133               16.01463926                0.01000000               -0.08869212               -0.07231439                0.10046085                0.24861704                0.06592608               -0.00113444
               6.00053640                4.00090583               16.01516035                0.01000000               -0.09338056               -0.08492949                0.10374322                0.28108518                0.06776798                0.01554574
               6.99958308                4.00229893               16.01572134                0.01000001               -0.07840530               -0.09445702                0.10592712                0.29409658                0.05766234                0.03732637
               7.99896830                4.00337914               16.01616379                0.01000000               -0.05738401               -0.12700650                0.10765891                0.32645814                0.04118723                0.04390468
               8.99843540                4.00392140               16.01645355                0.01000000               -0.01440311               -0.15186722                0.10936344                0.23964517                0.01733256                0.06636099
               9.99868024                4.00309306               16.01646867                0.01000000                0.02448368               -0.23307871                0.11037672                0.18390041                0.00928442                0.03797915
               0.00578858                4.99999230               16.01513424                0.01000000               -0.01793477               -0.07878461                0.09866267                0.07363535                0.00119216                0.07645070
               1.00560923                4.99816326               16.01456769                0.01000000               -0.02497158               -0.09788720                0.09686743                0.12241666                0.01028741                0.01779313
               2.00528915                4.99743004               16.01414563                0.01000001               -0.04868242               -0.09288777                0.09629575                0.16195817                0.03079994               -0.01483601
               3.00463558                4.99743422               16.01402827                0.01000000               -0.07034001               -0.08985713                0.09719478                0.20688093                0.05390481               -0.02044077
               4.00388235                4.99793297               16.01420424                0.01000000               -0.08177783               -0.08016245                0.09887981                0.23786065                0.07576775               -0.01170365
               5.00300003                4.99886382               16.01462939                0.01000000               -0.08783926               -0.08085759                0.10231322                0.26083271                0.09009231                0.00789224
               6.00212556                5.00001362               16.01521969                0.01000007               -0.07866460               -0.09142269                0.10564277                0.26679595                0.09628738                0.03529787
               7.00142673                5.00115558               16.01588651                0.01017657               -0.05891192               -0.11331908                0.10912626                0.26010746                0.09128397                0.06402970
               8.00094732                5.00204318               16.01644352                0.01000000               -0.03223516               -0.13314296                0.11150593                0.22569140                0.07379688                0.08952144
               9.00078203                5.00238727               16.01677044                0.01000000               -0.01174920               -0.14259482                0.11365144                0.15720795                0.04421455                0.10459149
              10.00071234                5.00159114               16.01672500                0.01000000               -0.00696917               -0.10936436                0.11363939                0.07778193                0.02745710                0.08880271
               0.00902852                5.99884245               16.01607531                0.85009627               -0.03013837               -0.07308741                0.10287397                0.07969514               -0.00353453                0.04561946
               1.00872714                5.99719915               16.01501604                0.01000000               -0.07850517               -0.06325816                0.09877938                0.12250112                0.01070017                0.00464595
               2.00745842                5.99654144               16.01424848                0.01000003               -0.10346441               -0.10815601                0.09738891                0.20237994                0.03510364               -0.03587328
               3.00665785                5.99647266               16.01401697                0.01000000               -0.09102835               -0.08591670                0.09821585                0.22893208                0.07544309               -0.02835144
               4.00563785                5.99711749               16.01423318                0.01000000               -0.10355781               -0.08047409                0.10063732                0.25171589                0.10371542               -0.01382678
               5.00458670                5.99804418               16.01474902                0.01000007               -0.10286432               -0.07593371                0.10412428                0.24995375                0.12261600                0.01322710
               6.00358057                5.99907738               16.01551365                0.01002959               -0.09155128               -0.08317274                0.10914693                0.22708714                0.13308531                0.04741854
               7.00275567                6.00003255               16.01638919                0.01000000               -0.06650653               -0.10349698                0.11321842                0.18233819                0.13017008                0.08886268
               8.00225044                6.00071628               16.01719483                0.01000000               -0.03620353               -0.12642858                0.11697011                0.13259281                0.11072173                0.13165957
               9.00203160                6.00106951               16.01771002                0.01000001               -0.02111474               -0.12432790                0.12072040                0.07610278                0.06786235                0.16374335
              10.00182814                6.00090577               16.01763536                0.01000001               -0.02034578               -0.05350074                0.12061330                0.03788515                0.03940882                0.16365241
               0.01066908                6.99853055               16.01648208                0.99999999               -0.03088225               -0.03149644                0.10513159                0.00019609               -0.00289743                0.02087712
               1.01036026                6.99689809               16.01531797                1.00000000               -0.03029262               -0.03036040                0.10092554               -0.00030406               -0.00577582               -0.00020432
               2.01006323                6.99526692               16.01410140                0.01000000               -0.08610446               -0.07835293                0.09709012                0.15218903                0.04840632               -0.03548701
               3.00863817                6.99571588               16.01402780                0.01000000               -0.13590425               -0.08615518                0.09877982                0.23165096                0.10612852               -0.03547146
               4.00734515                6.99632349               16.01426939                0.01000001               -0.12994762               -0.07760758                0.10161050                0.25102077                0.13192056               -0.02249508
               5.00603922                6.99734515               16.01495356                0.01018258               -0.13331026               -0.05276169                0.10626205                0.23226237                0.15793861                0.01249127
               6.00467894                6.99835017               16.01594489                0.01000000               -0.13023100               -0.05129939                0.11164210                0.17128124                0.17670272                0.05173524
               7.00343460                6.99908564               16.01718835                0.01000000               -0.10583615               -0.07144903                0.11913961                0.08949618                0.18312083                0.10469957
               8.00256222                6.99951461               16.01846314                0.01000000               -0.06600029               -0.10405837                0.12628990                0.01555070                0.16238048                0.18011324
               9.00211459                6.99990071               16.01938230                0.01000000               -0.03823490               -0.11667733                0.13115345               -0.01454552                0.10003085                0.24235884
              10.00179752                7.00052112               16.01943396                0.01000001               -0.03170735               -0.04727094                0.13186259               -0.01743761                0.05639716                0.28030244
               0.01229737                7.99821252               16.01693192                0.99999998               -0.03126740               -0.03200914                0.10651522                0.00014040               -0.00077513                0.02300035
               1.01198469                7.99659194               16.01567611                1.00000000               -0.03064774               -0.03077828                0.10233944               -0.00009322               -0.00041872                0.00280388
               2.01168441                7.99497438               16.01443016                0.01000000               -0.08751941               -0.02944430                0.09816756                0.06934417                0.03931626               -0.01597151
               3.01023430                7.99474956               16.01397411                0.01000000               -0.13277048               -0.13199977                0.09897451                0.24770333                0.10162059               -0.08117526
               4.00902900                7.99556534               16.01422556                0.01000000               -0.15145192               -0.04689856                0.10161682                0.27176505                0.15956895               -0.02981628
               5.00720527                7.99698895               16.01512744                0.01000000               -0.18816510               -0.00887915                0.10796419                0.21198984                0.19301203                0.00839900
               6.00526570                7.99805139               16.01640292                0.01000000               -0.19120575               -0.00600653                0.11439305                0.11306868                0.22124776                0.04723899
               7.00338115                7.99860357               16.01811613                0.01000003               -0.17596609               -0.01859544                0.12531235                0.00612387                0.25467833                0.09984237
               8.00174638                7.99863511               16.02030768                0.01000002               -0.13234893               -0.04790235                0.13704565               -0.10230940                0.24411307                0.18729392
               9.00073417                7.99873596               16.02199797                0.01000000               -0.07539046               -0.09524269                0.14609104               -0.17416557                0.16174918                0.42073388
              10.00023857                7.99996035               16.02264035                0.01000000               -0.04956033               -0.14332662                0.14955033               -0.12828652                0.10718982                0.41400510
               0.01391305                8.99789037               16.01738250                1.00000000               -0.03165179               -0.03236918                0.10766173                0.00015403                0.00227713                0.01822731
               1.01359653                8.99628253               16.01604262                0.99999999               -0.03102782               -0.03107497                0.10343777               -0.00004166                0.00111635                0.00185650
               2.01329249                8.99467804               16.01468050                1.00000000               -0.02976276               -0.02979325                0.09915828               -0.00009925               -0.00523483               -0.01186408
               3.01300128                8.99307589               16.01321698                0.01000000               -0.13757183               -0.09796484                0.09478845                0.25338149                0.11260194               -0.06823863
               4.01054106                8.99538552               16.01421758                0.01000000               -0.26041541                0.02962624                0.10142322                0.25871632                0.21674073               -0.02553026
               5.00779297                8.99716757               16.01523966                0.01000000               -0.26076805                0.03601891                0.10842904                0.14286701                0.21759786                0.00556863
               6.00532570                8.99823003               16.01674411                0.01000000               -0.24098066                0.03049619                0.11764151                0.05842996                0.25223063                0.02999876
               7.00297336                8.99871373               16.01884573                0.01000002               -0.24710316                0.02442005                0.12978588               -0.01885151                0.30793516                0.06306167
               8.00038363                8.99855656               16.02177749                0.01000001               -0.28336585                0.02588999                0.14556944               -0.10878320                0.46333326                0.13052629
               8.99730604                8.99799586               16.02729954                0.99999998               -0.18003115               -0.06318913                0.17523013               -0.19973352                0.28682997                0.27902450
               9.99678301                8.99765459               16.02706255                0.99999999               -0.05230290               -0.14114757                0.17328189               -0.18987414               -0.00100241                0.23292940
               0.01551613                9.99756514               16.01773653                0.99999999               -0.03199375               -0.03252371                0.10877721                0.00083872                0.01264262                0.01346950
               1.01519620                9.99597044               16.01638445                0.99999998               -0.03135332               -0.03120894                0.10454778                0.00063542                0.01590358                0.00055847
               2.01488907                9.99437852               16.01509686                1.00000000               -0.03008718               -0.02995182                0.10029764                0.00064839                0.01595834               -0.00375587
               3.01459445                9.99279026               16.01374769                0.01000001               -0.23887088               -0.02856265                0.09605230                0.24828498                0.10527665               -0.00417713
               4.01011165                9.99615787               16.01425077                0.01000656               -0.36881820                0.07723506                0.10157650                0.20301238                0.18276290               -0.01339439
               5.00721809                9.99770933               16.01529063                0.01000000               -0.26117580                0.05417588                0.10803366                0.06768415                0.20825469                0.00969972
               6.00488813                9.99866131               16.01677146                0.01000001               -0.22702470                0.04312782                0.11767346                0.02537569                0.24839509                0.02083981
               7.00267759                9.99909197               16.01896587                0.01000000               -0.22997730                0.03782331                0.13086936               -0.00499640                0.33333081                0.03847069
               8.00028859                9.99915291               16.02242618                0.01006872               -0.25180618                0.05963479                0.14916203               -0.09049396                0.44069255                0.09677076
               8.99764147                9.99747218               16.02704310                0.99999999               -0.15824819               -0.05236810                0.17367582               -0.06723229                0.24392668                0.00123105
               9.99712362                9.99713740               16.02680610                1.00000000               -0.05178473               -0.05171918                0.17172755                0.00058337                0.00111065               -0.00111049
               0.00126629                0.00172259               17.01405250                1.00000000               -0.02527465               -0.02521724                0.08424649               -0.00006117               -0.00365982                0.00341436
               1.00101354                0.00097990               17.01403143                1.00000000               -0.02527230               -0.02521081                0.08422372               -0.00000499               -0.00407477               -0.00107799
               2.00076084                0.00023601               17.01400399                0.01000000               -0.01119627               -0.02520435                0.08420064                0.01645051                0.03704354               -0.00170535
               3.00078961               -0.00018006               17.01480627                0.01000000               -0.00215966               -0.02853481                0.09076073                0.01023596                0.08952256               -0.00446874
               4.00071765                0.00021419               17.01575929                0.01000001               -0.02127792               -0.02294385                0.09711742                0.03426438                0.11424773               -0.01144526
               5.00036406                0.00158814               17.01703013                0.01000001               -0.08118775               -0.01960858                0.10425078                0.09141834                0.15029855               -0.01781686
               5.99909389                0.00439127               17.01876150                0.32169751               -0.08027309               -0.03350048                0.11239218                0.09430096                0.09143882               -0.00095803
               6.99875859                0.00530312               17.01918839                0.99999734               -0.03400280               -0.03384119                0.11428568                0.00009497                0.01659272               -0.00404026
               7.99841384                0.00620881               17.01941861                0.99999999               -0.03468705               -0.03425364                0.11561471                0.00023430                0.00827246               -0.00045871
               8.99806485                0.00710578               17.01967679                1.00000000               -0.03512647               -0.03468159                0.11706023                0.00022954                0.00776132                0.00091327
               9.99771131                0.00799390               17.01989593                0.99999999               -0.03535469               -0.03512621                0.11850508                0.00068514                0.00578040                0.00528359
               0.00200837                1.00147042               17.01410443                1.00000000               -0.02515848               -0.02516224                0.08387327               -0.00005833                0.00101826                0.00368331
               1.00175678                1.00072779               17.01408466                0.01032370               -0.02515224               -0.02515534                0.08385100               -0.00000200                0.00268083               -0.00280463
               2.00150532                0.99998396               17.01409815                0.01000000               -0.04269513               -0.03285646                0.08382920               -0.00332109                0.04196156                0.01402903
               3.00090288                0.99953460               17.01486292                0.01000001               -0.06645652               -0.02563479                0.09090469                0.02222772                0.07752827               -0.00634135
               4.00017619                0.99998476               17.01565624                0.01000000               -0.08565893               -0.02224804                0.09642302                0.07452807                0.08478007               -0.01480220
               4.99918970                1.00139206               17.01666656                0.01000000               -0.09983897               -0.02586545                0.10225977                0.15101848                0.11390898               -0.02055821
               5.99817941                1.00405627               17.01821083                0.01000001               -0.06694623               -0.08301997                0.10951871                0.14085743                0.07357445               -0.03628417
               6.99785078                1.00496471               17.01856030                1.00000000               -0.03322828               -0.03339375                0.11131030               -0.00007396                0.00744161               -0.00406825
               7.99751485                1.00586627               17.01877879                1.00000000               -0.03380866               -0.03382275                0.11271702                0.00002922                0.00123463               -0.00037111
               8.99717460                1.00675897               17.01900272                1.00000000               -0.03424016               -0.03424957                0.11416563                0.00002279                0.00102524                0.00053823
               9.99683004                1.00764263               17.01921708                1.00000000               -0.03445594               -0.03469582                0.11561217                0.00044743                0.00047061                0.00655279
               0.00275038                2.00121935               17.01416320                0.01000000               -0.02504205               -0.03777236                0.08350026               -0.02118570                0.00155009                0.03055187
               1.00249996                2.00047679               17.01410379                0.01000000               -0.04313818               -0.04428251                0.08347768               -0.02626564                0.02474668                0.02246385
               2.00188761                1.99957888               17.01450642                0.01000001               -0.06332904               -0.04678641                0.08774337               -0.00510344                0.04539394                0.01862310
               3.00123337                1.99930725               17.01488011                0.01000000               -0.07684321               -0.03512564                0.09205353                0.06398031                0.05092079               -0.00682871
               4.00035075                1.99976923               17.01546141                0.01000000               -0.09602299               -0.03193636                0.09630508                0.13877946                0.06358077               -0.01727969
               4.99931291                2.00107083               17.01620710                0.01000001               -0.10061799               -0.04728409                0.10060070                0.20068755                0.06458283               -0.02343931
               5.99833839                2.00273087               17.01695124                0.01000000               -0.11829017               -0.10145199                0.10441219                0.22455849                0.07047626               -0.04929945
               6.99694711                2.00463524               17.01792900                0.01000000               -0.08591141               -0.07232780                0.10835106                0.14224987                0.03384617               -0.01929499
               7.99662016                2.00553235               17.01813960                0.06214800               -0.03290840               -0.03306373                0.10980735                0.00071872               -0.00592642                0.00555250
               8.99628894                2.00642079               17.01832149                0.99999999               -0.03336205               -0.03337370                0.11128712                0.00004172               -0.00430656               -0.00183653
               9.99595292                2.00729998               17.01856549                1.00000000               -0.03360242               -0.03384272                0.11273337                0.00045284               -0.00132135                0.00650137
               0.00306976                3.00071497               17.01475217                0.01000000               -0.01978234               -0.04028319                0.08747518               -0.01412926                0.00620026                0.06211214
               1.00287194                2.99984214               17.01466095                0.01000001               -0.02484827               -0.07407936                0.08888891               -0.00624884                0.01251948                0.03918923
               2.00257280                2.99904823               17.01470178                0.01000000               -0.04399052               -0.06945728                0.09132373                0.04615775                0.02861629                0.00615377
               3.00199213                2.99883208               17.01491788                0.01000000               -0.06923002               -0.06020055                0.09388309                0.11952206                0.04328946               -0.00815891
               4.00118820                2.99934603               17.01529509                0.01000002               -0.08751573               -0.05535472                0.09654440                0.19116856                0.05298498               -0.01426285
               5.00024181                3.00044637               17.01580650                0.01000000               -0.10410130               -0.06614240                0.09973993                0.25064309                0.05851976               -0.01294916
               5.99910617                3.00202723               17.01643107                0.01000000               -0.11737598               -0.07871398                0.10306431                0.27030693                0.05499593               -0.00479044
               6.99789429                3.00351815               17.01699464                0.01000000               -0.16812482               -0.09632782                0.10553792                0.29454522                0.04676854               -0.00849107
               7.99574367                3.00520499               17.01761805                0.01000001               -0.12432433               -0.08167738                0.10451101                0.24852363                0.00002867                0.01907486
               8.99540781                3.00609149               17.01760116                0.01000000               -0.03314758               -0.09682978                0.10842369                0.19614939               -0.01671320                0.02959723
               9.99508072                3.00696578               17.01788839                0.22616926               -0.03270853               -0.18925869                0.10984477                0.22757209               -0.00167687                0.02312943
               0.00421345                4.00041368               17.01541863                0.01000000               -0.01717376               -0.03784244                0.09393335                0.02360313                0.00040045                0.06842155
               1.00404172                3.99899520               17.01510293                0.01000000               -0.01963146               -0.09650516                0.09357590                0.05609438                0.00818016                0.02749448
               2.00382082                3.99818973               17.01492203                0.01000000               -0.03578474               -0.09522515                0.09418831                0.12065584                0.02597263               -0.00051382
               3.00332602                3.99810324               17.01495200                0.01000002               -0.06304980               -0.08080515                0.09547051                0.18188318                0.04502971               -0.01275245
               4.00255983                3.99866214               17.01520183                0.01000000               -0.08407212               -0.07640906                0.09750882                0.24006345                0.06035888               -0.01092886
               5.00164458                3.99974798               17.01563914                0.01000000               -0.09435395               -0.07773654                0.10043274                0.28259193                0.06979963                0.00179306
               6.00067275                4.00115659               17.01619718                0.01000000               -0.09921659               -0.09155236                0.10355140                0.31593017                0.07122677                0.01847513
               6.99966025                4.00270869               17.01678357                0.01000001               -0.08277292               -0.10252340                0.10637120                0.32841649                0.06037516                0.04111000
               7.99901729                4.00389880               17.01724912                0.01000001               -0.06045508               -0.13843314                0.10865043                0.36338699                0.04314238                0.05075607
               8.99845115                4.00448420               17.01755067                0.01000000               -0.01307524               -0.16359104                0.10979050                0.26494142                0.01802269                0.07263462
               9.99875579                4.00351481               17.01757305                0.01000000                0.03046407               -0.25310758                0.11051960                0.20098770                0.01002724                0.04196574
               0.00637878                4.99995812               17.01612250                0.01000001               -0.01610033               -0.08970699                0.09884280                0.08839053                0.00160148                0.08112474
               1.00621778                4.99791204               17.01553823                0.01000000               -0.02504500               -0.10651540                0.09719317                0.14556255                0.01132962                0.01994410
               2.00587788                4.99714373               17.01511220                0.01000001               -0.05301970               -0.09949265                0.09664045                0.19052646                0.03297850               -0.01348992
               3.00515738                4.99721598               17.01499584                0.01000000               -0.07665817               -0.09564983                0.09703847                0.23894222                0.05850446               -0.02062300
               4.00434472                4.99781785               17.01519025                0.01000000               -0.08790921               -0.08580904                0.09920825                0.27179184                0.08024629               -0.00939879
               5.00339920                4.99889164               17.01565333                0.01000000               -0.09403238               -0.08660239                0.10230962                0.29581318                0.09500154                0.01105596
               6.00246407                5.00019618               17.01627755                0.01000001               -0.08393935               -0.09800205                0.10578414                0.30008488                0.10006206                0.03947141
               7.00172041                5.00146768               17.01696433                0.01000000               -0.06140822               -0.12228220                0.10807874                0.28974621                0.09427530                0.06937486
               8.00123591                5.00243633               17.01755604                0.01000000               -0.03148900               -0.14383520                0.11191501                0.25149659                0.07597570                0.09877135
               9.00109063                5.00281967               17.01791615                0.01000000               -0.00983255               -0.15363143                0.11442807                0.17561803                0.04617742                0.11235052
              10.00103925                5.00190363               17.01786237                0.01000000               -0.00513780               -0.11590107                0.11396616                0.08593069                0.02779560                0.09570461
               0.01007344                5.99861954               17.01710923                0.82778913               -0.03060775               -0.08264993                0.10399719                0.09685327               -0.00349654                0.04805288
               1.00976736                5.99686490               17.01601124                0.01000000               -0.08730128               -0.06760157                0.10032743                0.14379103                0.01176538                0.00587976
               2.00832741                5.99619988               17.01522687                0.01000000               -0.11683047               -0.11643528                0.09822738                0.23299964                0.03816861               -0.03627658
               3.00743075                5.99619024               17.01500630                0.01000000               -0.10037043               -0.09179861                0.09890472                0.26114961                0.07965816               -0.02776147
               4.00632000                5.99694596               17.01524096                0.01000000               -0.11241191               -0.08571675                0.10088869                0.28467725                0.10883588               -0.01169233
               5.00518251                5.99801594               17.01579282                0.01000001               -0.11107976               -0.08078200                0.10449960                0.28175676                0.12875162                0.01529052
               6.00409841                5.99919655               17.01660110                0.01000001               -0.09837462               -0.08839916                0.10849686                0.25474457                0.13942493                0.05169338
               7.00321502                6.00026304               17.01750991                0.01000000               -0.07015864               -0.10989898                0.11285983                0.20549521                0.13642669                0.09513640
               8.00269523                6.00102210               17.01835956                0.01000000               -0.03594045               -0.13359409                0.11753813                0.15051962                0.11686671                0.14108097
               9.00249621                6.00141157               17.01891651                0.01000000               -0.01943734               -0.13160534                0.12054539                0.08620513                0.07174032                0.17402856
              10.00230649                6.00119679               17.01884260                0.01000001               -0.01897224               -0.05371701                0.12088263                0.04257385                0.04130034                0.17417616
               0.01182514                6.99830512               17.01753686                0.99999999               -0.03118762               -0.03166315                0.10588555                0.00013458               -0.00299170                0.02152592
               1.01151326                6.99656001               17.01633229                1.00000000               -0.03063047               -0.03066720                0.10200304               -0.00026586               -0.00574280                0.00035408
               2.01121253                6.99481503               17.01507875                0.01000000               -0.09394836               -0.08405396                0.09844879                0.17208862                0.05120891               -0.03612741
               3.00963430                6.99538001               17.01502097                0.01000000               -0.14999817               -0.09251583                0.09970634                0.26160346                0.11200084               -0.03553538
               4.00821257                6.99610351               17.01529212                0.01000001               -0.14252768               -0.08261824                0.10268457                0.28246082                0.13816281               -0.02120873
               5.00678374                6.99727600               17.01600549                0.01000000               -0.14503560               -0.05447361                0.10548707                0.26008545                0.16580711                0.01410879
               6.00531185                6.99842820               17.01705354                0.01000000               -0.13894868               -0.05356395                0.11179543                0.19355935                0.18495033                0.05610784
               7.00400477                6.99926970               17.01838252                0.01000000               -0.11070398               -0.07425132                0.11934133                0.10526386                0.19206816                0.11205653
               8.00309777                6.99976445               17.01972590                0.01000000               -0.06823596               -0.10823150                0.12582726                0.02399311                0.17006662                0.19173716
               9.00264005                7.00018757               17.02069249                0.01000002               -0.03887394               -0.12097683                0.13102279               -0.01174237                0.10494643                0.25657290
              10.00232030                7.00082929               17.02075117                0.01000001               -0.03197535               -0.04517154                0.13179578               -0.01718072                0.05924826                0.29615219
               0.01356636                7.99798628               17.01799801                1.00000000               -0.03142251               -0.03203630                0.10675450                0.00010817               -0.00075380                0.02307378
               1.01325214                7.99625155               17.01670260                1.00000000               -0.03085922               -0.03095710                0.10299808               -0.00005111               -0.00042544                0.00286078
               2.01294918                7.99451880               17.01541704                0.01000000               -0.09389042               -0.02976322                0.09923571                0.07749213                0.04158148               -0.01615268
               3.01137433                7.99433992               17.01496728                0.01000001               -0.14379788               -0.14399328                0.09956160                0.27601642                0.10740662               -0.08365447
               4.01007322                7.99529359               17.01525054                0.01000001               -0.16573975               -0.04965652                0.10321858                0.30508206                0.16842940               -0.03005693
               5.00805954                7.99692646               17.01620630                0.01000000               -0.20486650               -0.00639019                0.10795747                0.23867295                0.20570663                0.00887850
               6.00597589                7.99812527               17.01754558                0.01000000               -0.20377475               -0.00391889                0.11530581                0.13006759                0.23210201                0.05186564
               7.00398404                7.99877802               17.01936932                0.01000000               -0.18593293               -0.01717294                0.12488785                0.01369026                0.26811818                0.10613980
               8.00225723                7.99885747               17.02167697                0.01000002               -0.13937590               -0.04772580                0.13677801               -0.10414737                0.25653949                0.19821934
               9.00119652                7.99899203               17.02345806                0.01000000               -0.07889039               -0.09581247                0.14589642               -0.18313121                0.17016225                0.44394196
              10.00067943                8.00029335               17.02413609                0.01000000               -0.05170970               -0.14602583                0.14964107               -0.13489718                0.11283746                0.43607840
               0.01529676                8.99766440               17.01845880                1.00000000               -0.03170356               -0.03231744                0.10760500                0.00011581                0.00226767                0.01821378
               1.01497972                8.99594086               17.01707878                0.99999999               -0.03113781               -0.03116693                0.10379554               -0.00002467                0.00107792                0.00178540
               2.01467400                8.99421976               17.01567599                1.00000000               -0.02999460               -0.03001960                0.09993917               -0.00007721               -0.00534136               -0.01201959
               3.01437983                8.99250014               17.01417094                0.01000001               -0.14731670               -0.10643241                0.09600286                0.28040037                0.11761059               -0.07078792
               4.01172767                8.99511038               17.01523310                0.01000000               -0.28271536                0.03472704                0.10208585                0.28716662                0.22854051               -0.02646433
               5.00872552                8.99714820               17.01633441                0.01000000               -0.28330068                0.04166672                0.10975629                0.16152223                0.22887103                0.00620066
               6.00606165                8.99834982               17.01792067                0.01000000               -0.25895731                0.03624187                0.11761413                0.06758639                0.26537403                0.03311114
               7.00354638                8.99892625               17.02014153                0.01000002               -0.26304195                0.02927610                0.12957005               -0.01653229                0.32410967                0.06715589
               8.00080081                8.99880993               17.02323296                0.01000001               -0.30024181                0.03114099                0.14540012               -0.11226907                0.48791767                0.13806106
               8.99754154                8.99827132               17.02904844                0.99999998               -0.18905546               -0.06216633                0.17455085               -0.20985860                0.30231328                0.29406388
               9.99701970                8.99790877               17.02879519                0.99999999               -0.05218351               -0.14514232                0.17324488               -0.20115231               -0.00100418                0.24537023
               0.01701575                9.99733993               17.01882265                0.99999999               -0.03194671               -0.03244670                0.10841621                0.00072761                0.01264428                0.01344498
               1.01669628                9.99562821               17.01743037                1.00000000               -0.03136963               -0.03126496                0.10460134                0.00057997                0.01591579                0.00050364
               2.01638836                9.99391841               17.01610242                0.99999999               -0.03022827               -0.03013543                0.10077540                0.00058878                0.01598410               -0.00382484
               3.01609172                9.99221128               17.01471291                0.01054509               -0.26099298               -0.02888664                0.09694879                0.27467518                0.11017058               -0.00419101
               4.01116850                9.99598813               17.01527252                0.01000001               -0.40205864                0.08777520                0.10151826                0.22150931                0.19209645               -0.01321854
               5.00805054                9.99775980               17.01637412                0.01000000               -0.28094617                0.06115999                0.10896572                0.07560101                0.21862593                0.00951410
               6.00554957                9.99885011               17.01795044                0.01000001               -0.24286327                0.05002912                0.11807061                0.02897916                0.26201310                0.02248437
               7.00319328                9.99936354               17.02027063                0.01000000               -0.24413965                0.04372944                0.13048388               -0.00380069                0.35107869                0.04089407
               8.00066678                9.99948029               17.02391906                0.01000000               -0.26463831                0.06703550                0.14927941               -0.09414501                0.46415739                0.10205562
               8.99790051                9.99774870               17.02878005                0.99999999               -0.16426567               -0.05226121                0.17371404               -0.06859173                0.25694312                0.00123166
               9.99738147                9.99739051               17.02852679                1.00000000               -0.05190451               -0.05182643                0.17240803                0.00035671                0.00111166               -0.00111146
               0.00125087                0.00170667               18.01489693                1.00000000               -0.02537092               -0.02529030                0.08463905               -0.00013438               -0.00366046                0.00341422
               1.00099716                0.00091776               18.01487481                1.00000000               -0.02534509               -0.02523265                0.08445154               -0.00003242               -0.00407525               -0.00107823
               2.00074397                0.00012665               18.01484631                0.01000000               -0.00951106               -0.02517559                0.08426381                0.01934046                0.04032854               -0.00170532
               3.00080694               -0.00027933               18.01571325                0.01000000                0.00012179               -0.02833537                0.09045628                0.01308731                0.09569084               -0.00399026
               4.00074640                0.00020675               18.01672709                0.01000001               -0.02217224               -0.02163750                0.09658237                0.04029058                0.12050554               -0.01133176
               5.00036350                0.00178200               18.01807026                0.01000000               -0.09122196               -0.01739637                0.10331087                0.10507693                0.15699762               -0.01836251
               5.99892197                0.00494670               18.01988263                0.30735954               -0.08873377               -0.03336519                0.11177736                0.11007161                0.09488238               -0.00096620
               6.99858882                0.00590523               18.02032872                1.00000000               -0.03383496               -0.03370095                0.11375136                0.00011249                0.01672115               -0.00413130
               7.99824527                0.00685850               18.02057345                0.99999999               -0.03460438               -0.03419418                0.11533871                0.00027262                0.00823477               -0.00046503
               8.99789673                0.00780349               18.02084730                1.00000000               -0.03511872               -0.03469810                0.11703850                0.00026792                0.00778528                0.00091791
               9.99754289                0.00874013               18.02108210                1.00000000               -0.03538405               -0.03522213                0.11873750                0.00070054                0.00580257                0.00529939
               0.00203844                1.00145377               18.01494360                1.00000000               -0.02515943               -0.02519082                0.08396017               -0.00010690                0.00101913                0.00368328
               1.00178685                1.00066543               18.01492277                0.01011615               -0.02512622               -0.02513056                0.08377277               -0.00000566                0.00268155               -0.00280510
               2.00153592                0.99987490               18.01493522                0.01000000               -0.04445413               -0.03322765                0.08358571               -0.00123213                0.04551842                0.01573524
               3.00089776                0.99943732               18.01577006                0.01000001               -0.07086373               -0.02529939                0.09049068                0.02854175                0.08349326               -0.00501837
               4.00011864                0.99999037               18.01661763                0.01000000               -0.09267384               -0.02121958                0.09591181                0.08722992                0.08973952               -0.01427595
               4.99904429                1.00160804               18.01768691                0.01000000               -0.10787869               -0.02529791                0.10159428                0.17351665                0.11921559               -0.02089687
               5.99796107                1.00461305               18.01930396                0.01000001               -0.07051225               -0.09029402                0.10905331                0.16065451                0.07655154               -0.03738415
               6.99763404                1.00556822               18.01967163                1.00000000               -0.03311042               -0.03327713                0.11093355               -0.00005371                0.00755429               -0.00413647
               7.99729886                1.00651656               18.01990541                1.00000000               -0.03377211               -0.03378627                0.11259492                0.00002832                0.00123191               -0.00037570
               8.99695860                1.00745651               18.02014504                1.00000000               -0.03427982               -0.03428893                0.11429764                0.00002220                0.00104603                0.00055209
               9.99661326                1.00838790               18.02037509                1.00000000               -0.03453369               -0.03481476                0.11599823                0.00042376                0.00048763                0.00657007
               0.00282541                2.00120286               18.01499710                0.01000000               -0.02494880               -0.03646427                0.08328133               -0.01945727                0.00155015                0.03489354
               1.00257592                2.00041515               18.01493664                0.01000000               -0.04389841               -0.04646966                0.08309347               -0.02551612                0.02645398                0.02630625
               2.00194744                1.99946210               18.01537237                0.01000001               -0.06568121               -0.04868095                0.08739323               -0.00030765                0.04887067                0.02216281
               3.00126230                1.99921468               18.01580063                0.01000000               -0.08135818               -0.03599178                0.09162471                0.07761480                0.05513475               -0.00467145
               4.00032028                1.99978236               18.01642160                0.01000000               -0.10255727               -0.03272393                0.09574660                0.16094291                0.06704064               -0.01596543
               4.99921115                2.00127605               18.01720803                0.01000001               -0.10727008               -0.04944785                0.09989483                0.22806802                0.06776255               -0.02319480
               5.99817488                2.00314082               18.01799387                0.01000000               -0.12634600               -0.11212976                0.10403242                0.25279005                0.07344834               -0.05042845
               6.99668423                2.00523969               18.01901151                0.01000000               -0.09086679               -0.07739467                0.10813006                0.15872083                0.03506968               -0.01923791
               7.99635754                2.00618278               18.01923789                0.06615097               -0.03291987               -0.03306342                0.10983939                0.00069325               -0.00588699                0.00405216
               8.99602583                2.00711771               18.01943578                0.99999999               -0.03344795               -0.03345680                0.11157249                0.00004486               -0.00426936               -0.00180714
               9.99568858                2.00804383               18.01969546                1.00000000               -0.03372532               -0.03400832                0.11327315                0.00043050               -0.00130469                0.00651420
               0.00322472                3.00072449               18.01566765                0.01000003               -0.02074339               -0.03933109                0.09075068               -0.01325829                0.00526490                0.06917014
               1.00301728                2.99973604               18.01556538                0.01000001               -0.02472437               -0.07928278                0.09012572               -0.00111899                0.01267425                0.04518632
               2.00273023                2.99890128               18.01561237                0.01000000               -0.04437397               -0.07417974                0.09080650                0.05972988                0.03057534                0.00996140
               3.00212980                2.99871748               18.01585443                0.01000000               -0.07270464               -0.06389439                0.09336623                0.14081364                0.04621459               -0.00580832
               4.00127614                2.99933590               18.01626267                0.01002285               -0.09413094               -0.05876791                0.09685438                0.22058044                0.05664854               -0.01235064
               5.00024718                3.00061908               18.01680612                0.01000000               -0.11114534               -0.07128379                0.09967351                0.28373702                0.06273824               -0.01240734
               5.99905323                3.00237045               18.01745823                0.01000001               -0.12403414               -0.08559827                0.10258470                0.30214387                0.05715964               -0.00265836
               6.99776650                3.00402033               18.01805041                0.01000000               -0.18092657               -0.10441237                0.10536229                0.32696294                0.04666083               -0.00678465
               7.99543470                3.00585529               18.01865807                0.01000001               -0.13340273               -0.08632554                0.10408662                0.27367788                0.00015700                0.02134175
               8.99509845                3.00678738               18.01868758                0.01000001               -0.03325284               -0.10293047                0.10886262                0.21492622               -0.01516099                0.03164045
               9.99476964                3.00770774               18.01899023                0.24145737               -0.03288056               -0.20427209                0.11053886                0.24940791               -0.00167840                0.02474384
               0.00453714                4.00041624               18.01636063                0.01000000               -0.01603877               -0.04001430                0.09441646                0.02954730                0.00051647                0.07329519
               1.00437675                3.99882949               18.01603913                0.01000000               -0.01882700               -0.10411029                0.09374966                0.06955585                0.00903187                0.03127911
               2.00416060                3.99797851               18.01586320                0.01000000               -0.03663983               -0.10229393                0.09406088                0.14340910                0.02801525                0.00233428
               3.00364395                3.99793679               18.01591041                0.01002354               -0.06651568               -0.08750116                0.09590920                0.21131547                0.04826107               -0.01046642
               4.00283028                3.99860700               18.01618263                0.01000000               -0.08963096               -0.08150149                0.09806436                0.27336153                0.06422047               -0.00895332
               5.00185133                3.99985037               18.01664792                0.01000000               -0.10068861               -0.08439062                0.10076798                0.31937177                0.07335737                0.00392502
               6.00081651                4.00142886               18.01723138                0.01000000               -0.10563412               -0.09856620                0.10338938                0.35318180                0.07457886                0.02198329
               6.99973865                4.00315144               18.01784876                0.01000001               -0.08762311               -0.11017937                0.10634280                0.36473318                0.06367460                0.04538710
               7.99906405                4.00445627               18.01833680                0.01000001               -0.06333676               -0.14735683                0.10863095                0.39939936                0.04605559                0.05668998
               8.99847192                4.00505910               18.01864936                0.01000000               -0.01140167               -0.17594647                0.11009397                0.29014592                0.01959801                0.07742121
               9.99883602                4.00395839               18.01867907                0.01000001                0.03640995               -0.27360257                0.11058931                0.22023694                0.01064395                0.04730181
               0.00698915                4.99992420               18.01711109                0.01000001               -0.01430200               -0.10135412                0.09911683                0.10383543                0.00187041                0.08677673
               1.00684613                4.99765383               18.01651155                0.01000000               -0.02490209               -0.11534055                0.09760969                0.16996268                0.01205851                0.02341761
               2.00649111                4.99685540               18.01607843                0.01000001               -0.05592560               -0.10645732                0.09667505                0.21898770                0.03461783               -0.01153778
               3.00572762                4.99696746               18.01596904                0.01000000               -0.08306588               -0.10222439                0.09767103                0.27217207                0.06093878               -0.01806070
               4.00482979                4.99770587               18.01618841                0.01000000               -0.09574277               -0.09126106                0.09968876                0.30807942                0.08427844               -0.00751190
               5.00381276                4.99893127               18.01667558                0.01000000               -0.10069969               -0.09262715                0.10226438                0.33217597                0.09932869                0.01411432
               6.00281580                5.00039913               18.01733538                0.01000001               -0.08895052               -0.10468018                0.10584231                0.33604628                0.10429447                0.04350624
               7.00203375                5.00181674               18.01804809                0.01000001               -0.06503883               -0.13171770                0.10903878                0.32480585                0.09817864                0.07647655
               8.00151502                5.00290816               18.01868182                0.01000000               -0.03172535               -0.15441197                0.11234814                0.27844172                0.07883500                0.10788391
               9.00139925                5.00326845               18.01905900                0.01000000               -0.00696040               -0.16426819                0.11414827                0.19194920                0.04728180                0.11982752
              10.00137581                5.00223569               18.01900432                0.01000000               -0.00234333               -0.12289466                0.11457150                0.09502150                0.02868551                0.10254518
               0.01115458                5.99838915               18.01815526                0.80500206               -0.03097755               -0.09259506                0.10505461                0.11481382               -0.00350105                0.05118891
               1.01084480                5.99652268               18.01702259                0.01000000               -0.09639260               -0.07200097                0.10178891                0.16587936                0.01227901                0.00788749
               2.00922673                5.99584936               18.01621303                0.01000000               -0.13039377               -0.12505962                0.09900702                0.26386262                0.03962868               -0.03532617
               3.00823693                5.99589231               18.01599507                0.01000001               -0.10993344               -0.09616281                0.09896459                0.29348083                0.08373439               -0.02664977
               4.00702806                5.99678178               18.01625095                0.01000000               -0.12176696               -0.09080642                0.10112434                0.31998057                0.11397165               -0.00939246
               5.00580159                5.99799783               18.01683901                0.01000001               -0.11880442               -0.08587136                0.10477707                0.31673278                0.13439393                0.01807470
               6.00465197                5.99933525               18.01768359                0.01000000               -0.10379237               -0.09356442                0.10870336                0.28521887                0.14612561                0.05643059
               7.00372574                6.00051709               18.01864639                0.01000000               -0.07353964               -0.11746856                0.11373965                0.23013119                0.14393961                0.10300105
               8.00318118                6.00136803               18.01954559                0.01000000               -0.03711846               -0.14381062                0.11854853                0.16976087                0.12283045                0.15014261
               9.00298337                6.00177374               18.02012093                0.01000000               -0.01896055               -0.13889126                0.12084419                0.09607382                0.07499833                0.18401571
              10.00280197                6.00150050               18.02005302                0.01000001               -0.01814062               -0.05425048                0.12131358                0.04714119                0.04356592                0.18409817
               0.01301837                6.99807230               18.01859979                0.99999999               -0.03148593               -0.03185532                0.10667522                0.00007766               -0.00318323                0.02210015
               1.01270351                6.99621381               18.01735804                1.00000000               -0.03098183               -0.03100051                0.10314906               -0.00028735               -0.00578561                0.00083180
               2.01239873                6.99435421               18.01607037                0.01000000               -0.10193484               -0.08976370                0.09993490                0.19275120                0.05346427               -0.03623765
               3.01066482                6.99504420               18.01602192                0.01000000               -0.16374268               -0.09829047                0.10021016                0.29237713                0.11715490               -0.03530311
               4.00912388                6.99588974               18.01632308                0.01000001               -0.15354355               -0.08792741                0.10301257                0.31500775                0.14460083               -0.01892476
               5.00759394                6.99721384               18.01706330                0.01000001               -0.15614823               -0.05801127                0.10645422                0.29304358                0.17558616                0.01576416
               6.00600092                6.99852784               18.01818080                0.01000000               -0.14951724               -0.05568415                0.11285144                0.21731377                0.19579066                0.06110250
               7.00460360                6.99946737               18.01957518                0.01000000               -0.11736672               -0.07748643                0.11900909                0.11952442                0.20123841                0.11908439
               8.00365358                7.00003195               18.02097969                0.01000000               -0.07076718               -0.11377938                0.12550297                0.03152522                0.17815208                0.20236722
               9.00318826                7.00049062               18.02200275                0.01000002               -0.03942276               -0.12574446                0.13106435               -0.00931714                0.11024600                0.27044552
              10.00286513                7.00115068               18.02206988                0.01000146               -0.03231288               -0.04312980                0.13206572               -0.01712991                0.06207372                0.31150162
               0.01487310                7.99775205               18.01906701                0.99999999               -0.03159535               -0.03211476                0.10709065                0.00006645               -0.00073506                0.02310561
               1.01455715                7.99590267               18.01773607                1.00000000               -0.03108692               -0.03116755                0.10372909               -0.00002864               -0.00042592                0.00290321
               2.01425136                7.99405408               18.01641487                0.01000001               -0.10041040               -0.03009709                0.10035263                0.08592984                0.04335684               -0.01628559
               3.01254894                7.99392650               18.01596534                0.01000001               -0.15463965               -0.15648514                0.10025677                0.30503583                0.11214368               -0.08582033
               4.01115857                7.99502323               18.01628993                0.01000001               -0.17622922               -0.05277457                0.10387832                0.33678137                0.17487857               -0.02865051
               5.00902436                7.99683760               18.01728659                0.01000000               -0.22069243               -0.00450414                0.10794713                0.26436050                0.21830758                0.01023257
               6.00674472                7.99822157               18.01870903                0.01000000               -0.22061145               -0.00202232                0.11643731                0.14774475                0.24444112                0.05585741
               7.00461213                7.99896736               18.02061388                0.01000000               -0.19781467               -0.01559152                0.12453722                0.02052689                0.28084166                0.11277001
               8.00278843                7.99909244               18.02304324                0.01000002               -0.14669142               -0.04781294                0.13650133               -0.10635065                0.26905613                0.20925899
               9.00167830                7.99925885               18.02491590                0.01000001               -0.08245860               -0.09677356                0.14583431               -0.19263623                0.17831457                0.46631220
              10.00113926                8.00063790               18.02563318                0.01000000               -0.05390419               -0.14896902                0.14992177               -0.14188019                0.11843908                0.45779087
               0.01671845                8.99743000               18.01953460                1.00000000               -0.03175514               -0.03228525                0.10756182                0.00006947                0.00226267                0.01823266
               1.01640090                8.99559046               18.01811853                0.99999999               -0.03124742               -0.03126741                0.10415644               -0.00000718                0.00105193                0.00174161
               2.01609350                8.99375227               18.01667928                1.00000000               -0.03022577               -0.03024586                0.10071819               -0.00005568               -0.00542367               -0.01213828
               3.01579639                8.99191450               18.01513704                0.01003520               -0.15725506               -0.11519960                0.09721504                0.30804014                0.12235589               -0.07279391
               4.01294840                8.99483425               18.01625929                0.01000000               -0.30567858                0.03957071                0.10335638                0.31715319                0.23607124               -0.02634433
               5.00968281                8.99712376               18.01743478                0.01000000               -0.30611731                0.04912911                0.10960564                0.17707405                0.23944252                0.00683587
               6.00682606                8.99848740               18.01909639                0.01000000               -0.27697749                0.04149440                0.11794610                0.07594680                0.27766269                0.03565380
               7.00414327                8.99915554               18.02143713                0.01000002               -0.27954915                0.03421400                0.12958777               -0.01466444                0.34005076                0.07161773
               8.00123507                8.99907569               18.02468550                0.01000001               -0.31765959                0.03646811                0.14520556               -0.11632475                0.51173843                0.14544444
               8.99779007                8.99855515               18.03079056                0.99999998               -0.19828233               -0.06126271                0.17387531               -0.22050395                0.31728382                0.30851869
               9.99726943                8.99817130               18.03052745                0.99999999               -0.05206456               -0.14929655                0.17320659               -0.21272959               -0.00100608                0.25736637
               0.01855357                9.99710634               18.01990485                1.00000000               -0.03188290               -0.03236611                0.10800512                0.00060982                0.01265953                0.01344596
               1.01823474                9.99527732               18.01847648                1.00000000               -0.03136789               -0.03131404                0.10459628                0.00052529                0.01594228                0.00046866
               2.01792621                9.99344917               18.01711237                1.00000000               -0.03034903               -0.03030978                0.10118808                0.00052999                0.01602140               -0.00387591
               3.01762776                9.99162251               18.01568666                0.01000000               -0.28169213               -0.02919935                0.09777290                0.30141134                0.11377622               -0.00420641
               4.01229237                9.99581464               18.01628114                0.01005712               -0.43575374                0.09803981                0.10224101                0.24428068                0.20137747               -0.01413465
               5.00891269                9.99782018               18.01746994                0.01000000               -0.30302445                0.06964230                0.10981715                0.08482782                0.22912442                0.00964957
               6.00623188                9.99905146               18.01913287                0.01000001               -0.25910701                0.05640616                0.11837752                0.03215502                0.27447768                0.02443457
               7.00373055                9.99965164               18.02157555                0.01001345               -0.25847804                0.04960993                0.13069070               -0.00275456                0.36854439                0.04328314
               8.00106232                9.99982180               18.02541176                0.01000000               -0.27789687                0.07461170                0.14935408               -0.09817734                0.48732258                0.10726572
               8.99817261                9.99803360               18.03051738                0.99999999               -0.17049751               -0.05215523                0.17375359               -0.07023820                0.26966862                0.00123243
               9.99765237                9.99765197               18.03025426                1.00000000               -0.05202383               -0.05193280                0.17308484                0.00013138                0.00111265               -0.00111257
               0.00123732                0.00169755               19.01574529                1.00000000               -0.02546651               -0.02536311                0.08503062               -0.00020709               -0.00366040                0.00341720
               1.00098266                0.00086241               19.01572046                1.00000000               -0.02541790               -0.02525449                0.08467929               -0.00006061               -0.00407510               -0.00107862
               2.00072897                0.00002408               19.01568926                0.01000000               -0.00800046               -0.02514734                0.08432860                0.02215023                0.04342381               -0.00170594
               3.00082265               -0.00037347               19.01661539                0.01000000                0.00208916               -0.02796801                0.09003272                0.01588853                0.10161191               -0.00337009
               4.00077075                0.00020648               19.01769093                0.01000001               -0.02370905               -0.02017497                0.09609987                0.04639109                0.12634098               -0.01126637
               5.00034847                0.00198759               19.01909635                0.01000001               -0.10188322               -0.01512490                0.10241235                0.12006076                0.16380913               -0.01876003
               5.99873309                0.00552928               19.02099705                0.29353234               -0.09731361               -0.03319337                0.11106921                0.12661635                0.09848080               -0.00097512
               6.99840220                0.00653466               19.02146342                0.99999098               -0.03365701               -0.03354677                0.11316957                0.00013817                0.01677377               -0.00421471
               7.99805995                0.00753559               19.02172539                0.99999999               -0.03451454               -0.03412744                0.11503790                0.00031389                0.00819948               -0.00047089
               8.99771191                0.00852866               19.02201756                1.00000000               -0.03510928               -0.03471335                0.11701127                0.00030956                0.00780828                0.00092187
               9.99735776                0.00951391               19.02227068                1.00000000               -0.03541468               -0.03532364                0.11898600                0.00071899                0.00582359                0.00531465
               0.00207040                1.00144392               19.01578364                0.99999737               -0.02516066               -0.02521932                0.08404659               -0.00015660                0.00101785                0.00368584
               1.00181879                1.00060986               19.01576011                0.01000341               -0.02509950               -0.02510505                0.08369315               -0.00001061                0.00268296               -0.00280517
               2.00156841                0.99977260               19.01576986                0.01000000               -0.04642274               -0.03395445                0.08334297                0.00045274                0.04905545                0.01851307
               3.00089033                0.99934685               19.01667274                0.01000001               -0.07571385               -0.02485407                0.09006501                0.03481597                0.08945157               -0.00381818
               4.00005413                1.00000473               19.01757448                0.01000000               -0.10013283               -0.02007970                0.09538795                0.10014507                0.09459757               -0.01387140
               4.99888768                1.00183635               19.01869845                0.01000000               -0.11642054               -0.02499346                0.10091978                0.19700188                0.12489062               -0.02120082
               5.99772572                1.00519734               19.02039190                0.01000001               -0.07436287               -0.09806184                0.10849916                0.18168201                0.07950365               -0.03853440
               6.99740042                1.00619919               19.02077897                1.00000000               -0.03298195               -0.03314710                0.11051343               -0.00003670                0.00759474               -0.00419900
               7.99706608                1.00719432               19.02103068                0.99999999               -0.03372896               -0.03374294                0.11245002                0.00002724                0.00122920               -0.00038014
               8.99672584                1.00818153               19.02128867                0.99999999               -0.03431888               -0.03432764                0.11442714                0.00002168                0.00106639                0.00056490
               9.99637970                1.00916067               19.02153705                1.00000000               -0.03461396               -0.03493963                0.11640441                0.00039955                0.00050427                0.00658705
               0.00290231                2.00119316               19.01582883                0.01000001               -0.02485434               -0.03545384                0.08306504               -0.01782589                0.00155047                0.03870091
               1.00265376                2.00036031               19.01576566                0.01000000               -0.04506370               -0.04832449                0.08270619               -0.02431277                0.02923309                0.03017499
               2.00200103                1.99934499               19.01625428                0.01000001               -0.06834588               -0.05079820                0.08810829                0.00479999                0.05302493                0.02633247
               3.00128684                1.99912945               19.01671261                0.01000000               -0.08584372               -0.03703564                0.09095560                0.09178381                0.05858657               -0.00253041
               4.00028416                1.99980488               19.01737634                0.01000000               -0.10954754               -0.03333748                0.09522005                0.18368089                0.07074191               -0.01443284
               4.99909589                2.00148773               19.01820500                0.01000001               -0.11401368               -0.05389998                0.09972586                0.25882485                0.07071639               -0.02300991
               5.99800388                2.00356804               19.01903189                0.01000000               -0.13457029               -0.12303959                0.10366439                0.28316731                0.07649192               -0.05166860
               6.99640449                2.00587171               19.02009160                0.01000000               -0.09628683               -0.08269912                0.10786975                0.17599723                0.03626982               -0.01935035
               7.99607815                2.00686073               19.02033639                0.06967170               -0.03292533               -0.03307011                0.10985122                0.00069812               -0.00584967                0.00254810
               8.99574598                2.00784211               19.02055294                0.99999999               -0.03353427               -0.03354022                0.11185893                0.00004835               -0.00423283               -0.00177855
               9.99540746                2.00881512               19.02083095                1.00000000               -0.03385198               -0.03418112                0.11383724                0.00040783               -0.00128779                0.00652749
               0.00337959                3.00073484               19.01656718                0.01000001               -0.01988837               -0.03785093                0.08949445               -0.01092291                0.00541098                0.07560708
               1.00318071                2.99964337               19.01646346                0.01000001               -0.02421659               -0.08428423                0.08955574                0.00439131                0.01393930                0.05185994
               2.00289526                2.99875664               19.01651791                0.01000000               -0.04572975               -0.07873203                0.09046677                0.07357935                0.03264101                0.01343882
               3.00226611                2.99860614               19.01678521                0.01000000               -0.07628948               -0.06750792                0.09295158                0.16331489                0.04930763               -0.00291412
               4.00136947                2.99933798               19.01723217                0.01017496               -0.09825468               -0.06237729                0.09622272                0.24873901                0.05959233               -0.00995238
               5.00030102                3.00075835               19.01779997                0.01000000               -0.11821976               -0.07653486                0.09895634                0.31828296                0.06707845               -0.01275491
               5.99900508                3.00273655               19.01848276                0.01000001               -0.13366746               -0.09244648                0.10261943                0.33732292                0.05965494               -0.00091779
               6.99762767                3.00454520               19.01910189                0.01000000               -0.19477164               -0.11264819                0.10521678                0.36100964                0.04644756               -0.00558737
               7.99510964                3.00653291               19.01969978                0.01000001               -0.14276248               -0.09259422                0.10440246                0.30125903                0.00036789                0.02333067
               8.99477242                3.00751073               19.01977841                0.01007237               -0.03339002               -0.10904588                0.10930715                0.23494993               -0.01360641                0.03360970
               9.99444184                3.00847705               19.02009916                0.25739681               -0.03305786               -0.21841814                0.11126185                0.27172179               -0.00168017                0.02591504
               0.00486679                4.00043614               19.01730696                0.01000000               -0.01469959               -0.04179041                0.09460526                0.03563173                0.00034068                0.07932145
               1.00471979                3.99867462               19.01697792                0.01000000               -0.01784673               -0.11232198                0.09396266                0.08225497                0.00942350                0.03617756
               2.00450985                3.99777035               19.01680325                0.01000000               -0.03739938               -0.10967494                0.09404701                0.16610767                0.02973271                0.00581827
               3.00397180                3.99777929               19.01687019                0.01017553               -0.07015607               -0.09180152                0.09543828                0.23935328                0.05049155               -0.00719206
               4.00310673                3.99855734               19.01716312                0.01000000               -0.09544105               -0.08693431                0.09735477                0.30660080                0.06614846               -0.00682138
               5.00206298                3.99995703               19.01765450                0.01000001               -0.10716238               -0.08877563                0.09996260                0.35497752                0.07573356                0.00609946
               6.00096348                4.00171911               19.01826497                0.01000000               -0.11173329               -0.10612287                0.10336227                0.39170470                0.07715507                0.02534041
               6.99982832                4.00361875               19.01891043                0.01005241               -0.09128382               -0.11728095                0.10610449                0.39998038                0.06561252                0.04901066
               7.99913781                4.00500885               19.01942174                0.01004816               -0.06637372               -0.15738477                0.10859155                0.43672450                0.04756581                0.06152368
               8.99850084                4.00566119               19.01975255                0.01000000               -0.01142812               -0.18830399                0.11041148                0.31896285                0.02052457                0.08163269
               9.99890924                4.00444676               19.01978484                0.01000001                0.04084025               -0.29482349                0.11122913                0.24258071                0.01113326                0.05077308
               0.00761527                4.99989903               19.01810484                0.01000001               -0.01236686               -0.11407596                0.09975439                0.11988826                0.00186056                0.09311288
               1.00749161                4.99739693               19.01749043                0.01000000               -0.02512653               -0.12492302                0.09827162                0.19497409                0.01228675                0.02791450
               2.00711274                4.99656314               19.01704570                0.01000001               -0.06127087               -0.11344646                0.09728545                0.25054147                0.03560605               -0.00885252
               3.00626619                4.99677011               19.01694926                0.01000000               -0.08944963               -0.10874630                0.09785904                0.30659321                0.06091343               -0.01374289
               4.00532375                4.99759929               19.01718403                0.01000001               -0.10136939               -0.09669531                0.09900503                0.34307417                0.08680911               -0.00529116
               5.00423880                4.99898283               19.01769861                0.01000000               -0.10731510               -0.09836586                0.10215291                0.36947841                0.10322027                0.01713247
               6.00317745                5.00061409               19.01839439                0.01000002               -0.09506304               -0.11196854                0.10580381                0.37334063                0.10890507                0.04781490
               7.00233754                5.00219959               19.01914511                0.01000001               -0.06878799               -0.14113881                0.10967372                0.35873091                0.10318686                0.08021218
               8.00180169                5.00338522               19.01980300                0.01000000               -0.03118846               -0.16408805                0.11206387                0.30422761                0.08348652                0.11097656
               9.00171377                5.00374465               19.02019912                0.01000000               -0.00396782               -0.17565304                0.11440602                0.20916378                0.04967551                0.12642391
              10.00172233                5.00258058               19.02015380                0.01000000                0.00085622               -0.13167814                0.11535465                0.10381331                0.03043420                0.10884621
               0.01226875                5.99815463               19.01921032                0.78000019               -0.03135883               -0.10318321                0.10614626                0.13363876               -0.00345096                0.05484047
               1.01195517                5.99617616               19.01804702                0.01000000               -0.10606241               -0.07668885                0.10328648                0.18910771                0.01228691                0.01057798
               2.01014751                5.99550142               19.01720701                0.01000000               -0.14438250               -0.13373546                0.09989703                0.29666946                0.04000000               -0.03313261
               3.00906752                5.99560437               19.01698560                0.01000001               -0.11960082               -0.10332189                0.09962305                0.32902542                0.08669534               -0.02486035
               4.00775549                5.99662343               19.01726345                0.01000000               -0.13148824               -0.09566276                0.10136745                0.35624005                0.11862118               -0.00732705
               5.00643775                5.99798971               19.01788836                0.01000002               -0.12709730               -0.09195623                0.10475403                0.35276248                0.14001944                0.02150448
               6.00521354                5.99947974               19.01877517                0.01000001               -0.11029713               -0.09946447                0.10950708                0.31722992                0.15210258                0.06117583
               7.00423181                6.00079597               19.01978471                0.01000000               -0.07681222               -0.12578454                0.11338591                0.25702302                0.15028830                0.10897965
               8.00367730                6.00172709               19.02073053                0.01000000               -0.03715272               -0.15355378                0.11807940                0.18918567                0.12751964                0.15783849
               9.00348875                6.00214813               19.02133339                0.01000001               -0.01818304               -0.14715684                0.12146114                0.10635581                0.07772015                0.19327799
              10.00331364                6.00181319               19.02126887                0.01000001               -0.01751159               -0.05507109                0.12200768                0.05176562                0.04518754                0.19338366
               0.01424498                6.99783537               19.01967036                0.99999999               -0.03180121               -0.03205232                0.10751370                0.00001823               -0.00337816                0.02277589
               1.01392697                6.99586316               19.01839528                0.99995270               -0.03135258               -0.03135172                0.10435613               -0.00031692               -0.00584508                0.00141904
               2.01361793                6.99388843               19.01707745                0.01000000               -0.11011424               -0.09586198                0.10151043                0.21400300                0.05486627               -0.03576254
               3.01172468                6.99470367               19.01702517                0.01000000               -0.17773604               -0.10479822                0.10102297                0.32361178                0.12054689               -0.03475902
               4.01006321                6.99568604               19.01735237                0.01005703               -0.16434691               -0.09195299                0.10316097                0.34670474                0.14929135               -0.01759083
               5.00843774                6.99714371               19.01813457                0.01000001               -0.16737109               -0.06150394                0.10732417                0.32538004                0.18015079                0.01950653
               6.00671579                6.99862480               19.01931057                0.01000000               -0.16035465               -0.05764530                0.11237400                0.24320320                0.20377441                0.06612753
               7.00523065                6.99968390               19.02076270                0.01000000               -0.12412711               -0.08122513                0.11839476                0.13620978                0.21020152                0.12610018
               8.00423324                7.00031414               19.02223596                0.01000000               -0.07379354               -0.11951239                0.12590877                0.03883291                0.18606060                0.21222375
               9.00375478                7.00080151               19.02331378                0.01000002               -0.04028592               -0.13088325                0.13127671               -0.00754263                0.11497825                0.28323778
              10.00342753                7.00147916               19.02339248                0.01000000               -0.03272560               -0.04107974                0.13263025               -0.01723408                0.06469295                0.32610301
               0.01621355                7.99751358               19.02013982                1.00000000               -0.03177812               -0.03220787                0.10747237                0.00001374               -0.00073378                0.02312848
               1.01589576                7.99554913               19.01877718                1.00000000               -0.03132478               -0.03139310                0.10450415               -0.00001436               -0.00044193                0.00295251
               2.01558705                7.99358418               19.01742409                0.01000001               -0.10768100               -0.03044661                0.10151254                0.09441811                0.04480673               -0.01638806
               3.01374214                7.99350840               19.01697241                0.01000001               -0.16687522               -0.16903655                0.10098093                0.33612227                0.11735820               -0.08883672
               4.01224955                7.99478437               19.01732810                0.01005962               -0.18677794               -0.05468734                0.10423263                0.36696856                0.17937651               -0.02749829
               5.01000659                7.99675963               19.01836524                0.01000000               -0.23560626               -0.00210718                0.10840379                0.28909949                0.22192251                0.01436924
               6.00753742                7.99832683               19.01987433                0.01000000               -0.23699612                0.00071255                0.11567908                0.16543073                0.25496019                0.05914419
               7.00526666                7.99917147               19.02186006                0.01000000               -0.21005390               -0.01434786                0.12493864                0.02688200                0.29261450                0.11925670
               8.00333634                7.99933684               19.02440700                0.01000002               -0.15468899               -0.04819199                0.13642635               -0.10960483                0.28105275                0.21966668
               9.00217288                7.99953047               19.02637474                0.01001974               -0.08613446               -0.09806505                0.14571605               -0.20273785                0.18631090                0.48749474
              10.00161365                8.00099160               19.02713452                0.01000000               -0.05592302               -0.15220738                0.14997190               -0.14897292                0.12388283                0.47814618
               0.01817416                8.99719121               19.02061004                1.00000000               -0.03180792               -0.03226168                0.10753077                0.00001570                0.00226210                0.01826203
               1.01785608                8.99523529               19.01916191                0.99999999               -0.03135727               -0.03137191                0.10452147                0.00000689                0.00103743                0.00171288
               2.01754702                8.99327950               19.01769036                1.00000000               -0.03045733               -0.03047324                0.10149565               -0.00004035               -0.00548157               -0.01222120
               3.01724693                8.99132294               19.01611524                0.01000118               -0.16978336               -0.12402535                0.09842675                0.33845601                0.12704770               -0.07443319
               4.01415135                8.99459229               19.01730022                0.01000000               -0.32848297                0.04386909                0.10448017                0.34709255                0.24187754               -0.02462212
               5.01067728                8.99710157               19.01852652                0.01000000               -0.32693931                0.05614199                0.10935512                0.19107368                0.24810136                0.00897252
               6.00761256                8.99863905               19.02027959                0.01000000               -0.29594951                0.04695012                0.11835964                0.08457377                0.28960346                0.03730460
               7.00475828                8.99939694               19.02273328                0.01000002               -0.29652060                0.03904464                0.12971950               -0.01350686                0.35502086                0.07566756
               8.00168215                8.99935030               19.02613707                0.01000001               -0.33565100                0.04181148                0.14517677               -0.12108365                0.53466802                0.15248918
               8.99804526                8.99884021               19.03252594                0.99999998               -0.20781721               -0.06053783                0.17320387               -0.23183930                0.33164882                0.32223026
               9.99752581                8.99843501               19.03225932                0.99999999               -0.05194594               -0.15384849                0.17316688               -0.22470433               -0.00100808                0.26877277
               0.02012570                9.99686835               19.02098275                1.00000000               -0.03180820               -0.03228663                0.10756256                0.00048788                0.01268814                0.01346698
               1.01980761                9.99492169               19.01952230                1.00000000               -0.03135501               -0.03136052                0.10455742                0.00047176                0.01598183                0.00044978
               2.01949860                9.99297471               19.01812618                0.99993248               -0.03045707               -0.03047855                0.10156211                0.00046845                0.01606743               -0.00391214
               3.01919847                9.99102789               19.01666837                0.01000000               -0.30429126               -0.02950453                0.09854979                0.32950589                0.11815780               -0.00422112
               4.01341277                9.99566175               19.01731734                0.01005327               -0.47085886                0.10694634                0.10376688                0.26887120                0.20751026               -0.01256397
               5.00978130                9.99788247               19.01857046                0.01000000               -0.32396242                0.07809068                0.10979547                0.09060609                0.23875106                0.01100680
               6.00693352                9.99926583               19.02031799                0.01000001               -0.27480097                0.06267803                0.11875819                0.03559067                0.28687481                0.02555056
               7.00428528                9.99995236               19.02288445                0.01008325               -0.27310620                0.05554254                0.13115090               -0.00193912                0.38551326                0.04549805
               8.00147140               10.00017307               19.02690615                0.01000000               -0.29169445                0.08227651                0.14959623               -0.10270770                0.50985870                0.11222616
               8.99845139                9.99831971               19.03225512                0.99999999               -0.17707210               -0.05204974                0.17379460               -0.07230974                0.28201258                0.00123280
               9.99792996                9.99791463               19.03198849                1.00000000               -0.05214306               -0.05203848                0.17375765               -0.00009313                0.00111424               -0.00111347
               0.00122731                0.00169831               20.01659755                1.00000000               -0.02556248               -0.02543684                0.08541499               -0.00028812               -0.00366750                0.00341866
               1.00097168                0.00081689               20.01656840                1.00000000               -0.02548956               -0.02527529                0.08490573               -0.00008831               -0.00406959               -0.00108316
               2.00071751               -0.00006866               20.01653288                0.01000001               -0.00670858               -0.02511996                0.08440168                0.02477340                0.04639106               -0.00169975
               3.00083751               -0.00046142               20.01751391                0.01000000                0.00373775               -0.02748417                0.08969166                0.01861691                0.10723232               -0.00267663
               4.00079227                0.00021434               20.01864909                0.01000001               -0.02519736               -0.01868017                0.09554878                0.05246206                0.13201683               -0.01121513
               5.00033356                0.00220260               20.02011851                0.01000079               -0.11338802               -0.01272238                0.10199771                0.13527013                0.17037108               -0.01905443
               5.99852451                0.00613750               20.02210401                0.28029670               -0.10688028               -0.03299800                0.11028447                0.14397370                0.10168919               -0.00098417
               6.99819596                0.00718984               20.02259211                1.00000000               -0.03346988               -0.03337828                0.11253845                0.00016858                0.01675635               -0.00429409
               7.99785511                0.00823849               20.02287421                0.99999999               -0.03441748               -0.03405354                0.11471184                0.00035647                0.00816382               -0.00047887
               8.99750761                0.00927972               20.02318753                1.00000000               -0.03509869               -0.03472766                0.11698021                0.00035494                0.00782802                0.00092525
               9.99715314                0.01031367               20.02346182                1.00000000               -0.03544693               -0.03543044                0.11924893                0.00074158                0.00584327                0.00532931
               0.00210585                1.00144395               20.01662453                0.99999341               -0.02515653               -0.02524918                0.08413809               -0.00020808                0.00102363                0.00369487
               1.00185428                1.00056414               20.01659664                0.01000000               -0.02507237               -0.02507948                0.08361163               -0.00001766                0.00267821               -0.00281474
               2.00160440                0.99968014               20.01660208                0.01000000               -0.04860514               -0.03453228                0.08309939                0.00215405                0.05259641                0.02148799
               3.00088218                0.99926374               20.01757136                0.01000001               -0.08097604               -0.02434889                0.08966238                0.04109243                0.09531849               -0.00253339
               3.99998488                1.00002753               20.01852539                0.01000000               -0.10787507               -0.01891669                0.09483667                0.11310462                0.09934841               -0.01335004
               4.99872468                1.00207538               20.01970531                0.01000000               -0.12571279               -0.02441372                0.10046030                0.22081825                0.13003850               -0.02092795
               5.99747063                1.00580752               20.02147395                0.01000001               -0.07887654               -0.10604611                0.10787406                0.20371419                0.08218491               -0.03960875
               6.99714715                1.00685606               20.02188190                1.00000000               -0.03284428               -0.03300427                0.11005216               -0.00002010                0.00756691               -0.00425795
               7.99681374                1.00789795               20.02215441                0.99999999               -0.03367924               -0.03369219                0.11228246                0.00002402                0.00122494               -0.00038606
               8.99647356                1.00893244               20.02243358                0.99999999               -0.03435726               -0.03436552                0.11455403                0.00002129                0.00108498                0.00057686
               9.99612659                1.00995937               20.02270317                1.00000000               -0.03469698               -0.03507043                0.11683122                0.00037581                0.00052051                0.00660376
               0.00298276                2.00119333               20.01665840                0.01003415               -0.02476313               -0.03427256                0.08285876               -0.01607642                0.00155054                0.04231766
               1.00273513                2.00031530               20.01659076                0.01000000               -0.04608858               -0.05015829                0.08231051               -0.02307903                0.03221927                0.03413455
               2.00206099                1.99924070               20.01713454                0.01000001               -0.07115829               -0.05295277                0.08767869                0.00966033                0.05753753                0.03112136
               3.00131197                1.99905160               20.01761974                0.01000000               -0.09091324               -0.03810619                0.09051120                0.10574109                0.06201752               -0.00014201
               4.00024273                1.99983600               20.01832600                0.01000000               -0.11710136               -0.03387316                0.09475683                0.20655288                0.07458465               -0.01321520
               4.99896994                2.00171433               20.01920255                0.01000001               -0.12123078               -0.05804496                0.09947631                0.28970310                0.07387220               -0.02220408
               5.99781811                2.00401658               20.02006716                0.01000000               -0.14324074               -0.13442550                0.10337848                0.31446081                0.07863488               -0.05213982
               6.99610512                2.00652976               20.02116890                0.01000000               -0.10194488               -0.08831544                0.10757675                0.19396767                0.03732693               -0.01933260
               7.99577921                2.00756465               20.02143491                0.07269669               -0.03292527               -0.03306950                0.10984350                0.00072223               -0.00581348                0.00119242
               8.99544662                2.00859240               20.02167296                0.99999999               -0.03362105               -0.03362418                0.11214588                0.00004949               -0.00419770               -0.00175140
               9.99510679                2.00961227               20.02197221                1.00000000               -0.03398262               -0.03436091                0.11442615                0.00038290               -0.00127114                0.00654078
               0.00354038                3.00075849               20.01745754                0.01000000               -0.01950445               -0.03641617                0.08857136               -0.00878922                0.00602752                0.08236688
               1.00334534                2.99956097               20.01735650                0.01000001               -0.02395396               -0.08946120                0.08908948                0.00981966                0.01467226                0.05851251
               2.00306130                2.99862109               20.01742170                0.01000000               -0.04718208               -0.08368052                0.09029193                0.08713219                0.03448214                0.01744145
               3.00240170                2.99850162               20.01771346                0.01000000               -0.08040430               -0.07113543                0.09265418                0.18554655                0.05179917                0.00002432
               4.00145322                2.99935007               20.01818713                0.01012194               -0.10317667               -0.06586423                0.09522853                0.27695353                0.06160025               -0.00827533
               5.00033816                3.00091448               20.01878525                0.01000000               -0.12544031               -0.08203036                0.09860775                0.35315793                0.06779883               -0.00983303
               5.99894441                3.00311901               20.01951062                0.01000001               -0.14298628               -0.09962731                0.10258948                0.37304251                0.06145076                0.00064568
               6.99747844                3.00508975               20.02015474                0.01000001               -0.20894373               -0.12206610                0.10515129                0.39532832                0.04598089               -0.00434546
               7.99476554                3.00723656               20.02074612                0.01000001               -0.15257512               -0.09905614                0.10494650                0.32821183                0.00041572                0.02526342
               8.99442693                3.00825996               20.02087372                0.01000491               -0.03355027               -0.11606759                0.10976058                0.25541360               -0.01220503                0.03536460
               9.99409453                3.00927215               20.02121547                0.27400165               -0.03324042               -0.23465259                0.11201122                0.29558517               -0.00168222                0.02728966
               0.00520203                4.00046501               20.01825274                0.01000000               -0.01330933               -0.04376991                0.09464411                0.04184716                0.00030662                0.08579424
               1.00506893                3.99852608               20.01791838                0.01000000               -0.01695187               -0.12089695                0.09415737                0.09538739                0.00967641                0.04152402
               2.00486299                3.99756709               20.01774414                0.01000000               -0.03875103               -0.11732519                0.09415433                0.18929555                0.03053869                0.01011807
               3.00429391                3.99762890               20.01781917                0.01012248               -0.07470260               -0.09622125                0.09481877                0.26787474                0.05177456               -0.00444367
               4.00336894                3.99851872               20.01812973                0.01000000               -0.10148784               -0.09251781                0.09665366                0.34041148                0.06812147               -0.00448385
               5.00226415                4.00007372               20.01864717                0.01000001               -0.11326241               -0.09372051                0.09931797                0.39169787                0.07862802                0.00915901
               6.00110369                4.00202404               20.01929862                0.01000001               -0.11850080               -0.11368909                0.10320230                0.43088545                0.08009945                0.02801159
               6.99989414                4.00408843               20.01997085                0.01000001               -0.09652214               -0.12715220                0.10650473                0.43849682                0.06813427                0.05287927
               7.99917324                4.00558352               20.02050863                0.01000001               -0.06874177               -0.17088377                0.10913838                0.47739126                0.04986396                0.06778248
               8.99851930                4.00627105               20.02085759                0.01000000               -0.00895715               -0.20219355                0.11090656                0.34753546                0.02331200                0.08420153
               9.99899410                4.00491921               20.02090365                0.01000001                0.04747989               -0.31717856                0.11226847                0.26384589                0.01398773                0.05169076
               0.00825519                4.99988310               20.01910618                0.01000001               -0.01041811               -0.12722817                0.10046192                0.13650097                0.00165794                0.10018716
               1.00815101                4.99714303               20.01847698                0.01000000               -0.02553974               -0.13483416                0.09905169                0.22082020                0.01246112                0.03333200
               2.00774439                4.99627458               20.01802414                0.01000001               -0.06717244               -0.12060631                0.09812649                0.28296599                0.03654910               -0.00528617
               3.00680756                4.99657719               20.01792622                0.01000000               -0.09638850               -0.11548524                0.09764387                0.34228111                0.06374759               -0.01262245
               4.00581662                4.99749972               20.01816851                0.01000001               -0.10703778               -0.10259130                0.09859221                0.37958291                0.08965527               -0.00239528
               5.00466680                4.99904007               20.01871864                0.01000001               -0.11346098               -0.10408814                0.10191583                0.40858097                0.10710785                0.02034838
               6.00354740                5.00084523               20.01945145                0.01003659               -0.09889589               -0.11907201                0.10563437                0.41003124                0.11254698                0.05154890
               7.00268889                5.00254671               20.02024156                0.01005525               -0.07083304               -0.15046756                0.10946161                0.39278302                0.10610877                0.08437465
               8.00213074                5.00381889               20.02092310                0.01000000               -0.03234655               -0.17458438                0.11221478                0.33395087                0.08662001                0.11664803
               9.00204195                5.00421608               20.02134712                0.01000000               -0.00278080               -0.18732063                0.11509323                0.22949138                0.05235226                0.13248950
              10.00207513                5.00292858               20.02131141                0.01000000                0.00331729               -0.13948637                0.11618333                0.11328244                0.03181157                0.11417502
               0.01341217                5.99792044               20.02027818                0.75399932               -0.03183241               -0.11423876                0.10740432                0.15318429               -0.00341030                0.05898440
               1.01309385                5.99582939               20.01908832                0.01000000               -0.11620130               -0.08155013                0.10495133                0.21315162                0.01176052                0.01392346
               2.01108815                5.99515496               20.01821097                0.01000000               -0.15897241               -0.14263525                0.10089811                0.33057849                0.04016211               -0.03088498
               3.00991440                5.99531919               20.01798753                0.01000001               -0.12952142               -0.11074946                0.10037174                0.36526005                0.08868912               -0.02291733
               4.00849772                5.99646689               20.01827830                0.01000001               -0.14120718               -0.10132249                0.10148267                0.39282239                0.12185347               -0.00454791
               5.00709026                5.99799196               20.01893409                0.01003806               -0.13500227               -0.09564875                0.10463263                0.38738332                0.14431566                0.02448882
               6.00579767                5.99964260               20.01987373                0.01014661               -0.11570581               -0.10469987                0.10874510                0.34940001                0.15540595                0.06420954
               7.00477614                6.00107908               20.02091411                0.01000000               -0.08073942               -0.13163454                0.11253317                0.28212963                0.15378270                0.11254276
               8.00418288                6.00209184               20.02190718                0.01000000               -0.03883507               -0.16094652                0.11770498                0.20692675                0.13165982                0.16526623
               9.00399944                6.00252464               20.02255016                0.01000001               -0.01740633               -0.15510304                0.12170545                0.11634981                0.08050293                0.20202078
              10.00383476                6.00212949               20.02249317                0.01000001               -0.01646817               -0.05607490                0.12281847                0.05680691                0.04666800                0.20215523
               0.01550098                6.99759832               20.02075006                0.99999999               -0.03214525               -0.03227529                0.10842791               -0.00005286               -0.00363075                0.02342929
               1.01517952                6.99551203               20.01944516                1.00000000               -0.03174063               -0.03171512                0.10561242               -0.00031289               -0.00595400                0.00197549
               2.01486616                6.99342188               20.01810058                0.01000000               -0.11893487               -0.10207726                0.10309329                0.23571462                0.05595021               -0.03477662
               3.01280083                6.99436220               20.01804238                0.01000001               -0.19329289               -0.11297489                0.10208007                0.35645401                0.12309365               -0.03372382
               4.01100031                6.99547327               20.01838630                0.01000000               -0.17810305               -0.09707388                0.10386689                0.38102218                0.15391650               -0.01539477
               5.00923877                6.99712709               20.01920978                0.01006026               -0.17760147               -0.06294563                0.10728244                0.35521472                0.18471212                0.02187644
               6.00744828                6.99875123               20.02042828                0.01000000               -0.16782646               -0.06035836                0.11148600                0.26691773                0.20775365                0.06902722
               7.00588224                6.99991402               20.02194307                0.01000000               -0.13122778               -0.08485856                0.11782181                0.15021655                0.21724665                0.13200314
               8.00482372                7.00059996               20.02349786                0.01000000               -0.07754682               -0.12535835                0.12620408                0.04559617                0.19315829                0.22167781
               9.00433130                7.00111402               20.02462829                0.01000002               -0.04110739               -0.13640313                0.13157146               -0.00576645                0.11907976                0.29519842
              10.00400157                7.00180708               20.02472248                0.01000000               -0.03297267               -0.03977504                0.13332005               -0.01756439                0.06706077                0.33977560
               0.01758370                7.99727494               20.02121646                1.00000000               -0.03196652               -0.03230052                0.10786138               -0.00003565               -0.00073367                0.02311270
               1.01726403                7.99519509               20.01982616                0.99986356               -0.03157169               -0.03162131                0.10529961                0.00001428               -0.00045802                0.00298300
               2.01695227                7.99311341               20.01844512                0.01019965               -0.11359704               -0.03080620                0.10270760                0.10144893                0.04574800               -0.01647194
               3.01499209                7.99305969               20.01798496                0.01000001               -0.17994963               -0.18161609                0.10213254                0.36693237                0.12107367               -0.08941168
               4.01335327                7.99452541               20.01837458                0.01000000               -0.20377552               -0.05603497                0.10523681                0.40238610                0.18611657               -0.02656527
               5.01091658                7.99673304               20.01945467                0.01000000               -0.25020842               -0.00145498                0.10863672                0.31683602                0.22923539                0.01567539
               6.00834910                7.99843543               20.02102262                0.01000000               -0.24924177                0.00192938                0.11523041                0.18059780                0.26417573                0.06242040
               7.00593175                7.99938191               20.02311266                0.01000000               -0.22271518               -0.01347550                0.12519387                0.03266067                0.30422975                0.12505412
               8.00389480                7.99958467               20.02577177                0.01000002               -0.16273799               -0.04868193                0.13649788               -0.11366422                0.29180046                0.22898787
               9.00267699                7.99979658               20.02783022                0.01000007               -0.08987244               -0.09973207                0.14552767               -0.21405931                0.19372621                0.50792882
              10.00209735                8.00133399               20.02863261                0.01000000               -0.05796357               -0.15571459                0.14992221               -0.15721211                0.12897089                0.49798277
               0.01965996                8.99695231               20.02168522                1.00000000               -0.03186260               -0.03223403                0.10749765               -0.00004371                0.00225617                0.01831004
               1.01934133                8.99487960               20.02020896                0.99999999               -0.03147104               -0.03147776                0.10489874                0.00001799                0.00102751                0.00170269
               2.01903054                8.99280575               20.01870919                1.00000000               -0.03069299               -0.03070689                0.10228819               -0.00002465               -0.00551104               -0.01227223
               3.01872747                8.99072988               20.01710557                0.01000001               -0.18279304               -0.13139307                0.09963200                0.36772378                0.13134573               -0.07551215
               4.01537468                8.99435257               20.01834890                0.01000000               -0.35310006                0.05018568                0.10442152                0.37776610                0.25306203               -0.02582787
               5.01166547                8.99709799               20.01962188                0.01000000               -0.34816571                0.06096966                0.10968562                0.21038653                0.25823477                0.00981997
               6.00841136                8.99878982               20.02146358                0.01000000               -0.31396319                0.05251208                0.11855088                0.09264008                0.30159290                0.03965298
               7.00538621                8.99964451               20.02403152                0.01000002               -0.31377962                0.04386786                0.12999215               -0.01212951                0.36937458                0.07898204
               8.00213577                8.99962632               20.02758903                0.01000001               -0.35427056                0.04717499                0.14522956               -0.12655510                0.55650695                0.15895834
               8.99830080                8.99911938               20.03425464                0.99999998               -0.21766279               -0.05983354                0.17253560               -0.24399981                0.34534391                0.33541694
               9.99778252                8.99869279               20.03399079                0.99999999               -0.05182816               -0.15813094                0.17312600               -0.23713075               -0.00101047                0.27996668
               0.02172824                9.99663026               20.02205610                1.00000000               -0.03172896               -0.03220530                0.10710627                0.00035573                0.01273082                0.01349888
               1.02141095                9.99456553               20.02056762                1.00000000               -0.03133728               -0.03140682                0.10449924                0.00041257                0.01603367                0.00045081
               2.02110149                9.99249928               20.01914361                1.00000000               -0.03055968               -0.03064778                0.10191267                0.00041037                0.01611684               -0.00392281
               3.02079976                9.99043183               20.01765766                0.01000000               -0.32805054               -0.02980491                0.09930726                0.35872084                0.12209670               -0.00423967
               4.01454048                9.99552913               20.01835647                0.01008247               -0.50563496                0.11765617                0.10334438                0.29261073                0.21887386               -0.01421004
               5.01068706                9.99795244               20.01966585                0.01000000               -0.34425449                0.08544440                0.11042627                0.09998554                0.24942359                0.01193781
               6.00765539                9.99948567               20.02150804                0.01000001               -0.29171992                0.06958472                0.11939041                0.03974457                0.29963132                0.02681516
               7.00485266               10.00025927               20.02419856                0.01003631               -0.28832853                0.06147641                0.13173582               -0.00123002                0.40203686                0.04754735
               8.00188882               10.00052817               20.02840369                0.01003774               -0.30610687                0.09018486                0.14992587               -0.10766303                0.53162869                0.11685347
               8.99873052                9.99859991               20.03399327                0.99999999               -0.18404517               -0.05194745                0.17383721               -0.07486774                0.29390655                0.00123572
               9.99820792                9.99817137               20.03372942                0.99999999               -0.05226021               -0.05214237                0.17442684               -0.00031371                0.00111311               -0.00111582
               0.00122228                0.00171196               21.01745358                1.00000000               -0.02563427               -0.02549964                0.08581706               -0.00033183               -0.00367127                0.00345038
               1.00096593                0.00078426               21.01741858                1.00000000               -0.02555004               -0.02530594                0.08511850               -0.00012668               -0.00408593               -0.00111389
               2.00071128               -0.00014832               21.01737730                0.01000000               -0.00574211               -0.02509785                0.08445860                0.02712578                0.04926953               -0.00169561
               3.00085109               -0.00054190               21.01840923                0.01000000                0.00476055               -0.02677511                0.08942306                0.02112482                0.11249015               -0.00193480
               4.00080649                0.00022957               21.01960191                0.01000001               -0.02750627               -0.01687559                0.09511247                0.05880691                0.13730696               -0.01111774
               5.00030097                0.00243291               21.02113630                0.01000000               -0.12566074               -0.00991683                0.10146856                0.15089996                0.17599380               -0.01922267
               5.99829327                0.00676972               21.02320274                0.26770764               -0.11669176               -0.03277006                0.10941477                0.16176826                0.10448133               -0.00099797
               6.99796713                0.00786918               21.02371419                0.99999999               -0.03327347               -0.03319465                0.11185786                0.00021168                0.01667528               -0.00436055
               7.99762780                0.00896561               21.02401962                0.99999999               -0.03431389               -0.03397241                0.11435800                0.00040353                0.00813454               -0.00048976
               8.99728085                0.01005506               21.02435717                1.00000000               -0.03508821               -0.03474210                0.11694287                0.00040059                0.00784505                0.00092214
               9.99692604                0.01113779               21.02465566                1.00000000               -0.03548148               -0.03554238                0.11952461                0.00076205                0.00585761                0.00534560
               0.00214665                1.00145696               21.01746640                0.99999389               -0.02518504               -0.02527264                0.08420754               -0.00025983                0.00098490                0.00372419
               1.00189480                1.00053120               21.01743234                0.01000000               -0.02505200               -0.02505640                0.08353007               -0.00000895                0.00270682               -0.00284699
               2.00164561                0.99960071               21.01743185                0.01000000               -0.05107038               -0.03519451                0.08290097                0.00353359                0.05608575                0.02440614
               3.00087340                0.99919035               21.01846598                0.01000001               -0.08692320               -0.02367954                0.08930359                0.04723769                0.10102953               -0.00111277
               3.99990715                1.00006082               21.01947121                0.01000000               -0.11667527               -0.01753637                0.09443139                0.12649748                0.10379415               -0.01265488
               4.99853989                1.00233374               21.02070766                0.01000000               -0.13571650               -0.02346053                0.09999131                0.24562094                0.13452371               -0.02049754
               5.99719282                1.00644202               21.02254938                0.01000001               -0.08342946               -0.11405745                0.10717026                0.22602255                0.08454433               -0.04058632
               6.99687130                1.00753723               21.02298001                1.00000000               -0.03269603               -0.03284797                0.10954843                0.00000061                0.00747605               -0.00430786
               7.99653890                1.00862589               21.02327633                0.99993314               -0.03362646               -0.03363723                0.11210231                0.00002102                0.00121919               -0.00039557
               8.99619877                1.00970764               21.02357975                0.99999999               -0.03439858               -0.03440558                0.11468882                0.00001768                0.00110412                0.00058390
               9.99585093                1.01078236               21.02387367                1.00000000               -0.03478444               -0.03520741                0.11727404                0.00034806                0.00054068                0.00662061
               0.00306860                2.00120650               21.01748600                0.01000000               -0.02465872               -0.03345597                0.08268570               -0.01455854                0.00157646                0.04575290
               1.00282201                2.00028313               21.01741187                0.01000000               -0.04728987               -0.05226020                0.08189218               -0.02217599                0.03516100                0.03817327
               2.00212280                1.99914779               21.01800785                0.01000001               -0.07431376               -0.05524172                0.08709565                0.01418542                0.06259077                0.03653563
               3.00133573                1.99898451               21.01852283                0.01000000               -0.09648793               -0.03915778                0.09024372                0.11971641                0.06551709                0.00241636
               4.00019304                1.99987884               21.01927148                0.01000000               -0.12517780               -0.03460374                0.09446279                0.23008646                0.07809234               -0.01184139
               4.99883218                2.00196370               21.02019452                0.01000001               -0.12914048               -0.06083372                0.09894373                0.32016724                0.07669069               -0.02107237
               5.99761023                2.00448857               21.02109946                0.01000000               -0.15244528               -0.14620123                0.10302932                0.34601487                0.08056203               -0.05266364
               6.99578327                2.00721222               21.02224314                0.01000000               -0.10762058               -0.09404432                0.10724845                0.21223931                0.03822058               -0.01937499
               7.99545782                2.00829287               21.02253326                0.07526329               -0.03292705               -0.03307148                0.10983789                0.00074032               -0.00578548                0.00007090
               8.99512473                2.00936695               21.02279585                0.99999999               -0.03371388               -0.03371226                0.11244738                0.00004834               -0.00416133               -0.00172391
               9.99478354                2.01043364               21.02311948                0.99999999               -0.03411895               -0.03454804                0.11503352                0.00035811               -0.00124781                0.00655061
               0.00370223                3.00078784               21.01833861                0.01000001               -0.01922308               -0.03515582                0.08845377               -0.00653291                0.00694653                0.08949187
               1.00350999                2.99948600               21.01824525                0.01000001               -0.02371396               -0.09492577                0.08895768                0.01539701                0.01574116                0.06561580
               2.00322795                2.99849587               21.01832375                0.01000000               -0.04866603               -0.08887642                0.09014907                0.10091156                0.03620545                0.02204200
               3.00253667                2.99840719               21.01863829                0.01000000               -0.08491295               -0.07534288                0.09245992                0.20794172                0.05401897                0.00318714
               4.00152969                2.99936874               21.01913674                0.01008632               -0.11015838               -0.06962816                0.09508773                0.30790001                0.06389599               -0.00638116
               5.00033351                3.00111707               21.01977213                0.01000000               -0.13325450               -0.08784407                0.09866108                0.38918623                0.06905487               -0.00708851
               5.99886460                3.00351800               21.02053455                0.01000001               -0.15108581               -0.10750343                0.10217097                0.40854184                0.06270542                0.00211259
               6.99731179                3.00565635               21.02120492                0.01000001               -0.22328080               -0.13113528                0.10506352                0.43220919                0.04544338               -0.00293643
               7.99439898                3.00796446               21.02179871                0.01000001               -0.16264107               -0.10526777                0.10567646                0.35837862                0.00053129                0.02746050
               8.99405897                3.00903339               21.02197362                0.01000004               -0.03371402               -0.12475625                0.11021995                0.27871384               -0.01104225                0.03721281
               9.99372470                3.01009140               21.02233939                0.29131585               -0.03342677               -0.25245059                0.11278402                0.32146771               -0.00168757                0.02858606
               0.00554163                4.00050339               21.01919984                0.01000000               -0.01197054               -0.04552548                0.09468586                0.04835326                0.00017813                0.09327907
               1.00542192                3.99838462               21.01886107                0.01000000               -0.01608954               -0.12961794                0.09434984                0.10898743                0.00972895                0.04767007
               2.00521984                3.99737027               21.01868634                0.01000000               -0.04001106               -0.12526447                0.09432551                0.21297862                0.03109085                0.01482903
               3.00462170                3.99747765               21.01876656                0.01008682               -0.07893348               -0.10289437                0.09489792                0.29880602                0.05336131               -0.00181167
               4.00364117                3.99848628               21.01909619                0.01000000               -0.10775259               -0.09829620                0.09673279                0.37619629                0.07082654               -0.00209847
               5.00246665                4.00020682               21.01964086                0.01000001               -0.11996879               -0.10070967                0.09955287                0.43083636                0.08168288                0.01205820
               6.00124179                4.00233850               21.02032902                0.01000001               -0.12428275               -0.12240167                0.10285297                0.47117808                0.08320783                0.03081531
               6.99998099                4.00458952               21.02104052                0.01016554               -0.09967203               -0.13562627                0.10611398                0.47626450                0.07088231                0.05655567
               7.99924835                4.00618751               21.02160450                0.01015990               -0.07044633               -0.18224146                0.10913267                0.51559259                0.05278454                0.07111372
               8.99857207                4.00687182               21.02197068                0.01000000               -0.00757388               -0.21657621                0.11189205                0.37553241                0.02517569                0.08712944
               9.99909687                4.00538463               21.02203021                0.01000001                0.05248057               -0.34084205                0.11402539                0.28654511                0.01485569                0.05541090
               0.00890683                4.99987733               21.02011408                0.01000000               -0.00839647               -0.14064784                0.10109720                0.15356323                0.00135977                0.10801817
               1.00882287                4.99689364               21.01947146                0.01000000               -0.02561730               -0.14490823                0.09978601                0.24744575                0.01237048                0.03969637
               2.00839448                4.99599058               21.01900823                0.01000001               -0.07130436               -0.12814917                0.09850510                0.31436843                0.03699530               -0.00142678
               3.00739678                4.99634931               21.01890214                0.01000000               -0.10350199               -0.12238953                0.09765245                0.37822514                0.06639036               -0.01131539
               4.00632444                4.99740282               21.01915587                0.01000001               -0.11493842               -0.10858013                0.09885807                0.41791981                0.09293619                0.00010564
               5.00509801                4.99910288               21.01973693                0.01000001               -0.12094909               -0.11092388                0.10163718                0.44645649                0.11106197                0.02366632
               6.00390546                5.00106996               21.02050708                0.01000001               -0.10549704               -0.12757020                0.10606066                0.44704021                0.11686699                0.05471778
               7.00298807                5.00294382               21.02133434                0.01000001               -0.07384675               -0.16220999                0.10956265                0.42713440                0.10884052                0.09032223
               8.00242853                5.00431963               21.02204729                0.01000000               -0.03077832               -0.18649328                0.11177636                0.35920703                0.08757027                0.12365545
               9.00237250                5.00470187               21.02250098                0.01000000                0.00007299               -0.19822173                0.11496693                0.24478444                0.05343163                0.13822189
              10.00242999                5.00327456               21.02247747                0.01000000                0.00574847               -0.14696988                0.11717608                0.12047439                0.03276711                0.11982336
               0.01458028                5.99769043               21.02135841                0.72700571               -0.03226905               -0.12558288                0.10862071                0.17336937               -0.00338273                0.06366383
               1.01425759                5.99548645               21.02014604                0.01000001               -0.12643698               -0.08644070                0.10656938                0.23756775                0.01075321                0.01791401
               2.01205154                5.99480728               21.01922498                0.01000000               -0.17418094               -0.15159172                0.10175670                0.36443161                0.03942621               -0.02806623
               3.01077397                5.99502986               21.01899303                0.01000001               -0.14027723               -0.11587723                0.10029777                0.40057261                0.09003284               -0.02124661
               4.00924599                5.99631468               21.01929310                0.01000001               -0.15226679               -0.10604791                0.10108448                0.43040869                0.12524578               -0.00183644
               5.00772863                5.99798834               21.01998101                0.01000001               -0.14521722               -0.10211056                0.10501905                0.42322088                0.14876401                0.02762110
               6.00634165                5.99978710               21.02095007                0.01000002               -0.12273097               -0.11067491                0.10774655                0.37945375                0.16026924                0.06729996
               7.00527401                6.00134532               21.02203537                0.01000000               -0.08336012               -0.14092077                0.11306682                0.30942420                0.15747164                0.12021791
               8.00467445                6.00245765               21.02308463                0.01000000               -0.03805942               -0.17182611                0.11818992                0.22723697                0.13685521                0.17278147
               9.00451282                6.00290739               21.02376750                0.01000001               -0.01567386               -0.16382268                0.12211627                0.12634185                0.08348671                0.21028311
              10.00436097                6.00244523               21.02372524                0.01000001               -0.01518555               -0.05696671                0.12357512                0.06130274                0.04828678                0.21050250
               0.01678217                6.99736567               21.02183892                0.99999999               -0.03248031               -0.03248762                0.10932318               -0.00012461               -0.00395633                0.02410134
               1.01645737                6.99516483               21.02050752                1.00000000               -0.03212323               -0.03207324                0.10685637               -0.00032850               -0.00612506                0.00254847
               2.01613971                6.99295875               21.01913931                0.01000000               -0.12782680               -0.10805778                0.10467251                0.25793030                0.05639103               -0.03325661
               3.01390083                6.99403176               21.01906677                0.01000001               -0.20827856               -0.11864426                0.10218743                0.38916496                0.12516619               -0.03209897
               4.01197414                6.99528186               21.01942971                0.01016992               -0.19054141               -0.10121030                0.10330341                0.41425406                0.15762067               -0.01271170
               5.01009001                6.99706066               21.02028022                0.01000001               -0.19182865               -0.06636527                0.10722322                0.38946182                0.19259487                0.02280558
               6.00813756                6.99885646               21.02154029                0.01000000               -0.17920008               -0.06235805                0.11140156                0.29430182                0.21773326                0.07107881
               7.00650600                7.00012541               21.02311914                0.01000000               -0.13631837               -0.08806023                0.11898243                0.16773667                0.22499765                0.13861114
               8.00541120                7.00088311               21.02476004                0.01000000               -0.07971231               -0.13161112                0.12615800                0.05401746                0.20032089                0.23092857
               9.00491176                7.00142541               21.02594520                0.01000002               -0.04154219               -0.14223460                0.13185940               -0.00370700                0.12304816                0.30671732
              10.00458035                7.00213523               21.02605888                0.01000942               -0.03314048               -0.03811412                0.13391236               -0.01765284                0.06936082                0.35286299
               0.01897948                7.99704068               21.02229705                1.00000000               -0.03215394               -0.03239527                0.10825321               -0.00008743               -0.00072537                0.02306655
               1.01865794                7.99484499               21.02088317                0.99999999               -0.03181381               -0.03184732                0.10608338                0.00003658               -0.00046128                0.00302426
               2.01834321                7.99264613               21.01947825                0.01000000               -0.12118940               -0.03115903                0.10387632                0.11062275                0.04678069               -0.01649040
               3.01623416                7.99265698               21.01901506                0.01000001               -0.19205180               -0.19458833                0.10380299                0.39888285                0.12109388               -0.08731123
               4.01450217                7.99429047               21.01943284                0.01017086               -0.21454468               -0.05940075                0.10554470                0.43631001                0.18750605               -0.02483314
               5.01194326                7.99666104               21.02053798                0.01000000               -0.26696141                0.00130572                0.10783918                0.34433718                0.23900700                0.01490840
               6.00916294                7.99853994               21.02217894                0.01000000               -0.26705805                0.00451134                0.11608010                0.20101484                0.27403442                0.06631037
               7.00660210                7.99958411               21.02436394                0.01000000               -0.23540770               -0.01173675                0.12518905                0.03999049                0.31525175                0.13117557
               8.00445479                7.99982543               21.02713695                0.01000002               -0.17077681               -0.04927781                0.13667214               -0.11717233                0.30201308                0.23785536
               9.00318657                8.00006269               21.02928530                0.01000007               -0.09332536               -0.10199593                0.14560025               -0.22519237                0.20047282                0.52731023
              10.00258828                8.00168295               21.03013297                0.01000000               -0.05982834               -0.15988413                0.15032554               -0.16532738                0.13366238                0.51722453
               0.02117181                8.99671777               21.02275999                1.00000000               -0.03191507               -0.03220663                0.10746263               -0.00009944                0.00227815                0.01837766
               1.02085265                8.99452788               21.02125988                0.99999999               -0.03158145               -0.03158107                0.10526505                0.00003185                0.00104425                0.00170303
               2.02054018                8.99233557               21.01973612                1.00000000               -0.03092545               -0.03093512                0.10306893               -0.00000970               -0.00552816               -0.01230631
               3.02023415                8.99014000               21.01810788                0.01009102               -0.19219496               -0.14090249                0.10083912                0.39758318                0.13440253               -0.07663004
               4.01669628                8.99409384               21.01938865                0.01000000               -0.37534312                0.05359629                0.10553199                0.41133356                0.26012141               -0.02695152
               5.01272728                8.99708678               21.02072023                0.01000000               -0.37307451                0.06861293                0.11035655                0.22638948                0.26804015                0.01037249
               6.00923479                8.99894669               21.02265061                0.01000001               -0.33534781                0.05866452                0.11928302                0.10171925                0.31282514                0.04205247
               7.00602033                8.99989067               21.02533312                0.01000002               -0.33228095                0.04925521                0.13040057               -0.01104389                0.38299152                0.08232002
               8.00258917                8.99989755               21.02904166                0.01000002               -0.37349689                0.05276992                0.14530780               -0.13253509                0.57723961                0.16505758
               8.99855039                8.99938549               21.03597666                0.99999998               -0.22779351               -0.05977696                0.17187702               -0.25713902                0.35836425                0.34795288
               9.99803330                8.99893755               21.03572184                0.99998919               -0.05170913               -0.16339474                0.17308165               -0.25021233               -0.00101107                0.29066993
               0.02335727                9.99639655               21.02312488                1.00000000               -0.03164916               -0.03212229                0.10664851                0.00022900                0.01277250                0.01355696
               1.02304078                9.99421337               21.02161228                1.00000000               -0.03131891               -0.03145118                0.10444323                0.00035671                0.01608767                0.00044296
               2.02273090                9.99202742               21.02016443                1.00000000               -0.03066201               -0.03081428                0.10226740                0.00034996                0.01617619               -0.00395233
               3.02242754                9.98983893               21.01865451                0.01000000               -0.34744191               -0.03010688                0.10006774                0.38608840                0.12489001               -0.00424361
               4.01578206                9.99536240               21.01938423                0.01000000               -0.54046694                0.12685545                0.10471567                0.31829654                0.23018624               -0.01647330
               5.01161820                9.99803330               21.02077899                0.01000000               -0.36943115                0.09465162                0.11194238                0.10663362                0.25979523                0.01357643
               6.00839344                9.99971323               21.02270580                0.01000001               -0.30939211                0.07665379                0.12027420                0.04266081                0.31108658                0.02816366
               7.00543036               10.00056922               21.02551916                0.01000000               -0.30420856                0.06785438                0.13238723               -0.00061675                0.41781950                0.04952139
               8.00230926               10.00088082               21.02990466                0.01000002               -0.32132850                0.09832717                0.15026259               -0.11309345                0.55258426                0.12122659
               8.99900379                9.99886715               21.03573186                0.99999999               -0.19146656               -0.05183399                0.17388116               -0.07794832                0.30532999                0.00122514
               9.99847993                9.99841505               21.03547702                0.99999999               -0.05238591               -0.05224925                0.17508949               -0.00054667                0.00112708               -0.00111191
               0.00122389                0.00174169               22.01831389                1.00000000               -0.02576440               -0.02556819                0.08615323               -0.00048541               -0.00373210                0.00333485
               1.00096625                0.00076708               22.01827077                1.00000000               -0.02558190               -0.02531696                0.08535095                0.00000390               -0.00392307               -0.00113278
               2.00071226               -0.00021167               22.01822205                0.01000000               -0.00517742               -0.02506203                0.08450590                0.02898685                0.05217532               -0.00151997
               3.00086270               -0.00061363               22.01930237                0.01000000                0.00495387               -0.02584892                0.08930100                0.02332353                0.11751515               -0.00121270
               4.00081133                0.00025338               22.02055134                0.01000001               -0.03050463               -0.01485160                0.09483841                0.06522926                0.14221115               -0.01093917
               5.00025261                0.00267544               22.02214788                0.01000000               -0.13875424               -0.00682337                0.10089366                0.16698185                0.18124958               -0.01947685
               5.99803625                0.00742426               22.02429231                0.25575899               -0.12700164               -0.03251857                0.10847771                0.18006842                0.10691040               -0.00100991
               6.99771258                0.00857099               22.02482926                0.99996931               -0.03307128               -0.03300341                0.11114862                0.00026414                0.01654339               -0.00442291
               7.99737482                0.00971527               22.02516137                0.99999999               -0.03420504               -0.03388685                0.11398472                0.00045585                0.00810938               -0.00048885
               8.99702848                0.01085299               22.02552638                1.00000000               -0.03507538               -0.03475581                0.11689749                0.00044703                0.00786369                0.00093061
               9.99667332                0.01198455               22.02585231                1.00000000               -0.03551599               -0.03565880                0.11981232                0.00078096                0.00587452                0.00535534
               0.00219366                1.00148601               22.01830868                1.00000000               -0.02506840               -0.02527581                0.08433268               -0.00027682                0.00104878                0.00387892
               1.00194297                1.00051391               22.01826724                0.01032723               -0.02505892               -0.02506087                0.08344705                0.00009731                0.00245053               -0.00304380
               2.00169248                0.99953771               22.01826010                0.01000000               -0.05397804               -0.03544122                0.08272739                0.00517809                0.05965198                0.02738866
               3.00086341                0.99912788               22.01935743                0.01000001               -0.09366926               -0.02293729                0.08912131                0.05315676                0.10662281                0.00050051
               3.99981909                1.00010486               22.02041402                0.01000000               -0.12632127               -0.01598705                0.09421355                0.14004349                0.10796867               -0.01186016
               4.99833699                1.00260721               22.02170513                0.01000000               -0.14649672               -0.02235161                0.09955355                0.27086911                0.13879862               -0.02030460
               5.99688916                1.00709908               22.02361735                0.01000001               -0.08836362               -0.12230662                0.10640533                0.24891191                0.08656126               -0.04148445
               6.99656971                1.00824096               22.02407287                1.00000000               -0.03253884               -0.03268192                0.10901135                0.00002394                0.00733884               -0.00435639
               7.99623838                1.00937640               22.02439645                0.99985265               -0.03357029               -0.03357922                0.11190978                0.00002199                0.00122053               -0.00039330
               8.99589831                1.01050543               22.02472736                0.99999999               -0.03444080               -0.03444666                0.11482668                0.00001299                0.00111696                0.00059692
               9.99554957                1.01162796               22.02504866                1.00000000               -0.03487420               -0.03534934                0.11772962                0.00031673                0.00054733                0.00663143
               0.00316256                2.00123618               22.01831211                0.01000001               -0.02460644               -0.03257600                0.08251759               -0.01341274                0.00168405                0.04999573
               1.00291650                2.00026586               22.01822860                0.01000000               -0.04803606               -0.05449131                0.08143537               -0.02123130                0.03842939                0.04255088
               2.00220184                1.99907950               22.01887645                0.01000001               -0.07789098               -0.05771311                0.08612013                0.01808303                0.06676819                0.04138868
               3.00135868                1.99892763               22.01942462                0.01000000               -0.10344815               -0.04031281                0.09042110                0.13299043                0.06875535                0.00525743
               4.00013288                1.99993364               22.02021525                0.01000000               -0.13414518               -0.03535647                0.09437636                0.25394942                0.08122430               -0.01024073
               4.99867578                2.00222841               22.02118143                0.01000001               -0.13760713               -0.06404199                0.09864807                0.35144792                0.07906971               -0.02026508
               5.99738074                2.00497813               22.02212774                0.01000000               -0.16200240               -0.15836874                0.10272066                0.37827584                0.08252602               -0.05341976
               6.99543573                2.00791735               22.02331387                0.01000000               -0.11349757               -0.10036609                0.10688143                0.23094965                0.03898181               -0.01928529
               7.99511079                2.00904369               22.02363167                0.07736912               -0.03292756               -0.03309353                0.10982619                0.00078905               -0.00575503               -0.00071206
               8.99477718                2.01016406               22.02392191                0.99999998               -0.03380979               -0.03380248                0.11275802                0.00004895               -0.00414027               -0.00170576
               9.99443459                2.01127756               22.02427288                0.99999999               -0.03425874               -0.03474115                0.11565566                0.00033468               -0.00124275                0.00655925
               0.00386603                3.00083449               22.01922662                0.01000001               -0.01910156               -0.03405289                0.08863934               -0.00501256                0.00734427                0.09705167
               1.00367502                2.99942408               22.01913565                0.01000001               -0.02368314               -0.10062977                0.08902256                0.02047368                0.01648579                0.07353306
               2.00339237                2.99838345               22.01922468                0.01000000               -0.05029675               -0.09501571                0.09037335                0.11375075                0.03782199                0.02688173
               3.00266908                2.99832163               22.01956266                0.01000000               -0.08975362               -0.07994075                0.09255977                0.23034436                0.05605577                0.00641362
               4.00159730                2.99939773               22.02008888                0.01006266               -0.11738165               -0.07380091                0.09537357                0.33915127                0.06606612               -0.00427171
               5.00032145                3.00132637               22.02075847                0.01000000               -0.14157843               -0.09391636                0.09871203                0.42615904                0.07139277               -0.00587554
               5.99876573                3.00393170               22.02155404                0.01000001               -0.15991509               -0.11551588                0.10201633                0.44473571                0.06401059                0.00325493
               6.99712315                3.00623363               22.02225601                0.01000001               -0.23791374               -0.14136136                0.10527791                0.46917007                0.04532418               -0.00246099
               7.99400746                3.00871453               22.02285965                0.01000001               -0.17288687               -0.11432375                0.10716653                0.38918708                0.00045431                0.02903493
               8.99366541                3.00982938               22.02307812                0.01000000               -0.03391049               -0.13388869                0.11068170                0.30192689               -0.01022144                0.03932238
               9.99332925                3.01093314               22.02347115                0.30930234               -0.03361652               -0.26941051                0.11357791                0.34725413               -0.00168548                0.03077758
               0.00588313                4.00055512               22.02014646                0.01000000               -0.01061127               -0.04747987                0.09477772                0.05489383                0.00000376                0.10107116
               1.00577702                3.99825326               22.01980538                0.01000000               -0.01519093               -0.13860469                0.09460871                0.12266593                0.00967552                0.05434386
               2.00557931                3.99717919               22.01963065                0.01000000               -0.04128704               -0.13380202                0.09459273                0.23683974                0.03142123                0.01975347
               3.00495128                3.99732881               22.01971713                0.01006305               -0.08340737               -0.10986048                0.09527280                0.32985352                0.05444513                0.00110745
               4.00391117                3.99845762               22.02006439                0.01000000               -0.11431448               -0.10464072                0.09700982                0.41322640                0.07275982                0.00001053
               5.00266499                4.00035008               22.02063823                0.01000001               -0.12714909               -0.10765596                0.09983438                0.47127880                0.08394034                0.01403698
               6.00136818                4.00266781               22.02135568                0.01000001               -0.13143445               -0.13065846                0.10281233                0.51308235                0.08459191                0.03389944
               7.00003630                4.00509012               22.02209313                0.01006852               -0.10347028               -0.14376639                0.10546277                0.51458665                0.07068676                0.05888358
               7.99929878                4.00675721               22.02269129                0.01005350               -0.07195947               -0.19513337                0.10893094                0.55521059                0.05140964                0.07591872
               8.99859711                4.00748628               22.02309543                0.01000000               -0.00633092               -0.23228397                0.11296286                0.40735710                0.02340988                0.09346665
               9.99917216                4.00588935               22.02318416                0.01000000                0.05750498               -0.36515609                0.11605208                0.31271948                0.01434065                0.05939683
               0.00956762                4.99988489               22.02112813                0.01000000               -0.00633522               -0.15431190                0.10167112                0.17101539                0.00082673                0.11677971
               1.00950427                4.99665199               22.02047270                0.01000000               -0.02569998               -0.15508278                0.10045581                0.27439185                0.01168342                0.04705123
               2.00905362                4.99570741               22.01999425                0.01000001               -0.07582722               -0.13583192                0.09888031                0.34613998                0.03633218                0.00261929
               3.00798772                4.99612442               22.01987927                0.01000000               -0.11065308               -0.12995925                0.09782568                0.41465847                0.06666190               -0.00892228
               4.00684056                4.99730492               22.02014567                0.01000001               -0.12254447               -0.11506486                0.09900607                0.45761588                0.09527452                0.00147985
               5.00553683                4.99917325               22.02075138                0.01000001               -0.12766123               -0.11744977                0.10144235                0.48785972                0.11521829                0.02643437
               6.00428733                5.00131853               22.02157267                0.01016192               -0.11056755               -0.13562135                0.10606423                0.48827873                0.12136592                0.05824579
               7.00332548                5.00335831               22.02243282                0.01014514               -0.07859126               -0.16957405                0.10943550                0.46240215                0.11397872                0.09098040
               8.00271551                5.00481187               22.02315863                0.01000000               -0.03225341               -0.19612486                0.11235737                0.38572387                0.09207425                0.12553229
               9.00268041                5.00518370               22.02364646                0.01000000                0.00309938               -0.21001028                0.11579830                0.26248046                0.05663253                0.14433001
              10.00277750                5.00363002               22.02365493                0.01000000                0.00970820               -0.15656167                0.11832401                0.13027412                0.03541421                0.12468151
               0.01576925                5.99746888               22.02245060                0.69924328               -0.03269067               -0.13715918                0.10975545                0.19412373               -0.00335239                0.06888472
               1.01544234                5.99515161               22.02121970                0.01000001               -0.13697840               -0.09130605                0.10810684                0.26230158                0.00911147                0.02259823
               2.01302968                5.99446255               22.02024610                0.01000000               -0.18977061               -0.16019640                0.10246308                0.39795663                0.03696233               -0.02434648
               3.01164693                5.99472963               22.01999348                0.01000001               -0.15075150               -0.12131140                0.10011507                0.43599010                0.09033276               -0.02050404
               4.01001465                5.99615632               22.02029999                0.01000001               -0.16191818               -0.11128134                0.10039766                0.46850852                0.12928779               -0.00205026
               5.00840857                5.99800108               22.02103447                0.01016339               -0.15329770               -0.10735038                0.10461730                0.46211586                0.15406068                0.03047688
               6.00694870                5.99995539               22.02202866                0.01000000               -0.13087793               -0.11872942                0.10901765                0.41871256                0.16625641                0.07068223
               7.00579101                6.00169864               22.02317544                0.01000000               -0.08804205               -0.15003187                0.11375565                0.33581407                0.16358793                0.12567408
               8.00518786                6.00283472               22.02427098                0.01000000               -0.03812206               -0.18228278                0.11844287                0.24379996                0.14061126                0.17946017
               9.00502857                6.00328608               22.02499248                0.01000001               -0.01514221               -0.17265657                0.12293561                0.13682060                0.08581459                0.21887845
              10.00488501                6.00275812               22.02496467                0.01000001               -0.01435546               -0.05867023                0.12452456                0.06640107                0.04973566                0.21868531
               0.01808464                6.99714171               22.02293653                0.99999999               -0.03280087               -0.03268432                0.11016221               -0.00020009               -0.00431704                0.02479041
               1.01775663                6.99482587               22.02158229                1.00000000               -0.03249511               -0.03241960                0.10806180               -0.00034846               -0.00632589                0.00313127
               2.01743474                6.99250348               22.02019403                0.01000000               -0.13714385               -0.11378765                0.10623654                0.27993135                0.05558030               -0.03108955
               3.01501375                6.99369819               22.02008613                0.01000001               -0.22477327               -0.12286328                0.10065321                0.41941299                0.12586676               -0.03253415
               4.01293927                6.99507929               22.02045237                0.01007292               -0.20168326               -0.10432575                0.10171911                0.44469398                0.16172144               -0.01379567
               5.01098009                6.99702624               22.02135425                0.01014991               -0.19876218               -0.07049403                0.10692661                0.42033556                0.19431836                0.02683615
               6.00896403                6.99894395               22.02265631                0.01000000               -0.19088262               -0.06520376                0.11176882                0.31932792                0.22578088                0.07560404
               7.00716243                7.00035767               22.02432272                0.01000000               -0.14799767               -0.09536021                0.12077295                0.18550095                0.23391648                0.14496271
               8.00600407                7.00116621               22.02602102                0.01000000               -0.08345058               -0.13872780                0.12678318                0.05993744                0.20635252                0.23927864
               9.00549342                7.00173057               22.02726547                0.01000002               -0.04213199               -0.14873734                0.13233468               -0.00238691                0.12686058                0.31742655
              10.00516143                7.00245661               22.02740073                0.01004568               -0.03319896               -0.03713001                0.13460798               -0.01788377                0.07149948                0.36541430
               0.02039694                7.99681519               22.02338153                1.00000000               -0.03233274               -0.03248392                0.10862143               -0.00014246               -0.00073962                0.02299702
               1.02007361                7.99450322               22.02194782                0.99999999               -0.03204739               -0.03206571                0.10684160                0.00005326               -0.00048551                0.00304992
               2.01975599                7.99218680               22.02052265                0.01000000               -0.13071164               -0.03150192                0.10501825                0.12031918                0.04783112               -0.01649191
               3.01745938                7.99227236               22.02006102                0.01000001               -0.20877528               -0.20701785                0.10496229                0.43161247                0.12536292               -0.08927074
               4.01558048                7.99406981               22.02048548                0.01006419               -0.22543742               -0.06085735                0.10282812                0.46721656                0.19338355               -0.02651904
               5.01295063                7.99659120               22.02161145                0.01000000               -0.27883270                0.00190964                0.10885622                0.36828678                0.24027057                0.02010185
               6.01000383                7.99865131               22.02334422                0.01000000               -0.28359317                0.00800300                0.11618020                0.21455908                0.28262027                0.06996072
               7.00727876                7.99979144               22.02561644                0.01000000               -0.24950624               -0.01109924                0.12589619                0.04507029                0.32504455                0.13626685
               8.00501370                8.00006016               22.02850521                0.01000002               -0.17941675               -0.05032243                0.13697143               -0.12235747                0.31175171                0.24655012
               9.00369043                8.00031133               22.03074222                0.01000007               -0.09692234               -0.10493484                0.14585585               -0.23750815                0.20670406                0.54525968
              10.00307526                8.00201552               22.03163912                0.01000000               -0.06151719               -0.16472387                0.15080060               -0.17405640                0.13815367                0.53503494
               0.02270574                8.99649203               22.02383447                1.00000000               -0.03196525               -0.03217839                0.10742383               -0.00015089                0.00228082                0.01845455
               1.02238609                8.99418455               22.02231426                0.99999999               -0.03168837               -0.03168135                0.10561950                0.00004723                0.00105775                0.00172859
               2.02207198                8.99187344               22.02077057                1.00000000               -0.03115499               -0.03115982                0.10383716                0.00000399               -0.00550928               -0.01228729
               3.02176299                8.98955783               22.01912236                0.01005435               -0.20536090               -0.15093310                0.10205275                0.43035464                0.13823661               -0.07771650
               4.01796476                8.99386215               22.02045954                0.01000000               -0.39993361                0.05693509                0.10724252                0.44729262                0.26567777               -0.02726173
               5.01376432                8.99706443               22.02182902                0.01000000               -0.39548921                0.07576256                0.11170142                0.24263112                0.27352903                0.01433690
               6.01005497                8.99910401               22.02384924                0.01000001               -0.35546636                0.06436249                0.12018478                0.11021860                0.32256362                0.04397640
               7.00665499                9.00013568               22.02663953                0.01000002               -0.35089710                0.05430920                0.13085812               -0.01064106                0.39546951                0.08565996
               8.00303703                9.00015976               22.03049519                0.01000002               -0.39335452                0.05832648                0.14547938               -0.13948526                0.59686402                0.17069287
               8.99878790                8.99963188               22.03769218                0.99999998               -0.23825518               -0.05986659                0.17119998               -0.27116469                0.37069005                0.35962569
               9.99827193                8.99916214               22.03745242                1.00000000               -0.05159730               -0.16883784                0.17303992               -0.26372985               -0.00102446                0.30071363
               0.02500888                9.99617163               22.02418907                1.00000000               -0.03157298               -0.03204049                0.10620155                0.00010963                0.01283270                0.01361818
               1.02469315                9.99386959               22.02265649                1.00000000               -0.03130435               -0.03149625                0.10440505                0.00030428                0.01615726                0.00047034
               2.02438279                9.99156360               22.02118896                1.00000000               -0.03076926               -0.03098371                0.10264588                0.00028674                0.01623681               -0.00393722
               3.02407776                9.98925370               22.01965902                0.01000000               -0.36815271               -0.03041333                0.10085273                0.41372245                0.12902769               -0.00426056
               4.01701973                9.99520851               22.02045079                0.01002795               -0.57581854                0.13463641                0.10769614                0.34813554                0.23337119               -0.01609542
               5.01256139                9.99810646               22.02190470                0.01000000               -0.39413928                0.10420232                0.11307580                0.11620973                0.26728122                0.01543721
               6.00913695                9.99993856               22.02391352                0.01000001               -0.32756020                0.08345561                0.12121603                0.04675594                0.32163146                0.02921626
               7.00601019               10.00087762               22.02684631                0.01000001               -0.32045709                0.07419390                0.13295653               -0.00007410                0.43275863                0.05135171
               8.00272781               10.00122669               22.03140894                0.01000002               -0.33727121                0.10669279                0.15050074               -0.11910358                0.57279340                0.12533002
               8.99926476                9.99911400               22.03747090                0.99987811               -0.19938341               -0.05178759                0.17392326               -0.08171026                0.31635123                0.00128934
               9.99874014                9.99863876               22.03723121                0.99999998               -0.05246229               -0.05233725                0.17576391               -0.00070250                0.00105981               -0.00113730
               0.00123388                0.00178907               23.01917665                1.00000000               -0.02545712               -0.02527580                0.08615153               -0.00037741               -0.00351506                0.00364868
               1.00097931                0.00076866               23.01912560                1.00000000               -0.02553501               -0.02561736                0.08552417               -0.00088513               -0.00385043               -0.00118530
               2.00072318               -0.00025481               23.01906742                0.01000000               -0.00535979               -0.02511121                0.08474516                0.03028163                0.05501766               -0.00163206
               3.00087211               -0.00067627               23.02019525                0.01000000                0.00410105               -0.02456144                0.08942051                0.02499409                0.12235498               -0.00050254
               4.00080520                0.00028543               23.02149868                0.01000001               -0.03435624               -0.01257331                0.09475958                0.07161941                0.14663385               -0.01068607
               5.00018499                0.00292887               23.02315418                0.01000000               -0.15275517               -0.00347655                0.10043346                0.18345441                0.18577620               -0.01969117
               5.99775010                0.00809943               23.02537229                0.24448999               -0.13780229               -0.03225380                0.10749637                0.19885279                0.10890475               -0.00102195
               6.99742894                0.00929351               23.02593716                1.00000000               -0.03286129               -0.03280067                0.11040101                0.00031550                0.01636024               -0.00449022
               7.99709287                0.01048567               23.02629932                0.99999999               -0.03408799               -0.03379449                0.11359224                0.00050586                0.00807993               -0.00048716
               8.99674718                0.01167172               23.02669512                1.00000000               -0.03505991               -0.03476663                0.11685054                0.00049976                0.00787954                0.00094484
               9.99639167                0.01285221               23.02705190                1.00000000               -0.03555087               -0.03577795                0.12011050                0.00080982                0.00589345                0.00536083
               0.00225051                1.00153631               23.01915305                0.99972168               -0.02581182               -0.02502935                0.08431450               -0.00061134                0.00122092                0.00407424
               1.00199239                1.00051249               23.01910129                0.01000000               -0.02510255               -0.02514628                0.08343907                0.00023612                0.00309615               -0.00302606
               2.00174846                0.99949408               23.01908640                0.01000000               -0.05702301               -0.03671040                0.08281428                0.00522984                0.06372310                0.02948936
               3.00085193                0.99907811               23.02024841                0.01000001               -0.10148205               -0.02196475                0.08926534                0.05827709                0.11215442                0.00249284
               3.99971882                1.00015969               23.02135548                0.01000000               -0.13697037               -0.01431304                0.09418154                0.15357566                0.11176465               -0.01094149
               4.99811253                1.00289411               23.02269873                0.01000000               -0.15812577               -0.02119045                0.09925316                0.29666496                0.14244592               -0.01999498
               5.99655631                1.00777690               23.02467748                0.01000001               -0.09367740               -0.13079698                0.10559236                0.27248040                0.08815722               -0.04218303
               6.99623898                1.00896550               23.02516024                0.99998852               -0.03237415               -0.03250668                0.10844359                0.00004353                0.00714963               -0.00440957
               7.99590882                1.01014772               23.02551453                1.00000000               -0.03350359               -0.03351158                0.11168554                0.00001833                0.00122223               -0.00038927
               8.99556891                1.01132405               23.02587629                0.99999999               -0.03447708               -0.03448245                0.11494670                0.00001231                0.00112546                0.00061303
               9.99521928                1.01249443               23.02622827                1.00000000               -0.03496262               -0.03549387                0.11820028                0.00029130                0.00054814                0.00663823
               0.00326930                2.00128848               23.01913635                0.01000001               -0.02430387               -0.03208888                0.08229563               -0.01324859                0.00173229                0.05409681
               1.00302626                2.00026574               23.01904057                0.01000000               -0.05035747               -0.05663028                0.08123428               -0.02141250                0.04104562                0.04742894
               2.00226215                1.99901098               23.01973026                0.01000001               -0.08271112               -0.06073844                0.08687701                0.02138081                0.07056084                0.04618960
               3.00137204                1.99888443               23.02033125                0.01000000               -0.11007160               -0.04175805                0.09057515                0.14649197                0.07236824                0.00841778
               4.00006072                1.99999917               23.02115901                0.01000000               -0.14354776               -0.03627596                0.09455470                0.27785031                0.08388384               -0.00841076
               4.99850108                2.00250506               23.02216748                0.01000001               -0.14662050               -0.06756731                0.09866588                0.38340030                0.08123023               -0.01930399
               5.99712831                2.00548349               23.02315387                0.01000000               -0.17210494               -0.17108703                0.10260834                0.41146356                0.08413164               -0.05380957
               6.99505898                2.00864337               23.02438076                0.01000000               -0.11968123               -0.10688157                0.10649225                0.25028131                0.03949193               -0.01892542
               7.99473468                2.00981543               23.02472979                0.07977480               -0.03291328               -0.03310900                0.10977082                0.00079178               -0.00572181               -0.00049039
               8.99440072                2.01098207               23.02505101                0.99999998               -0.03389690               -0.03388675                0.11304788                0.00005122               -0.00412567               -0.00169229
               9.99405675                2.01214233               23.02543259                0.99999999               -0.03439733               -0.03493767                0.11629752                0.00030851               -0.00124719                0.00656687
               0.00403104                3.00089454               23.02011140                0.01000001               -0.01893920               -0.03325907                0.08840043               -0.00373774                0.00784067                0.10479669
               1.00384164                2.99937988               23.02002570                0.01000001               -0.02368266               -0.10656452                0.08914023                0.02448779                0.01754265                0.08210487
               2.00355738                2.99827931               23.02013122                0.01000000               -0.05240260               -0.10076066                0.09063268                0.12687133                0.03944183                0.03265134
               3.00279359                2.99824295               23.02048949                0.01000000               -0.09510931               -0.08506236                0.09303513                0.25298433                0.05765975                0.00968988
               4.00165520                2.99943418               23.02104422                0.01004715               -0.12486932               -0.07847311                0.09581302                0.37071798                0.06801287               -0.00205090
               5.00029621                3.00154276               23.02174637                0.01000000               -0.15039656               -0.10052064                0.09904913                0.46370267                0.07324982               -0.00446523
               5.99864727                3.00435516               23.02257488                0.01000001               -0.16917705               -0.12428159                0.10235295                0.48177631                0.06536819                0.00458802
               6.99691266                3.00682787               23.02331047                0.01000001               -0.25306517               -0.15264943                0.10572086                0.50652636                0.04590104               -0.00115839
               7.99358596                3.00948554               23.02394204                0.01000001               -0.18348144               -0.12042636                0.10856252                0.41790047                0.00000951                0.03077904
               8.99324304                3.01064632               23.02418726                0.01000000               -0.03405159               -0.14046300                0.11114779                0.32284042               -0.01040852                0.04159908
               9.99290493                3.01179568               23.02461095                0.32791478               -0.03381055               -0.28767752                0.11439026                0.37240969               -0.00168046                0.03314072
               0.00622385                4.00062330               23.02109540                0.01000000               -0.00926094               -0.04928747                0.09498535                0.06127308               -0.00035157                0.10945758
               1.00613124                3.99813445               23.02075325                0.01000000               -0.01436707               -0.14797711                0.09502151                0.13606194                0.00932847                0.06157090
               2.00593651                3.99699577               23.02057819                0.01000000               -0.04271893               -0.14259013                0.09511528                0.26029568                0.03137189                0.02485542
               3.00527686                3.99718318               23.02067202                0.01004757               -0.08806195               -0.11742201                0.09586621                0.36094683                0.05512177                0.00410225
               4.00417527                3.99842970               23.02103639                0.01000000               -0.12113526               -0.11186826                0.09761754                0.45070487                0.07424981                0.00183676
               5.00285416                4.00049465               23.02163755                0.01000001               -0.13482723               -0.11537223                0.10028471                0.51236647                0.08581071                0.01547232
               6.00147873                4.00299786               23.02238526                0.01000001               -0.13975157               -0.13966279                0.10343202                0.55499083                0.08598022                0.03603013
               7.00005913                4.00559039               23.02314978                0.01000000               -0.11022401               -0.15733763                0.10665792                0.55890325                0.07152096                0.06196576
               7.99927424                4.00740691               23.02378312                0.01000001               -0.07558658               -0.21174788                0.11018453                0.60264145                0.05052529                0.08368387
               8.99854739                4.00817281               23.02422994                0.01000000               -0.00340099               -0.24774524                0.11387604                0.43738418                0.02198696                0.10073353
               9.99920622                4.00638878               23.02435125                0.01000000                0.06588309               -0.39039989                0.11687757                0.33241699                0.01411217                0.06219666
               0.01023421                4.99990879               23.02214750                0.01000000               -0.00437964               -0.16817888                0.10219929                0.18871357                0.00006068                0.12625051
               1.01019041                4.99642034               23.02148058                0.01000000               -0.02598262               -0.16528053                0.10117148                0.30158949                0.01053126                0.05519652
               2.00971456                4.99542751               23.02098584                0.01000001               -0.08059090               -0.14376014                0.09956541                0.37773339                0.03492361                0.00699236
               3.00857860                4.99589451               23.02085865                0.01000000               -0.11783645               -0.13851303                0.09839889                0.45095880                0.06641175               -0.00719839
               4.00735783                4.99719681               23.02113599                0.01000001               -0.13016094               -0.12313668                0.09938068                0.49781459                0.09710427                0.00170635
               5.00597538                4.99923532               23.02176578                0.01000001               -0.13532413               -0.12498175                0.10196576                0.52960522                0.11836456                0.02749014
               6.00465135                5.00156190               23.02262837                0.01006921               -0.11468463               -0.14403822                0.10539643                0.52464421                0.12395948                0.06125314
               7.00368168                5.00368112               23.02352305                0.01003527               -0.07974901               -0.18107479                0.10926758                0.49665068                0.11561380                0.09464105
               8.00305637                5.00525058               23.02429444                0.01000000               -0.03364189               -0.21112254                0.11473879                0.42028423                0.09558021                0.13124652
               9.00300885                5.00569141               23.02481695                0.01000000                0.00324817               -0.22534335                0.11832467                0.28625616                0.05928130                0.15083936
              10.00312133                5.00398768               23.02484395                0.01000000                0.01124830               -0.16578183                0.11984142                0.13988011                0.03661595                0.12917333
               0.01697501                5.99725972               23.02355352                0.67077941               -0.03307047               -0.14891164                0.11075259                0.21541625               -0.00332163                0.07461850
               1.01664431                5.99482884               23.02230818                0.01000001               -0.14790029               -0.09605044                0.10951682                0.28718896                0.00688879                0.02791863
               2.01401701                5.99412057               23.02127424                0.01000000               -0.20587849               -0.16835482                0.10326428                0.43085006                0.03329825               -0.02033438
               3.01252674                5.99441292               23.02099533                0.01000001               -0.16131244               -0.12904843                0.10007421                0.47138186                0.09020339               -0.02221339
               4.01079076                5.99596697               23.02130106                0.01000001               -0.17227827               -0.11881763                0.10050137                0.50823567                0.13246261               -0.00430810
               5.00908117                5.99799501               23.02207336                0.01007078               -0.16324749               -0.11074511                0.10374067                0.49735902                0.16002583                0.03036941
               6.00752581                6.00011710               23.02313042                0.01007837               -0.13888587               -0.12544538                0.10979870                0.45036166                0.17039178                0.07313626
               7.00630345                6.00196889               23.02431048                0.01000000               -0.09280873               -0.15487256                0.11416075                0.36026503                0.16923929                0.12619307
               8.00566963                6.00318446               23.02545349                0.01000000               -0.03840154               -0.19080683                0.11950342                0.26180923                0.14500424                0.18587534
               9.00553542                6.00366594               23.02622621                0.01000001               -0.01291672               -0.18336066                0.12390609                0.14745528                0.08874990                0.22686302
              10.00541130                6.00307314               23.02621573                0.01000001               -0.01241253               -0.06093081                0.12596545                0.07164550                0.05138922                0.22668881
               0.01940431                6.99693055               23.02404216                0.99999999               -0.03309648               -0.03285241                0.11091393               -0.00026798               -0.00471831                0.02550889
               1.01907335                6.99449933               23.02266876                1.00000000               -0.03284217               -0.03274095                0.10918933               -0.00036682               -0.00656359                0.00374518
               2.01874747                6.99206041               23.02126404                0.01000000               -0.14567594               -0.11904108                0.10773096                0.29919193                0.05251177               -0.02829234
               3.01615983                6.99331354               23.02107984                0.01000001               -0.24035095               -0.12887937                0.10017741                0.45059459                0.12488640               -0.03701248
               4.01394045                6.99482046               23.02146409                0.01000098               -0.21937002               -0.11070227                0.10151248                0.48677627                0.17266113               -0.02067427
               5.01177243                6.99702041               23.02241876                0.01004008               -0.21278735               -0.07033551                0.10601447                0.45206484                0.20192086                0.02719049
               6.00968470                6.99905299               23.02377566                0.01000000               -0.19764021               -0.06854374                0.11295711                0.34239019                0.22700362                0.08072559
               7.00781963                7.00058367               23.02553460                0.01000000               -0.15446038               -0.09881228                0.12058601                0.20099978                0.23965625                0.14960176
               8.00659550                7.00143445               23.02729571                0.01000001               -0.08751804               -0.14510972                0.12770623                0.06674688                0.21118764                0.24769542
               9.00606926                7.00202420               23.02859190                0.01000002               -0.04278294               -0.15623791                0.13313439               -0.00070371                0.13015368                0.32782981
              10.00573984                7.00276906               23.02875104                0.01000001               -0.03294271               -0.03705943                0.13558975               -0.01820108                0.07364213                0.37745312
               0.02183210                7.99660268               23.02446947                1.00000000               -0.03249841               -0.03256208                0.10894179               -0.00018936               -0.00075394                0.02290301
               1.02150711                7.99417402               23.02302001                1.00000000               -0.03227306               -0.03227728                0.10757318                0.00007142               -0.00050744                0.00307398
               2.02118663                7.99173975               23.02157861                0.01034875               -0.13642632               -0.03184504                0.10615611                0.12678709                0.04847331               -0.01645904
               3.01877858                7.99183534               23.02111431                0.01000001               -0.21836108               -0.21629366                0.10132165                0.45816310                0.14884292               -0.11329148
               4.01681941                7.99375293               23.02148940                0.01000000               -0.24443251               -0.06185787                0.10199793                0.50578449                0.20847772               -0.02781686
               5.01388993                7.99658830               23.02271510                0.01000000               -0.30045267                0.00299277                0.11056291                0.40145120                0.25086008                0.02277337
               6.01081036                7.99874622               23.02450254                0.01000000               -0.29739699                0.01019618                0.11689713                0.22975907                0.29012313                0.07468591
               7.00794199                7.99999264               23.02688186                0.01000001               -0.26231613               -0.01048324                0.12667114                0.05000930                0.33486909                0.14030934
               8.00556404                8.00028226               23.02987638                0.01000002               -0.18776295               -0.05133815                0.13733165               -0.12865782                0.32042804                0.25418747
               9.00418674                8.00054118               23.03220241                0.01000007               -0.10032409               -0.10874312                0.14624463               -0.25063062                0.21272555                0.56238402
              10.00355755                8.00233196               23.03314898                0.01000000               -0.06291814               -0.17046616                0.15128034               -0.18329856                0.14263175                0.55228231
               0.02425785                8.99627931               23.02490847                1.00000000               -0.03201397               -0.03214892                0.10737073               -0.00020221                0.00229207                0.01854420
               1.02393771                8.99385379               23.02337227                0.99999999               -0.03179775               -0.03178530                0.10598239                0.00005674                0.00108398                0.00176509
               2.02362189                8.99142351               23.02181286                1.00000000               -0.03138968               -0.03139195                0.10462427                0.00001776               -0.00547234               -0.01224782
               3.02330991                8.98898767               23.02014894                0.01004867               -0.21593594               -0.15774702                0.10327158                0.45637354                0.14142524               -0.07835465
               4.01930317                8.99358330               23.02153350                0.01000000               -0.42508788                0.06525310                0.10781324                0.47384930                0.27507781               -0.02777729
               5.01480816                8.99708027               23.02295426                0.01000000               -0.42138134                0.08011848                0.11383182                0.26423873                0.28102975                0.01745287
               6.01087555                8.99925692               23.02505431                0.01000001               -0.37621919                0.07113879                0.12074377                0.11839136                0.33216746                0.04721038
               7.00728377                9.00037400               23.02795029                0.01000002               -0.37008736                0.05950224                0.13136800               -0.01005554                0.40760077                0.08861428
               8.00347380                9.00040768               23.03195125                0.01000002               -0.41384063                0.06388290                0.14574694               -0.14740770                0.61550352                0.17587352
               8.99900696                8.99984934               23.03940066                0.99999998               -0.24907367               -0.06028399                0.17072560               -0.28630649                0.38265424                0.37014805
               9.99849233                8.99935974               23.03918264                0.99999999               -0.05146338               -0.17486104                0.17302851               -0.27781218               -0.00067863                0.31052051
               0.02667910                9.99595970               23.02524891                1.00000000               -0.03150561               -0.03196132                0.10577847               -0.00001334                0.01289848                0.01369404
               1.02636405                9.99353831               23.02370038                1.00000000               -0.03129977               -0.03154758                0.10439403                0.00024429                0.01623427                0.00050288
               2.02605311                9.99111191               23.02221735                1.00000000               -0.03088891               -0.03116042                0.10305669                0.00022569                0.01630513               -0.00391757
               3.02574627                9.98868040               23.02067157                0.01000000               -0.39246534               -0.03072733                0.10168338                0.44093933                0.13359602               -0.00427419
               4.01820380                9.99505799               23.02153815                0.01000001               -0.61225867                0.14746872                0.10908798                0.36557652                0.23921980               -0.01647475
               5.01350109                9.99819067               23.02304050                0.01000000               -0.41596728                0.11104059                0.11440870                0.12484436                0.27327575                0.01709674
               6.00988445               10.00016900               23.02513012                0.01000001               -0.34554895                0.09120836                0.12205580                0.05049145                0.33161383                0.03097941
               7.00659012               10.00118269               23.02817829                0.01000001               -0.33719543                0.08086880                0.13338541                0.00018033                0.44727207                0.05335692
               8.00314055               10.00155992               23.03291468                0.01000002               -0.35407814                0.11522360                0.15066335               -0.12568458                0.59253720                0.12906502
               8.99950855                9.99933550               23.03921033                0.99999997               -0.20800177               -0.05138325                0.17393728               -0.08610004                0.32644542                0.00076225
               9.99898051                9.99883473               23.03899230                0.99996846               -0.05280424               -0.05250035                0.17623257               -0.00125867                0.00072264               -0.00072241
               0.00125570                0.00186186               24.02003692                1.00000000               -0.02572219               -0.02540696                0.08567468               -0.00039565               -0.00328980                0.00399543
               1.00099848                0.00079199               24.01998125                1.00000000               -0.02563692               -0.02535843                0.08552791                0.00010087               -0.00376887               -0.00121644
               2.00074296               -0.00028227               24.01991696                0.01000000               -0.00599678               -0.02530729                0.08533979                0.03158555                0.05762722               -0.00175346
               3.00087854               -0.00073001               24.02109078                0.01000002                0.00210613               -0.02282595                0.08984721                0.02630378                0.12666493                0.00034734
               4.00078508                0.00032605               24.02244653                0.01000001               -0.03920113               -0.01003492                0.09492754                0.07802463                0.15035973               -0.01034429
               5.00009452                0.00319251               24.02415655                0.01000000               -0.16768622                0.00014848                0.10011987                0.20030766                0.18938228               -0.01975790
               5.99743136                0.00879344               24.02644224                0.23392798               -0.14908814               -0.03196006                0.10643865                0.21806951                0.11035773               -0.00105024
               6.99711275                0.01003503               24.02703728                1.00000000               -0.03264463               -0.03258729                0.10961806                0.00037372                0.01612479               -0.00453300
               7.99677846                0.01127511               24.02743321                0.99999999               -0.03396367               -0.03369548                0.11318093                0.00055709                0.00806104               -0.00049036
               8.99643348                0.01250955               24.02786339                1.00000000               -0.03504242               -0.03477540                0.11680072                0.00055650                0.00789242                0.00094516
               9.99607762                0.01373904               24.02825452                0.99998820               -0.03558650               -0.03589985                0.12041860                0.00084378                0.00590381                0.00537058
               0.00232161                1.00160779               24.01999497                0.99999999               -0.02500560               -0.02510459                0.08379000               -0.00028442                0.00137633                0.00429610
               1.00207155                1.00053841               24.01993602                0.01000000               -0.02508965               -0.02509850                0.08355290                0.00009484                0.00372533               -0.00297735
               2.00181981                0.99946465               24.01991638                0.01000000               -0.06170683               -0.03796273                0.08347581                0.00413738                0.06760355                0.03291698
               3.00083741                0.99904173               24.02114274                0.01000001               -0.11078730               -0.02075437                0.08971836                0.06299016                0.11723858                0.00434381
               3.99960407                1.00022570               24.02229765                0.01000000               -0.14867577               -0.01246821                0.09435911                0.16707531                0.11500083               -0.00977805
               4.99786390                1.00319400               24.02369020                0.01000000               -0.17066383               -0.01989133                0.09909330                0.32295700                0.14530419               -0.01940789
               5.99619079                1.00847384               24.02572920                0.01000001               -0.09941201               -0.13944486                0.10470054                0.29669475                0.08921686               -0.04254302
               6.99587566                1.00970916               24.02624174                1.00000000               -0.03220077               -0.03232141                0.10784305                0.00006033                0.00691116               -0.00444108
               7.99554678                1.01093815               24.02663016                1.00000000               -0.03342898               -0.03343677                0.11143670                0.00001364                0.00121925               -0.00039169
               8.99520708                1.01216180               24.02702629                0.99999999               -0.03451047               -0.03451551                0.11505732                0.00001346                0.00113769                0.00061973
               9.99485657                1.01338004               24.02741266                1.00000000               -0.03505125               -0.03564090                0.11868294                0.00026818                0.00055952                0.00664830
               0.00338877                2.00135977               24.01995803                0.01000000               -0.02452612               -0.03182045                0.08190333               -0.01334281                0.00177334                0.05828524
               1.00314351                2.00029002               24.01985329                0.01000000               -0.05331948               -0.05924511                0.08147735               -0.02333996                0.04496791                0.05245099
               2.00232238                1.99895847               24.02061399                0.01000001               -0.08831082               -0.06380570                0.08824497                0.02312461                0.07535533                0.05197625
               3.00137729                1.99885491               24.02123612                0.01000000               -0.11740285               -0.04335388                0.09094205                0.15950419                0.07480049                0.01187025
               3.99997432                2.00007669               24.02210635                0.01000000               -0.15358869               -0.03731843                0.09496863                0.30181926                0.08640506               -0.00615431
               4.99830552                2.00279469               24.02315474                0.01000001               -0.15621177               -0.07135022                0.09888193                0.41598694                0.08291659               -0.01785156
               5.99685009                2.00600454               24.02417991                0.01000000               -0.18279348               -0.18408856                0.10264461                0.44560576                0.08516269               -0.05349081
               6.99464965                2.00938861               24.02544372                0.01000000               -0.12619943               -0.11338551                0.10607435                0.27000885                0.03962335               -0.01816687
               7.99432610                2.01060637               24.02582709                0.08258524               -0.03288945               -0.03306859                0.10968709                0.00073618               -0.00570222                0.00000223
               8.99399186                2.01181924               24.02618286                0.99999998               -0.03398027               -0.03396794                0.11332742                0.00005528               -0.00410311               -0.00167354
               9.99364650                2.01302622               24.02659883                1.00000000               -0.03453659               -0.03513743                0.11695487                0.00028234               -0.00123506                0.00657293
               0.00419424                3.00097138               24.02099462                0.01000001               -0.01881912               -0.03258013                0.08832873               -0.00320577                0.00845315                0.11291101
               1.00400605                2.99935351               24.02091846                0.01000001               -0.02384085               -0.11301091                0.08950180                0.02772217                0.01823722                0.09093009
               2.00371742                2.99818854               24.02103734                0.01000000               -0.05483834               -0.10683949                0.09109746                0.13933727                0.04081094                0.03788136
               3.00290928                2.99817466               24.02142336                0.01000000               -0.10083748               -0.09066101                0.09381611                0.27545069                0.05939576                0.01382442
               4.00170067                2.99947933               24.02200514                0.01003734               -0.13267502               -0.08370547                0.09655634                0.40243205                0.06958363                0.00065103
               5.00025578                3.00176699               24.02273945                0.01000000               -0.15958430               -0.10772847                0.09972776                0.50197721                0.07481864               -0.00253914
               5.99850899                3.00479207               24.02360110                0.01000001               -0.17908863               -0.13348059                0.10292382                0.51999641                0.06648466                0.00667989
               6.99667401                3.00744145               24.02437043                0.01000001               -0.26890618               -0.16358713                0.10633792                0.54519608                0.04634930                0.00139429
               7.99313086                3.01027678               24.02503090                0.01000002               -0.19428373               -0.12639400                0.10880990                0.44720062               -0.00065318                0.03331972
               8.99278834                3.01148244               24.02530107                0.01000000               -0.03413042               -0.14739891                0.11161500                0.34386855               -0.01087020                0.04398489
               9.99244826                3.01267729               24.02575896                0.34716274               -0.03400791               -0.30629674                0.11521994                0.39774942               -0.00168333                0.03517254
               0.00656040                4.00070817               24.02204616                0.01000000               -0.00796085               -0.05097988                0.09518322                0.06758600               -0.00078713                0.11829862
               1.00648080                3.99802981               24.02170581                0.01000000               -0.01362136               -0.15762614                0.09555792                0.14920128                0.00885150                0.06924613
               2.00628798                3.99682168               24.02153295                0.01000000               -0.04426417               -0.15186680                0.09593616                0.28342362                0.03112199                0.03063747
               3.00559551                3.99704169               24.02163446                0.01003747               -0.09286741               -0.12587603                0.09686423                0.39187067                0.05552605                0.00748376
               4.00443063                3.99840258               24.02201674                0.01000000               -0.12815918               -0.12024758                0.09870347                0.48866389                0.07541768                0.00399414
               5.00303233                4.00064012               24.02264392                0.01000001               -0.14275345               -0.12398747                0.10130649                0.55441619                0.08749721                0.01742455
               6.00157556                4.00333493               24.02342432                0.01000001               -0.14817338               -0.14968156                0.10452842                0.59885041                0.08792259                0.03835460
               7.00006886                4.00611686               24.02422629                0.01000002               -0.11732176               -0.16755134                0.10801793                0.60206156                0.07327274                0.06617426
               7.99922913                4.00807849               24.02489498                0.01000725               -0.08000707               -0.22551762                0.11164761                0.64783761                0.05170625                0.08915497
               8.99846872                4.00887126               24.02537295                0.01000000               -0.00086730               -0.26391110                0.11478062                0.46749976                0.02260542                0.10568487
               9.99921178                4.00690029               24.02552171                0.01000002                0.07430588               -0.41641438                0.11748977                0.35328013                0.01445051                0.06623949
               0.01090268                4.99995178               24.02317211                0.01000002               -0.00261222               -0.18207880                0.10269854                0.20657462               -0.00086521                0.13634530
               1.01087656                4.99620098               24.02249613                0.01000000               -0.02643331               -0.17540034                0.10196744                0.32890111                0.00907569                0.06401813
               2.01037401                4.99515120               24.02198555                0.01000001               -0.08553796               -0.15220135                0.10060360                0.40883352                0.03316888                0.01158944
               3.00916580                4.99565714               24.02184725                0.01000000               -0.12492468               -0.14887559                0.09970989                0.48759251                0.06586984               -0.00576742
               4.00787552                4.99707438               24.02213328                0.01000001               -0.13770237               -0.13302584                0.10069101                0.53926796                0.09880074                0.00203353
               5.00641175                4.99928724               24.02279070                0.01000001               -0.14331355               -0.13423114                0.10325059                0.57357216                0.12092289                0.02821951
               6.00500925                5.00179844               24.02368060                0.01000032               -0.12200350               -0.15320590                0.10622696                0.56735145                0.12670468                0.06413387
               7.00397168                5.00409042               24.02461817                0.01000002               -0.08380169               -0.19529533                0.11069734                0.53759277                0.11725150                0.10314481
               8.00333322                5.00576643               24.02545340                0.01000000               -0.03275739               -0.22637660                0.11650988                0.45284408                0.09623619                0.14089279
               9.00331653                5.00620422               24.02601296                0.01000000                0.00612986               -0.24114388                0.12011079                0.30775924                0.05953702                0.15666149
              10.00345581                5.00434900               24.02605176                0.01000000                0.01392791               -0.17577430                0.12171088                0.15057780                0.03644755                0.13423328
               0.01819350                5.99706659               24.02466565                0.64165575               -0.03340967               -0.16079265                0.11159114                0.23724062               -0.00328770                0.08078104
               1.01785940                5.99452180               24.02341004                0.01000001               -0.15925000               -0.10060204                0.11077953                0.31189912                0.00424364                0.03373914
               2.01500850                5.99377765               24.02231139                0.01000000               -0.22176078               -0.17589724                0.10425492                0.46211272                0.02842228               -0.01602267
               3.01342418                5.99406417               24.02199497                0.01000001               -0.17113077               -0.14090880                0.10109952                0.50550184                0.08968849               -0.02484753
               4.01158588                5.99574206               24.02231002                0.01000001               -0.18222333               -0.12984609                0.10175307                0.55346868                0.13663203               -0.00724082
               5.00977972                5.99795549               24.02310929                0.01000180               -0.17332355               -0.11794692                0.10486782                0.54119667                0.16702067                0.02926895
               6.00811941                6.00027081               24.02422464                0.01000000               -0.14634946               -0.13060481                0.10957734                0.48172343                0.17744581                0.07691105
               7.00685273                6.00221096               24.02545866                0.01000000               -0.09735980               -0.16560505                0.11612130                0.38719896                0.17468205                0.13318990
               8.00617221                6.00355096               24.02666105                0.01000000               -0.04056999               -0.20345991                0.12195763                0.28373689                0.14999413                0.19325271
               9.00604133                6.00404839               24.02747060                0.01000001               -0.01192262               -0.19466259                0.12537678                0.15792334                0.09133616                0.23420914
              10.00593376                6.00338480               24.02748398                0.01000001               -0.01075668               -0.06382895                0.12778405                0.07665009                0.05314754                0.23397441
               0.02073708                6.99673593               24.02515480                0.99999999               -0.03335994               -0.03298209                0.11155179               -0.00033380               -0.00515566                0.02626413
               1.02040348                6.99418894               24.02376607                1.00000000               -0.03315912               -0.03303069                0.11021715               -0.00038742               -0.00683384                0.00439505
               2.02007389                6.99163326               24.02234865                0.01000000               -0.15460232               -0.12344291                0.10913990                0.31363353                0.04930234               -0.02503419
               3.01731143                6.99283896               24.02208968                0.01000001               -0.25101591               -0.15633714                0.09866733                0.49727302                0.12609504               -0.04926885
               4.01505358                6.99447746               24.02248262                0.01000002               -0.23022484               -0.11490006                0.10321963                0.53263563                0.18523663               -0.02783745
               5.01270693                6.99692831               24.02347453                0.01000001               -0.23326593               -0.07221632                0.10685585                0.49419281                0.21773443                0.02578561
               6.01038826                6.99918634               24.02491546                0.01000000               -0.21357081               -0.07022130                0.11505061                0.36850678                0.23756795                0.08411587
               7.00843552                7.00077832               24.02673444                0.01000000               -0.16088657               -0.10145099                0.12108524                0.21302309                0.24567967                0.15497328
               8.00717053                7.00169723               24.02857515                0.01000001               -0.08971786               -0.15312939                0.12836866                0.07310708                0.21703713                0.25588939
               9.00664116                7.00231097               24.02992816                0.01000002               -0.04272690               -0.16490661                0.13430988                0.00031050                0.13373040                0.33813219
              10.00631599                7.00307243               24.03011252                0.01000000               -0.03251727               -0.03776146                0.13696447               -0.01880411                0.07582441                0.38886261
               0.02328079                7.99640695               24.02556036                1.00000000               -0.03264711               -0.03262248                0.10920055               -0.00023120               -0.00077228                0.02278796
               1.02295432                7.99386119               24.02409929                0.99999992               -0.03248224               -0.03247344                0.10825278                0.00008739               -0.00053201                0.00309463
               2.02263115                7.99130880               24.02264577                0.01264718               -0.12144408               -0.03217589                0.10725101                0.10941089                0.04434511               -0.01639978
               3.02052544                7.99093743               24.02208745                0.01000002               -0.22409510               -0.22027393                0.10338022                0.48473443                0.17194337               -0.13741317
               4.01814925                7.99344406               24.02252544                0.01001803               -0.27853749               -0.06098049                0.10223109                0.55905764                0.22523873               -0.02926249
               5.01495469                7.99651117               24.02382271                0.01000000               -0.32548598                0.00798908                0.11144289                0.42897530                0.26709044                0.02377118
               6.01163953                7.99886639               24.02568216                0.01000000               -0.31761947                0.01171447                0.11927400                0.24924037                0.30026139                0.07915194
               7.00860230                8.00018194               24.02814986                0.01000001               -0.27689076               -0.00833913                0.12714638                0.05482665                0.34467663                0.14578729
               8.00610171                8.00048837               24.03125185                0.01000002               -0.19649805               -0.05291458                0.13796102               -0.13527381                0.32919461                0.26196441
               9.00467234                8.00075025               24.03366712                0.01000007               -0.10334766               -0.11420208                0.14686187               -0.26451830                0.21868037                0.57884887
              10.00403476                8.00262957               24.03466473                0.01000000               -0.06375819               -0.17715996                0.15204106               -0.19314807                0.14710566                0.56884424
               0.02582398                8.99608348               24.02598188                1.00000000               -0.03206026               -0.03211595                0.10730461               -0.00024576                0.00230607                0.01864523
               1.02550338                8.99353948               24.02443390                0.99999999               -0.03190571               -0.03188813                0.10634108                0.00006618                0.00111814                0.00181473
               2.02518586                8.99098974               24.02286306                0.99999997               -0.03162603               -0.03162616                0.10541671                0.00002831               -0.00541612               -0.01218264
               3.02487086                8.98843348               24.02118779                0.01007347               -0.22624361               -0.14072388                0.10450733                0.45857745                0.14422227               -0.07418264
               4.02066099                8.99325785               24.02261580                0.01000000               -0.45033718                0.07128294                0.10950549                0.49702771                0.27919850               -0.02848287
               5.01586411                8.99708809               24.02410565                0.01000000               -0.44793484                0.08823684                0.11523253                0.28215121                0.28823217                0.01925832
               6.01170230                8.99942063               24.02626412                0.01000001               -0.39770221                0.07700656                0.12155640                0.12576801                0.34124688                0.05045063
               7.00791007                9.00061154               24.02926689                0.01000002               -0.39027814                0.06534065                0.13211615               -0.01064629                0.41978094                0.09210406
               8.00389673                9.00063894               24.03341013                0.01000002               -0.43502368                0.06963776                0.14616253               -0.15699065                0.63360942                0.18106901
               8.99920959                9.00002692               24.04110669                0.99999998               -0.26011703               -0.06201756                0.17071110               -0.30330024                0.39422600                0.38020620
               9.99869439                8.99952923               24.04091299                0.99999996               -0.05152021               -0.18122908                0.17306636               -0.29197557               -0.00033293                0.31992269
               0.02836389                9.99576463               24.02630464                1.00000000               -0.03145043               -0.03188524                0.10538829               -0.00012928                0.01297057                0.01378138
               1.02804939                9.99322342               24.02474437                1.00000000               -0.03130915               -0.03160527                0.10442828                0.00018345                0.01631779                0.00054571
               2.02773771                9.99067627               24.02325009                1.00000000               -0.03102535               -0.03134672                0.10352196                0.00016111                0.01637794               -0.00388702
               3.02742888                9.98812295               24.02169268                0.01000000               -0.41512565               -0.03105274                0.10257555                0.46547485                0.13787484               -0.00428762
               4.01943520                9.99486972               24.02263255                0.01001166               -0.64969725                0.16118682                0.11034887                0.38506796                0.24482141               -0.01651800
               5.01443494                9.99827591               24.02419287                0.01000000               -0.44018804                0.11878174                0.11523727                0.13392243                0.27852225                0.01669910
               6.01063144               10.00040652               24.02635464                0.01000001               -0.36319324                0.09858879                0.12271223                0.05355629                0.34071125                0.03326825
               7.00717107               10.00148875               24.02951402                0.01000000               -0.35424594                0.08772097                0.13386188               -0.00016930                0.46151377                0.05555558
               8.00354652               10.00188113               24.03442221                0.01000002               -0.37275114                0.12421888                0.15096466               -0.13396394                0.61202841                0.13280356
               8.99971605                9.99950990               24.04094964                0.99999996               -0.21779361               -0.05170213                0.17389995               -0.09316139                0.33631532                0.00023521
               9.99919064                9.99900499               24.04075586                0.99999999               -0.05254038               -0.05242365                0.17625593               -0.00086605                0.00038554               -0.00030759
               0.00127942                0.00195288               25.02089014                1.00000000               -0.02555287               -0.02517507                0.08487268               -0.00015638               -0.00334940                0.00386733
               1.00102389                0.00083479               25.02083616                1.00000000               -0.02566143               -0.02538918                0.08548177                0.00007899               -0.00360602               -0.00124118
               2.00076619               -0.00028873               25.02077421                0.01000001               -0.00740267               -0.02558816                0.08612852                0.03236084                0.05983113               -0.00157531
               3.00087584               -0.00077324               25.02199219                0.01000000               -0.00097837               -0.02071123                0.09055886                0.02721234                0.13007072                0.00135050
               4.00074662                0.00037630               25.02339723                0.01000001               -0.04494567               -0.00719900                0.09518964                0.08445848                0.15309615               -0.00979170
               4.99997692                0.00346642               25.02515657                0.01000000               -0.18350544                0.00413321                0.09999594                0.21742325                0.19179656               -0.01952327
               5.99707652                0.00950450               25.02750106                0.22406884               -0.16082321               -0.03161404                0.10524410                0.23763331                0.11116722               -0.00108683
               6.99676046                0.01079393               25.02812952                1.00000000               -0.03242675               -0.03236806                0.10881560                0.00045069                0.01587137               -0.00457044
               7.99642798                0.01208196               25.02856294                0.99999998               -0.03383716               -0.03359424                0.11275710                0.00061262                0.00804168               -0.00049799
               8.99608372                0.01336483               25.02903113                1.00000000               -0.03502437               -0.03478468                0.11674556                0.00061378                0.00790048                0.00094255
               9.99572749                0.01464334               25.02946027                0.99999105               -0.03562243               -0.03602516                0.12073369                0.00087572                0.00591135                0.00538050
               0.00239594                1.00170113               25.02082885                0.99999999               -0.02504537               -0.02491711                0.08308595               -0.00028135                0.00144055                0.00443950
               1.00214549                1.00058090               25.02077234                0.01000000               -0.02510621               -0.02512374                0.08371862                0.00000116                0.00347257               -0.00318217
               2.00189382                0.99945538               25.02075591                0.01000000               -0.06650215               -0.03908540                0.08440169                0.00294914                0.07054892                0.03602750
               3.00081544                0.99901965               25.02204278                0.01000001               -0.12112186               -0.01927733                0.09037652                0.06743908                0.12139473                0.00646998
               3.99947138                1.00030431               25.02324266                0.01000000               -0.16141924               -0.01038575                0.09466005                0.18058385                0.11734072               -0.00827464
               4.99758706                1.00350775               25.02468059                0.01000000               -0.18411420               -0.01838235                0.09899495                0.34964878                0.14725771               -0.01845380
               5.99578909                1.00918836               25.02677149                0.01000001               -0.10554096               -0.14813587                0.10367563                0.32142856                0.08965886               -0.04246365
               6.99547624                1.01047025               25.02731710                1.00000000               -0.03202183               -0.03212899                0.10721909                0.00007356                0.00665632               -0.00446912
               7.99514866                1.01174601               25.02774326                0.99999998               -0.03335386               -0.03336047                0.11118409                0.00001209                0.00121544               -0.00039857
               8.99480916                1.01301698               25.02817743                0.99999999               -0.03454617               -0.03455042                0.11517501                0.00001375                0.00114930                0.00062410
               9.99445773                1.01428309               25.02860193                1.00000000               -0.03514276               -0.03579229                0.11917495                0.00024231                0.00057226                0.00665941
               0.00351424                2.00145453               25.02077442                0.01000001               -0.02445873               -0.03182525                0.08138812               -0.01439704                0.00187617                0.06284008
               1.00326966                2.00033232               25.02067012                0.01000000               -0.05639080               -0.06174688                0.08190328               -0.02533927                0.04837031                0.05722737
               2.00238643                1.99892956               25.02149516                0.01000001               -0.09469818               -0.06687030                0.08839558                0.02418903                0.07977108                0.05785369
               3.00137569                1.99884121               25.02215009                0.01000000               -0.12581153               -0.04492726                0.09182369                0.17186442                0.07710740                0.01569678
               3.99987020                2.00016859               25.02305838                0.01000000               -0.16449193               -0.03837526                0.09556481                0.32584786                0.08819379               -0.00331025
               4.99808585                2.00309877               25.02414512                0.01000001               -0.16638023               -0.07524761                0.09919497                0.44913798                0.08395930               -0.01570705
               5.99654259                2.00654178               25.02520676                0.01000000               -0.19407878               -0.19720100                0.10275885                0.48047302                0.08540400               -0.05239941
               6.99420428                2.01015135               25.02650225                0.01000000               -0.13305501               -0.11985327                0.10562870                0.29032871                0.03931611               -0.01693039
               7.99388149                2.01141475               25.02692353                0.08530542               -0.03286812               -0.03309846                0.10960759                0.00080320               -0.00568244                0.00036875
               8.99354692                2.01267382               25.02731756                0.99999998               -0.03406870               -0.03405237                0.11361897                0.00005798               -0.00407915               -0.00165535
               9.99320012                2.01392750               25.02777169                1.00000000               -0.03467981               -0.03534223                0.11762317                0.00025625               -0.00122013                0.00658037
               0.00435243                3.00106462               25.02187797                0.01000001               -0.01887553               -0.03213730                0.08831633               -0.00313740                0.00909170                0.12150454
               1.00416368                2.99934596               25.02181574                0.01000001               -0.02418658               -0.11953120                0.08994992                0.03025921                0.01898184                0.09998568
               2.00386870                2.99811798               25.02195317                0.01000000               -0.05749870               -0.11346280                0.09204451                0.15095081                0.04195644                0.04390805
               3.00301370                2.99812110               25.02236581                0.01000000               -0.10689622               -0.09661233                0.09478826                0.29733672                0.06069478                0.01850188
               4.00173078                2.99953681               25.02297534                0.01003112               -0.14085397               -0.08935706                0.09758450                0.43428313                0.07073533                0.00419759
               5.00019662                3.00200280               25.02374092                0.01000000               -0.16923979               -0.11534382                0.10064128                0.54090962                0.07580098                0.00028944
               5.99834598                3.00524434               25.02463336                0.01000001               -0.18933868               -0.14281640                0.10372695                0.55912998                0.06710215                0.00949680
               6.99640985                3.00807318               25.02543723                0.01000001               -0.28518631               -0.17426075                0.10646407                0.58446774                0.04567366                0.00436158
               7.99264225                3.01108404               25.02611824                0.01000002               -0.20561388               -0.13236228                0.11019435                0.47714836               -0.00221548                0.03630274
               8.99229757                3.01233593               25.02641956                0.01000004               -0.03433753               -0.15495956                0.11208456                0.36590289               -0.01121192                0.04652816
               9.99195550                3.01357625               25.02691535                0.36683154               -0.03420690               -0.32533665                0.11606340                0.42391120               -0.00168816                0.03714280
               0.00688881                4.00081179               25.02299906                0.01000000               -0.00673284               -0.05242072                0.09540400                0.07381212               -0.00123413                0.12755175
               1.00682148                3.99794169               25.02266440                0.01000000               -0.01292534               -0.16747449                0.09621483                0.16216610                0.00834874                0.07734402
               2.00663030                3.99666030               25.02249691                0.01000000               -0.04589418               -0.16185599                0.09698294                0.30626951                0.03078329                0.03696894
               3.00590360                3.99690897               25.02260930                0.01003123               -0.09780712               -0.13512252                0.09827641                0.42278534                0.05575834                0.01190127
               4.00467416                3.99838145               25.02301046                0.01000000               -0.13535421               -0.12963037                0.10020721                0.52712768                0.07618768                0.00734508
               5.00319651                4.00079190               25.02366368                0.01000001               -0.15096756               -0.13342318                0.10279952                0.59769523                0.08870566                0.02037807
               6.00165481                4.00368545               25.02447583                0.01000001               -0.15712929               -0.16000378                0.10589790                0.64431122                0.08911309                0.04178019
               7.00005393                4.00666613               25.02531014                0.01000379               -0.12465497               -0.17807702                0.10910379                0.64630517                0.07438170                0.07066725
               7.99916171                4.00876750               25.02601607                0.01000001               -0.08405779               -0.23908377                0.11203742                0.69262694                0.05306133                0.09480522
               8.99837277                4.00957463               25.02652555                0.01000000                0.00180021               -0.28044718                0.11562890                0.49784582                0.02374666                0.11030677
               9.99919771                4.00742076               25.02670105                0.01000000                0.08249421               -0.44330877                0.11864881                0.37547183                0.01489009                0.07083258
               0.01156886                5.00001621               25.02420147                0.01000000               -0.00103784               -0.19595684                0.10314463                0.22460981               -0.00184435                0.14694375
               1.01155848                4.99599647               25.02351993                0.01000000               -0.02710230               -0.18540079                0.10280938                0.35633046                0.00758892                0.07336892
               2.01102682                4.99488086               25.02299791                0.01000001               -0.09051094               -0.16116414                0.10201150                0.43962011                0.03161034                0.01688382
               3.00974827                4.99541865               25.02285285                0.01000000               -0.13182087               -0.16177110                0.10156645                0.52408115                0.06514893               -0.00287735
               4.00839040                4.99694420               25.02314981                0.01000001               -0.14508727               -0.14543151                0.10293778                0.58253009                0.09991669                0.00380192
               5.00684652                4.99933434               25.02383079                0.01000001               -0.15162158               -0.14476720                0.10528628                0.62052579                0.12287834                0.03058956
               6.00535797                5.00204426               25.02475290                0.01000002               -0.12963066               -0.16324979                0.10830783                0.61239246                0.12938837                0.06746962
               7.00425391                5.00451164               25.02573700                0.01000000               -0.08858337               -0.20748617                0.11285126                0.57824310                0.12067849                0.10924527
               8.00358630                5.00630237               25.02662464                0.01000000               -0.03263402               -0.24198669                0.11789672                0.48556033                0.09844841                0.14762823
               9.00360123                5.00672699               25.02721916                0.01000000                0.00931833               -0.25698533                0.12112674                0.32870719                0.05979311                0.16313421
              10.00377267                5.00471007               25.02727816                0.01000000                0.01714407               -0.18644452                0.12348691                0.16079706                0.03635332                0.13992307
               0.01942047                5.99689265               25.02578534                0.61197427               -0.03370340               -0.17275424                0.11224875                0.25959281               -0.00325421                0.08728156
               1.01908344                5.99423368               25.02452377                0.01000001               -0.17099728               -0.10492437                0.11187346                0.33643560                0.00133641                0.03992183
               2.01600053                5.99343702               25.02335934                0.01000000               -0.23807788               -0.18277554                0.10581139                0.49114810                0.02310872               -0.01148019
               3.01432188                5.99367355               25.02301732                0.01000001               -0.17957243               -0.15914864                0.10472138                0.54176461                0.08931314               -0.02853805
               4.01240908                5.99547282               25.02333612                0.01000001               -0.19074572               -0.14479553                0.10485459                0.60464681                0.13944182               -0.00822311
               5.01050697                5.99789655               25.02417071                0.01000001               -0.18418619               -0.12558163                0.10765636                0.58977022                0.17234183                0.03031204
               6.00872535                6.00042046               25.02532197                0.01001114               -0.15731403               -0.13832384                0.11157572                0.52190220                0.18311773                0.08167681
               7.00736068                6.00251641               25.02663291                0.01000000               -0.10338913               -0.17598575                0.11853056                0.41634646                0.17883191                0.14204602
               8.00665757                6.00392777               25.02789264                0.01000000               -0.04107352               -0.21704664                0.12380541                0.30373645                0.15274547                0.20008889
               9.00653921                6.00443492               25.02873375                0.01000002               -0.01050396               -0.20683298                0.12736770                0.16846882                0.09291150                0.24155820
              10.00644749                6.00369187               25.02877141                0.01000001               -0.00917228               -0.06722536                0.12993527                0.08144220                0.05442378                0.24106852
               0.02207867                6.99656112               25.02627320                0.99999999               -0.03358376               -0.03306473                0.11204918               -0.00039721               -0.00562823                0.02705197
               1.02174283                6.99389799               25.02487310                1.00000000               -0.03343772               -0.03328006                0.11111885               -0.00040744               -0.00713559                0.00507508
               2.02140991                6.99122535               25.02344684                0.01000000               -0.15975333               -0.12698381                0.11043472                0.32112698                0.04287551               -0.02147747
               3.01854776                6.99223568               25.02305318                0.01000001               -0.25747918               -0.18422907                0.10078171                0.54194235                0.12218736               -0.06227290
               4.01626033                6.99404829               25.02352849                0.01000834               -0.24267397               -0.12191612                0.10726433                0.58834398                0.20194147               -0.03782672
               5.01369428                6.99682271               25.02455587                0.01000000               -0.25420864               -0.07319711                0.11023181                0.53987762                0.22703481                0.02904490
               6.01117615                6.99927779               25.02607668                0.01000000               -0.23103771               -0.07199299                0.11734748                0.39661508                0.24898666                0.08784927
               7.00907353                7.00099193               25.02795630                0.01000000               -0.17168171               -0.10702327                0.12360094                0.22944018                0.25312861                0.16158743
               8.00774252                7.00196144               25.02986308                0.01000001               -0.09335153               -0.16205984                0.12983297                0.07857510                0.22288524                0.26367393
               9.00720650                7.00259033               25.03127810                0.01000002               -0.04274572               -0.17476423                0.13584118                0.00061857                0.13731834                0.34785103
              10.00688761                7.00336556               25.03149033                0.01000799               -0.03188912               -0.03917496                0.13880451               -0.01962923                0.07786289                0.39963558
               0.02473880                7.99623136               25.02665349                1.00000000               -0.03277364               -0.03265940                0.10938095               -0.00026491               -0.00079410                0.02265368
               1.02441106                7.99356808               25.02518506                1.00000000               -0.03267133               -0.03264936                0.10886504                0.00010279               -0.00055782                0.00311244
               2.02408537                7.99089734               25.02372363                0.01538977               -0.10366379               -0.03249050                0.10829091                0.08853317                0.04553705               -0.01631350
               3.02233779                7.98998896               25.02318191                0.01000002               -0.22482199               -0.21684472                0.12099390                0.50155021                0.22391641               -0.20778539
               4.01958893                7.99303449               25.02353402                0.01000001               -0.31313830               -0.05708783                0.10323733                0.60762993                0.24025578               -0.02129182
               5.01607502                7.99643261               25.02494396                0.01000000               -0.35502496                0.01362823                0.11411438                0.45881522                0.27984376                0.02685019
               6.01248843                7.99898060               25.02688802                0.01000000               -0.34045904                0.01578317                0.12113736                0.26532134                0.30959083                0.08235089
               7.00926584                8.00037595               25.02942479                0.01000001               -0.29288803               -0.00700008                0.12854664                0.05829131                0.35353786                0.15156764
               8.00663067                8.00068657               25.03263560                0.01000002               -0.20591902               -0.05513658                0.13905631               -0.14363223                0.33804865                0.27018149
               9.00514746                8.00093963               25.03513965                0.01000007               -0.10631168               -0.12096954                0.14781608               -0.27980383                0.22452802                0.59488103
              10.00450444                8.00290837               25.03618980                0.01000000               -0.06430205               -0.18492479                0.15308307               -0.20385312                0.15144576                0.58459647
               0.02739993                8.99590793               25.02705456                1.00000000               -0.03210302               -0.03207762                0.10722163               -0.00028021                0.00232267                0.01875730
               1.02707890                8.99324500               25.02549909                0.99999998               -0.03201201               -0.03198910                0.10669371                0.00007487                0.00116046                0.00187688
               2.02675969                8.99057554               25.02392120                1.00000000               -0.03186409               -0.03186226                0.10621477                0.00003832               -0.00534180               -0.01209380
               3.02644162                8.98789879               25.02223908                0.01000001               -0.23952041               -0.12020561                0.10576230                0.45572585                0.14747174               -0.07529328
               4.02196928                8.99290653               25.02372361                0.01000000               -0.47585669                0.08298207                0.10989072                0.51037951                0.27910469               -0.02281630
               5.01692448                8.99709527               25.02525891                0.01000000               -0.47150156                0.09588018                0.11526564                0.29806728                0.29547188                0.02173393
               6.01253925                8.99959345               25.02748543                0.01000001               -0.41955494                0.08363641                0.12286767                0.13228787                0.35030354                0.05248008
               7.00853338                9.00085193               25.03059261                0.01000002               -0.41165308                0.07117986                0.13318310               -0.01238828                0.43144096                0.09586818
               8.00430619                9.00085870               25.03487450                0.01000003               -0.45723825                0.07526301                0.14692965               -0.16830857                0.65127048                0.18649311
               8.99938862                9.00017094               25.04281488                0.99999998               -0.27165593               -0.06426647                0.17089981               -0.32189433                0.40525645                0.39038317
               9.99887307                8.99966707               25.04264397                0.99999996               -0.05155500               -0.18827626                0.17313432               -0.30681952               -0.00034673                0.32869096
               0.03005906                9.99558980               25.02735667                1.00000000               -0.03141090               -0.03181291                0.10504256               -0.00023733                0.01304860                0.01387885
               1.02974495                9.99292829               25.02578895                1.00000000               -0.03133560               -0.03167040                0.10451905                0.00012043                0.01640679                0.00059827
               2.02943235                9.99026010               25.02428779                1.00000000               -0.03118228               -0.03154401                0.10405489                0.00009430                0.01645358               -0.00384628
               3.02912131                9.98758485               25.02272308                0.04303171               -0.44161565               -0.03139335                0.10354656                0.48967120                0.14237906               -0.00430054
               4.02060004                9.99469414               25.02374513                0.01000001               -0.68859303                0.17876026                0.10942006                0.40134409                0.24905959               -0.01389925
               5.01534945                9.99835022               25.02534525                0.01000000               -0.46112522                0.12549454                0.11472959                0.14045625                0.28354078                0.01636038
               6.01137753               10.00065333               25.02758437                0.01000001               -0.37983142                0.10598766                0.12316364                0.05629500                0.35038467                0.03532364
               7.00775282               10.00179954               25.03085553                0.01000000               -0.37160225                0.09476166                0.13464322               -0.00113112                0.47554822                0.05761304
               8.00394549               10.00219183               25.03593397                0.01000002               -0.39258050                0.13331259                0.15149904               -0.14333155                0.63114336                0.13668740
               8.99990121                9.99965431               25.04268833                0.99999996               -0.22848497               -0.05166320                0.17383476               -0.10118989                0.34655846                0.00029953
               9.99937579                9.99914285               25.04251742                0.99982312               -0.05254202               -0.05242190                0.17607297               -0.00087357                0.00031848               -0.00033319
               0.00129669                0.00206179               26.02173437                1.00000000               -0.02543981               -0.02494852                0.08399643               -0.00002443               -0.00335506                0.00389863
               1.00104229                0.00089479               26.02169088                1.00000000               -0.02565698               -0.02539923                0.08545087                0.00021717               -0.00362365               -0.00127330
               2.00078355               -0.00027718               26.02163953                0.01000000               -0.00926746               -0.02585602                0.08691043                0.03273323                0.06156751               -0.00157030
               3.00085694               -0.00080417               26.02290196                0.01000000               -0.00504614               -0.01825981                0.09145409                0.02798864                0.13271112                0.00238540
               4.00068262                0.00043935               26.02435032                0.01000001               -0.05151636               -0.00402921                0.09533355                0.09095332                0.15511013               -0.00932060
               4.99982661                0.00375401               26.02615647                0.01000003               -0.20004356                0.00823648                0.09977164                0.23493579                0.19277042               -0.01861157
               5.99668175                0.01023084               26.02854712                0.21481575               -0.17291503               -0.03119741                0.10387278                0.25729455                0.11118707               -0.00112336
               6.99636831                0.01156847               26.02921360                1.00000000               -0.03220317               -0.03214245                0.10799118                0.00055293                0.01566199               -0.00460036
               7.99603769                0.01290449               26.02968835                0.99999998               -0.03370788               -0.03349030                0.11231776                0.00067277                0.00802408               -0.00050721
               8.99569415                0.01423580               26.03019831                1.00000000               -0.03500640               -0.03479529                0.11668397                0.00066796                0.00790557                0.00093683
               9.99533756                0.01556335               26.03066920                1.00000000               -0.03565926               -0.03615306                0.12105439                0.00090100                0.00591585                0.00538996
               0.00246344                1.00181230               26.02165669                0.99999999               -0.02494921               -0.02471685                0.08245599               -0.00023970                0.00140525                0.00446911
               1.00221394                1.00064080               26.02161039                0.01000000               -0.02515384               -0.02518072                0.08389370               -0.00000753                0.00350200               -0.00321581
               2.00196036                0.99946426               26.02160442                0.01000000               -0.07176922               -0.04022649                0.08534685                0.00133588                0.07292672                0.03878912
               3.00077856                0.99901323               26.02295027                0.01000001               -0.13236457               -0.01750090                0.09114365                0.07170387                0.12431638                0.00882927
               3.99931307                1.00039906               26.02419085                0.01000000               -0.17491692               -0.00807733                0.09498668                0.19418438                0.11862820               -0.00646670
               4.99728022                1.00383637               26.02567009                0.01000000               -0.19828019               -0.01668961                0.09907793                0.37647638                0.14695131               -0.01634996
               5.99534746                1.00991887               26.02780271                0.01000001               -0.11216023               -0.15680756                0.10247996                0.34649828                0.08944765               -0.04184360
               6.99503702                1.01124705               26.02838613                1.00000000               -0.03183564               -0.03193053                0.10657573                0.00008068                0.00644913               -0.00449105
               7.99471075                1.01256959               26.02885384                0.99991772               -0.03328059               -0.03328601                0.11093537                0.00001272                0.00120996               -0.00040693
               8.99437140                1.01388785               26.02932979                0.99999999               -0.03458621               -0.03458963                0.11530619                0.00000977                0.00116070                0.00062506
               9.99401903                1.01520182               26.02979616                1.00000000               -0.03523775               -0.03594694                0.11967231                0.00021073                0.00058696                0.00667037
               0.00363490                2.00156745               26.02158579                0.01000990               -0.02447141               -0.03177354                0.08091430               -0.01577182                0.00190769                0.06728713
               1.00339018                2.00039118               26.02149136                0.01000000               -0.05985320               -0.06409314                0.08232958               -0.02763087                0.05115372                0.06201281
               2.00243783                1.99891829               26.02238190                0.01000001               -0.10169820               -0.06996574                0.08905629                0.02503785                0.08321260                0.06346217
               3.00135622                1.99884581               26.02307259                0.01000000               -0.13473303               -0.04638743                0.09267375                0.18409792                0.07864639                0.01984251
               3.99974317                2.00027780               26.02401764                0.01000000               -0.17599462               -0.03939251                0.09630746                0.35007999                0.08903173                0.00021805
               4.99783632                2.00342022               26.02513864                0.01000001               -0.17710653               -0.07910745                0.09957024                0.48252288                0.08435260               -0.01277783
               5.99620104                2.00709469               26.02623509                0.01000000               -0.20585593               -0.21029684                0.10289543                0.51584527                0.08483625               -0.05033553
               6.99371921                2.01092986               26.02755629                0.01000000               -0.14019493               -0.12631269                0.10516573                0.31048313                0.03851416               -0.01577370
               7.99339714                2.01223877               26.02801924                0.09073823               -0.03285432               -0.03296500                0.10954763                0.00038140               -0.00567011                0.00214541
               8.99306212                2.01354401               26.02845524                0.99999998               -0.03416489               -0.03414189                0.11392966                0.00006113               -0.00405636               -0.00163890
               9.99271384                2.01484441               26.02895129                1.00000000               -0.03482761               -0.03555144                0.11829818                0.00023406               -0.00120256                0.00658868
               0.00450054                3.00117683               26.02276095                0.01000001               -0.01900556               -0.03158756                0.08812252               -0.00328224                0.00960315                0.13028548
               1.00431049                2.99935894               26.02271746                0.01000001               -0.02470315               -0.12593412                0.09037536                0.03239250                0.01956418                0.10898394
               2.00400648                2.99806494               26.02287823                0.01000000               -0.06047423               -0.12009831                0.09294750                0.16237293                0.04282239                0.05021286
               3.00310100                2.99808548               26.02331912                0.01000000               -0.11331084               -0.10265730                0.09587728                0.31935891                0.06148797                0.02382624
               4.00174027                2.99961121               26.02395683                0.01002757               -0.14936085               -0.09513966                0.09868386                0.46627868                0.07129329                0.00861685
               5.00011379                3.00225422               26.02475228                0.01000000               -0.17927718               -0.12312013                0.10164864                0.58032360                0.07619016                0.00410901
               5.99815472                3.00571293               26.02567563                0.01000001               -0.20055930               -0.15218526                0.10453851                0.59884488                0.06663483                0.01305780
               6.99610260                3.00872080               26.02649971                0.01000001               -0.30252449               -0.18497097                0.10745496                0.62472014                0.04562133                0.00793059
               7.99210423                3.01191029               26.02723478                0.01000002               -0.21678057               -0.13852884                0.10641363                0.50810071               -0.00316517                0.03911394
               8.99176699                3.01320501               26.02754277                0.01000958               -0.03406587               -0.16331092                0.11255048                0.38885304               -0.01297001                0.04911496
               9.99142291                3.01449079               26.02808022                0.38731206               -0.03440757               -0.34451449                0.11692320                0.45081479               -0.00169889                0.03931839
               0.00720504                4.00093570               26.02395424                0.01000003               -0.00551183               -0.05362255                0.09558878                0.08009673               -0.00153827                0.13713730
               1.00714992                3.99787250               26.02363011                0.01000000               -0.01231473               -0.17749702                0.09687358                0.17510180                0.00791128                0.08578118
               2.00695874                3.99651632               26.02347261                0.01000000               -0.04763938               -0.17192438                0.09809683                0.32934924                0.03045458                0.04405772
               3.00619713                3.99679267               26.02359998                0.01002745               -0.10293694               -0.14469566                0.09972939                0.45372771                0.05569625                0.01751583
               4.00490000                3.99837501               26.02402088                0.01000000               -0.14280314               -0.13932209                0.10183369                0.56603998                0.07638144                0.01231101
               5.00334107                4.00095781               26.02469991                0.01000001               -0.15943197               -0.14311100                0.10437760                0.64142099                0.08913655                0.02487159
               6.00171137                4.00405099               26.02554228                0.01000001               -0.16624074               -0.17056206                0.10741716                0.69043598                0.08963848                0.04594903
               7.00001625                4.00723044               26.02640836                0.01000001               -0.13182134               -0.18841185                0.11029789                0.69140612                0.07444682                0.07568966
               7.99907494                4.00946819               26.02713573                0.01000535               -0.08787869               -0.25339335                0.11351872                0.73815683                0.05371699                0.09845482
               8.99825868                4.01027779               26.02768553                0.01000000                0.00418259               -0.29731542                0.11647418                0.52889029                0.02405003                0.11695804
               9.99915859                4.00795412               26.02789468                0.01000667                0.08999095               -0.47068439                0.11953791                0.39973063                0.01450551                0.07713555
               0.01222889                5.00010438               26.02523500                0.01000000                0.00030161               -0.20976023                0.10345986                0.24278743               -0.00274322                0.15784581
               1.01223190                4.99580900               26.02455232                0.01000000               -0.02777954               -0.19527190                0.10358114                0.38421428                0.00645979                0.08332255
               2.01167330                4.99462646               26.02402578                0.01000001               -0.09575153               -0.17086027                0.10344488                0.47004738                0.03022006                0.02358850
               3.01031687                4.99519157               26.02387858                0.01000000               -0.13886885               -0.17497927                0.10378483                0.56174215                0.06450641                0.00347335
               4.00889592                4.99682476               26.02419204                0.01000001               -0.15253220               -0.15880410                0.10528848                0.62608767                0.10014953                0.00903636
               5.00726623                4.99939200               26.02489642                0.01000001               -0.16025544               -0.15605805                0.10773839                0.66882791                0.12340870                0.03530508
               6.00569081                5.00230169               26.02584675                0.01001086               -0.13763551               -0.17352048                0.11048229                0.65843795                0.13071313                0.07241338
               7.00451352                5.00495256               26.02687519                0.01001529               -0.09353951               -0.21989363                0.11479392                0.61915831                0.12275003                0.11532592
               8.00382002                5.00684242               26.02781134                0.01000000               -0.03273231               -0.25769492                0.11924874                0.51787454                0.09995473                0.15374720
               9.00385887                5.00725871               26.02843549                0.01000000                0.01224280               -0.27285885                0.12261348                0.34983943                0.05992037                0.17017759
              10.00406488                5.00507710               26.02852150                0.01000000                0.02060040               -0.19800580                0.12560621                0.17125541                0.03679369                0.14628981
               0.02065155                5.99674050               26.02691062                0.58186479               -0.03394227               -0.18477776                0.11269155                0.28244704               -0.00322434                0.09400632
               1.02031213                5.99396706               26.02564751                0.01000001               -0.18372177               -0.10899219                0.11276425                0.36069203               -0.00126846                0.04631287
               2.01697712                5.99309912               26.02442762                0.01000000               -0.25392320               -0.18935200                0.10765874                0.52020250                0.02040929               -0.00477861
               3.01523367                5.99329308               26.02408939                0.01000001               -0.18778961               -0.18813307                0.10758760                0.57282353                0.08848140               -0.02412455
               4.01322133                5.99519893               26.02440711                0.01000001               -0.19964836               -0.16508730                0.10926014                0.66186842                0.13911702               -0.00219755
               5.01124070                5.99783665               26.02526241                0.01001232               -0.19508783               -0.13280221                0.11053531                0.64074314                0.17333293                0.03560061
               6.00931957                6.00058058               26.02645615                0.01000001               -0.16910037               -0.14622070                0.11493295                0.56363348                0.18619609                0.08775194
               7.00785869                6.00283257               26.02782927                0.01000000               -0.10966426               -0.18671849                0.12049547                0.44659429                0.18263880                0.14829572
               8.00712628                6.00431430               26.02913716                0.01000000               -0.04189508               -0.23073363                0.12524293                0.32372306                0.15506378                0.20658133
               9.00702079                6.00482062               26.03001796                0.01000002               -0.00896876               -0.21983118                0.12968494                0.17905545                0.09435262                0.24895766
              10.00694691                6.00399400               26.03008269                0.01000001               -0.00738820               -0.07151769                0.13269313                0.08653354                0.05523631                0.24829767
               0.02342470                6.99640883               26.02739579                0.99999999               -0.03375796               -0.03309180                0.11237515               -0.00045683               -0.00613349                0.02786260
               1.02308712                6.99362915               26.02598845                1.00000000               -0.03366895               -0.03348073                0.11186595               -0.00042594               -0.00746624                0.00577480
               2.02275132                6.99083942               26.02455734                0.01000000               -0.17067945               -0.12954732                0.11159031                0.31838378                0.04003750               -0.01819596
               3.01967353                6.99142891               26.02410531                0.01000001               -0.25808028               -0.28486281                0.11609688                0.63216561                0.12197239               -0.04258479
               4.01758972                6.99352302               26.02462791                0.01000001               -0.24870469               -0.11879154                0.10974582                0.66390223                0.20067091               -0.03219797
               5.01469944                6.99673596               26.02567917                0.01002028               -0.28110786               -0.07457584                0.11448815                0.59055662                0.22918548                0.03437122
               6.01196756                6.99937728               26.02726241                0.01000000               -0.24938765               -0.07379654                0.11968182                0.42565864                0.25342719                0.09373451
               7.00971169                7.00121819               26.02920646                0.01000000               -0.18305616               -0.11277942                0.12593178                0.24586271                0.25799550                0.16748766
               8.00830644                7.00222775               26.03117181                0.01000001               -0.09757061               -0.17168562                0.13184086                0.08327163                0.22724904                0.27138830
               9.00776027                7.00286208               26.03264499                0.01000002               -0.04288318               -0.18547617                0.13759281                0.00034551                0.14025809                0.35695815
              10.00744877                7.00364675               26.03288861                0.01000001               -0.03115010               -0.04130676                0.14086409               -0.02071019                0.07961899                0.40969119
               0.02620176                7.99607866               26.02774798                1.00000000               -0.03287389               -0.03266935                0.10946775               -0.00028827               -0.00081912                0.02250205
               1.02587302                7.99329744               26.02627659                1.00000000               -0.03283617               -0.03280151                0.10939734                0.00011690               -0.00058416                0.00312712
               2.02554504                7.99050817               26.02481159                0.03766182               -0.03398228               -0.03278557                0.10926436               -0.00569512                0.05755563               -0.01620029
               3.02519338                7.98759583               26.02450733                0.01000002               -0.21763585               -0.20212285                0.09131548                0.53296333                0.20069089               -0.17424837
               4.02119232                7.99282310               26.02459018                0.01001668               -0.39979020               -0.04662995                0.11600390                0.71914263                0.22709215               -0.01990067
               5.01719757                7.99634514               26.02610499                0.01000000               -0.39209043                0.01927586                0.11620061                0.47969207                0.28571332                0.03066904
               6.01335051                7.99910465               26.02810491                0.01000000               -0.36360479                0.01983037                0.12285887                0.28194772                0.31551090                0.08585231
               7.00992548                8.00057698               26.03072079                0.01000001               -0.31013438               -0.00600123                0.13057142                0.06070371                0.36128918                0.15667501
               8.00714782                8.00088058               26.03403297                0.01000002               -0.21583866               -0.05786589                0.14054614               -0.15362269                0.34580109                0.27802433
               9.00560870                8.00111109               26.03662344                0.01000007               -0.10922247               -0.12880840                0.14892477               -0.29638678                0.22983732                0.61047333
              10.00496337                8.00316787               26.03772639                0.01000000               -0.06453280               -0.19356593                0.15421080               -0.21529698                0.15543178                0.59956132
               0.02898137                8.99575544               26.02812632                1.00000000               -0.03214186               -0.03203391                0.10711911               -0.00030401                0.00234138                0.01887983
               1.02865995                8.99297312               26.02656778                0.99999998               -0.03211644               -0.03208846                0.10704015                0.00008253                0.00121044                0.00195145
               2.02833904                8.99018370               26.02498735                1.00000000               -0.03210373               -0.03210044                0.10701926                0.00004725               -0.00524880               -0.01198213
               3.02801787                8.98738645               26.02330303                0.01000000               -0.25578892               -0.02634353                0.10703617                0.40162311                0.14899046               -0.08719292
               4.02322326                8.99259042               26.02481362                0.01000000               -0.50030725                0.08628032                0.10807161                0.51684613                0.28678740               -0.01802460
               5.01801173                8.99712148               26.02641096                0.01000000               -0.49242969                0.10426513                0.11606105                0.31262045                0.30330225                0.02211938
               6.01337467                8.99977389               26.02872147                0.01000001               -0.44309522                0.09052400                0.12430660                0.13775113                0.35897525                0.05448845
               7.00914982                9.00109816               26.03193055                0.01000002               -0.43373964                0.07690937                0.13454629               -0.01482505                0.44225090                0.09917065
               8.00469987                9.00107043               26.03634872                0.01000003               -0.48022851                0.08076702                0.14800716               -0.18117441                0.66811468                0.19180631
               8.99954525                9.00028591               26.04452469                0.99999998               -0.28352951               -0.06710474                0.17107116               -0.34199682                0.41594234                0.40029193
               9.99902928                8.99977543               26.04437568                1.00000000               -0.05159711               -0.19582251                0.17320447               -0.32227595               -0.00034799                0.33703292
               0.03176031                9.99543798               26.02840550                1.00000000               -0.03139046               -0.03174578                0.10475182               -0.00033622                0.01313168                0.01398567
               1.03144641                9.99265567               26.02683475                1.00000000               -0.03138291               -0.03174490                0.10467778                0.00005487                0.01650002                0.00066044
               2.03113265                9.98986616               26.02533119                1.00000000               -0.03136417               -0.03175426                0.10466823                0.00002551                0.01653008               -0.00379632
               3.03081912                9.98706895               26.02376361                0.06820146               -0.46692170               -0.03174978                0.10461151                0.51425198                0.14431081               -0.00431614
               4.02179422                9.99454870               26.02482095                0.01000418               -0.72763042                0.19582830                0.10722551                0.42517006                0.25898515               -0.01315314
               5.01626651                9.99843044               26.02648746                0.01000000               -0.48326863                0.13089610                0.11428711                0.14379987                0.29311956                0.01779789
               6.01212885               10.00091513               26.02881791                0.01000001               -0.39670423                0.11412420                0.12385354                0.05965468                0.36101395                0.03633762
               7.00833243               10.00211517               26.03220688                0.01000000               -0.38961294                0.10170058                0.13575216               -0.00269961                0.48940133                0.05953715
               8.00433659               10.00249592               26.03745219                0.01000002               -0.41343303                0.14254930                0.15226240               -0.15363721                0.64958580                0.14041824
               9.00006377                9.99976900               26.04442634                1.00000000               -0.23988801               -0.05169158                0.17376813               -0.11037378                0.35644759                0.00028914
               9.99953883                9.99925142               26.04427732                0.99996189               -0.05249424               -0.05240104                0.17590067               -0.00080361                0.00033278               -0.00032962
               0.00129929                0.00218622               27.02257007                1.00000000               -0.02530297               -0.02471254                0.08313802                0.00014431               -0.00336223                0.00390169
               1.00104626                0.00097031               27.02254517                1.00000000               -0.02564121               -0.02541984                0.08540565                0.00034640               -0.00361824               -0.00127729
               2.00078647               -0.00024992               27.02251242                0.01000001               -0.01134986               -0.02612864                0.08767400                0.03297740                0.06296552               -0.00156437
               3.00081927               -0.00082215               27.02382127                0.01003252               -0.00960767               -0.01522520                0.09154684                0.02754535                0.13373757                0.00305336
               4.00059432                0.00050884               27.02530390                0.01000000               -0.05918649               -0.00011806                0.09508584                0.09743436                0.15502643               -0.00855832
               4.99963554                0.00406694               27.02715201                0.01007131               -0.21755936                0.01316417                0.09910894                0.25096875                0.19177266               -0.01805857
               5.99624313                0.01097084               27.02957852                0.20593994               -0.18515361               -0.03073255                0.10238431                0.27638511                0.11061680               -0.00112794
               6.99593246                0.01235686               27.03028935                1.00000000               -0.03196882               -0.03191289                0.10715071                0.00066187                0.01557618               -0.00463072
               7.99560375                0.01374083               27.03080929                0.99999998               -0.03357396               -0.03338383                0.11187158                0.00072989                0.00800393               -0.00049765
               8.99526098                0.01512059               27.03136481                1.00000000               -0.03498614               -0.03480442                0.11662295                0.00072662                0.00791122                0.00095229
               9.99490403                0.01649721               27.03188136                1.00000000               -0.03569557               -0.03628090                0.12137850                0.00093338                0.00592591                0.00538693
               0.00251664                1.00193909               27.02247797                1.00000000               -0.02488425               -0.02451002                0.08180514               -0.00019893                0.00141041                0.00447912
               1.00226780                1.00071611               27.02245022                0.01000000               -0.02520821               -0.02524014                0.08407036                0.00000268                0.00349730               -0.00322490
               2.00201247                0.99948879               27.02246285                0.01000000               -0.07762279               -0.04125415                0.08633902               -0.00037732                0.07484910                0.04131269
               3.00071534                0.99902560               27.02386565                0.01000001               -0.14441799               -0.01543210                0.09172759                0.07562378                0.12619742                0.01100435
               3.99912411                1.00050765               27.02514240                0.01000000               -0.19005601               -0.00509342                0.09537239                0.20817238                0.11898663               -0.00448033
               4.99691422                1.00419858               27.02666215                0.01000000               -0.21310492               -0.01529517                0.09894603                0.40378938                0.14588288               -0.01483060
               5.99486202                1.01066352               27.02882109                0.01000001               -0.11800653               -0.16543462                0.10117503                0.37088490                0.08839231               -0.04063630
               6.99455409                1.01203773               27.02944861                0.99999999               -0.03164137               -0.03172876                0.10592107                0.00007105                0.00637458               -0.00451446
               7.99422919                1.01340699               27.02996197                1.00000000               -0.03320151               -0.03320564                0.11066883                0.00000958                0.00121579               -0.00039845
               8.99389006                1.01477254               27.03048356                0.99999999               -0.03462250               -0.03462606                0.11542611                0.00000811                0.00116260                0.00063625
               9.99353674                1.01613440               27.03099537                1.00000000               -0.03533207               -0.03610026                0.12017849                0.00018301                0.00057936                0.00667350
               0.00374127                2.00169602               27.02239271                0.01000002               -0.02446496               -0.03186059                0.08047477               -0.01730824                0.00190672                0.07164671
               1.00349662                2.00046551               27.02231671                0.01000000               -0.06359131               -0.06646124                0.08273427               -0.03005663                0.05368947                0.06675063
               2.00246944                1.99892499               27.02327628                0.01000001               -0.10918692               -0.07286309                0.08980517                0.02573509                0.08618696                0.06892712
               3.00131288                1.99886921               27.02400357                0.01000000               -0.14423294               -0.04776800                0.09353503                0.19657449                0.07961074                0.02408082
               3.99958478                2.00040697               27.02498453                0.01000000               -0.18787080               -0.04008733                0.09695481                0.37455999                0.08925223                0.00394914
               4.99755546                2.00376103               27.02613653                0.01000001               -0.18815552               -0.08374322                0.09997140                0.51712924                0.08398685               -0.00969764
               5.99582167                2.00766215               27.02726467                0.01000000               -0.21825251               -0.22326080                0.10291368                0.55152400                0.08345597               -0.04739559
               6.99319041                2.01172229               27.02860557                0.01000000               -0.14762678               -0.13290070                0.10469511                0.33118018                0.03723554               -0.01326417
               7.99286914                2.01307672               27.02911448                0.09213874               -0.03283385               -0.03285779                0.10945997                0.00062425               -0.00564411               -0.00137162
               8.99253373                2.01442807               27.02959615                0.99999997               -0.03425822               -0.03422975                0.11422872                0.00005814               -0.00405370               -0.00164225
               9.99218397                2.01577521               27.03013765                1.00000000               -0.03497640               -0.03575916                0.11898419                0.00020765               -0.00121342                0.00660524
               0.00463148                3.00130188               27.02364042                0.01000000               -0.01937997               -0.03077667                0.08813015               -0.00324652                0.01024985                0.13946638
               1.00443768                2.99938689               27.02362324                0.01000001               -0.02540024               -0.13215282                0.09084764                0.03471865                0.02004379                0.11792412
               2.00412348                2.99803153               27.02381212                0.01000000               -0.06364134               -0.12655476                0.09373170                0.17417126                0.04338591                0.05673114
               3.00316486                2.99807024               27.02428335                0.01000000               -0.11999959               -0.10846892                0.09683450                0.34153765                0.06177630                0.02950775
               4.00172349                2.99970591               27.02494902                0.01002569               -0.15816177               -0.10072533                0.09961583                0.49852803                0.07118899                0.01362999
               5.00000162                3.00252371               27.02577390                0.01000000               -0.18961228               -0.13079236                0.10242755                0.61973868                0.07577811                0.00863193
               5.99793124                3.00619830               27.02672413                0.01000001               -0.21192474               -0.16144163                0.10527835                0.63867304                0.06645363                0.01730068
               6.99576313                3.00937972               27.02758633                0.01000001               -0.31976731               -0.19589206                0.10853669                0.66552716                0.04068152                0.01197747
               7.99153590                3.01274983               27.02824651                0.01000002               -0.22851979               -0.14583363                0.10520509                0.53989899               -0.00508249                0.04286263
               8.99119273                3.01408795               27.02867057                0.01006115               -0.03446422               -0.17035019                0.11302864                0.41152323               -0.00944861                0.05183473
               9.99084661                3.01541922               27.02925381                0.40845464               -0.03461201               -0.36265053                0.11779286                0.47740393               -0.00169448                0.04115835
               0.00750631                4.00108048               27.02491084                0.01000003               -0.00449744               -0.05425681                0.09556679                0.08659127               -0.00178343                0.14711648
               1.00746134                3.99782245               27.02460188                0.01000000               -0.01183978               -0.18706837                0.09734004                0.18863161                0.00750487                0.09445379
               2.00726952                3.99639390               27.02445885                0.01000000               -0.04960434               -0.18169537                0.09899705                0.35294264                0.03001821                0.05164532
               3.00646925                3.99669983               27.02460389                0.01002511               -0.10838266               -0.15357634                0.10094037                0.48529224                0.05530815                0.02433413
               4.00510186                3.99839246               27.02504713                0.01000000               -0.15057045               -0.14836046                0.10312273                0.60487099                0.07597376                0.01847504
               5.00345784                4.00114519               27.02575123                0.01000001               -0.16813693               -0.15228898                0.10564646                0.68496065                0.08877689                0.03058544
               6.00173913                4.00443332               27.02662418                0.01000001               -0.17542108               -0.18098193                0.10865107                0.73607384                0.08928132                0.05104786
               6.99994942                4.00780445               27.02751610                0.01000001               -0.13901192               -0.19912326                0.11161716                0.73539604                0.07482681                0.08013051
               7.99895889                4.01016004               27.02828645                0.01000000               -0.09273036               -0.26869763                0.11536637                0.78529079                0.05398987                0.10686256
               8.99809481                4.01102106               27.02885503                0.01000000                0.00553098               -0.31449197                0.11796902                0.56294453                0.02297775                0.12256850
               9.99906951                4.00852220               27.02909180                0.01000001                0.09746929               -0.49856779                0.12151517                0.42460878                0.01421384                0.08141763
               0.01287937                5.00021674               27.02627067                0.01000000                0.00175340               -0.22342443                0.10354934                0.26167288               -0.00356723                0.16892923
               1.01289690                4.99564552               27.02559155                0.01000000               -0.02872040               -0.20493238                0.10410740                0.41303070                0.00559130                0.09367116
               2.01230496                4.99439762               27.02506680                0.01000001               -0.10123791               -0.17920054                0.10449266                0.50252491                0.02925868                0.03134263
               3.01087214                4.99499871               27.02492855                0.01000000               -0.14647041               -0.18677532                0.10524438                0.59919210                0.06371961                0.01097519
               4.00937555                4.99673870               27.02525558                0.01000001               -0.16060814               -0.16997322                0.10710277                0.66978791                0.09926098                0.01723985
               5.00765998                4.99947794               27.02598556                0.01000001               -0.16910454               -0.16596857                0.10953972                0.71533508                0.12279601                0.04193617
               6.00599346                5.00257866               27.02696255                0.01000000               -0.14578280               -0.18367366                0.11246147                0.70313078                0.13075236                0.07857831
               7.00474432                5.00539726               27.02803288                0.01000000               -0.09841811               -0.23266962                0.11635810                0.65901274                0.12378079                0.12128029
               8.00402510                5.00737588               27.02900961                0.01000000               -0.03274265               -0.27305596                0.12050494                0.55060625                0.10089186                0.15888615
               9.00408947                5.00779811               27.02967143                0.01000000                0.01557121               -0.29082424                0.12437285                0.37289525                0.06061929                0.17655201
              10.00433652                5.00544786               27.02979029                0.01000000                0.02470511               -0.21157410                0.12737842                0.18263800                0.03736296                0.15256542
               0.02188221                5.99661199               27.02803917                0.55150069               -0.03411370               -0.19678632                0.11287749                0.30574669               -0.00320114                0.10088421
               1.02154107                5.99372381               27.02677905                0.01000001               -0.19576913               -0.11305592                0.11340923                0.38664717               -0.00365161                0.05283740
               2.01796683                5.99280989               27.02551251                0.01000000               -0.27145283               -0.19600816                0.10860964                0.55146783                0.01798762                0.00342404
               3.01611202                5.99296432               27.02516907                0.01000001               -0.19742149               -0.20163310                0.10993617                0.61138068                0.08769466               -0.00664976
               4.01401840                5.99499300               27.02552132                0.01000001               -0.20937176               -0.17587215                0.11112767                0.70929156                0.13768476                0.00676023
               5.01192458                5.99782582               27.02638142                0.01000000               -0.20679884               -0.14051931                0.11298433                0.68751808                0.17078248                0.04427148
               6.00988242                6.00075984               27.02762063                0.01000000               -0.17960625               -0.15374700                0.11716622                0.60245940                0.18715978                0.09465964
               7.00833246                6.00315105               27.02904282                0.01000000               -0.11561311               -0.19735500                0.12195767                0.47593971                0.18463994                0.15425687
               8.00757016                6.00469892               27.03039750                0.01000000               -0.04258596               -0.24412487                0.12653888                0.34387020                0.15717717                0.21291734
               9.00748074                6.00520458               27.03132745                0.01000002               -0.00737007               -0.23370503                0.13220983                0.18985866                0.09610212                0.25596942
              10.00742276                6.00429071               27.03142527                0.01000001               -0.00579795               -0.07660921                0.13652852                0.09142423                0.05649443                0.25555471
               0.02477067                6.99628102               27.02852070                0.99999999               -0.03387255               -0.03305616                0.11249871               -0.00051163               -0.00666589                0.02868145
               1.02443195                6.99338440               27.02711042                1.00000000               -0.03384378               -0.03362580                0.11243183               -0.00044298               -0.00782122                0.00648130
               2.02409380                6.99047746               27.02567865                0.01000000               -0.17576505               -0.13332796                0.11258425                0.33102797                0.04731073               -0.01512137
               3.02091665                6.99096605               27.02537512                0.01000001               -0.26969553               -0.28290228                0.11411687                0.66023952                0.12104641               -0.04654917
               4.01869989                6.99322126               27.02572340                0.01000001               -0.26365775               -0.12711124                0.11157809                0.71081066                0.18179694               -0.00909035
               5.01564349                6.99666755               27.02684564                0.01000000               -0.29912401               -0.07558081                0.11647966                0.63162238                0.22845077                0.04038862
               6.01271741                6.99950372               27.02847031                0.01000000               -0.26597276               -0.07606331                0.12164602                0.45415185                0.25406781                0.10030178
               7.01032404                7.00145016               27.03047494                0.01000000               -0.19342147               -0.11828485                0.12744430                0.26103809                0.26088599                0.17329541
               8.00884898                7.00249338               27.03249990                0.01000001               -0.10145921               -0.18143908                0.13354584                0.08738713                0.23038292                0.27876010
               9.00829485                7.00312401               27.03402995                0.01000002               -0.04281225               -0.19675880                0.13900305               -0.00038277                0.14224025                0.36670898
              10.00799273                7.00391568               27.03430761                0.01000002               -0.03021199               -0.04390889                0.14215061               -0.02161248                0.08117895                0.42016042
               0.02766520                7.99595087               27.02884284                1.00000000               -0.03294303               -0.03265001                0.10944815               -0.00030014               -0.00084619                0.02233503
               1.02733577                7.99305129               27.02737301                1.00000000               -0.03297292               -0.03292690                0.10983733                0.00012905               -0.00061122                0.00313889
               2.02700574                7.99014333               27.02590892                0.04505949               -0.03813806               -0.03305814                0.11016233                0.00403227                0.02765610               -0.01606388
               3.02657301                7.98730628               27.02500822                0.01000002               -0.22363161               -0.20337026                0.08704641                0.54929785                0.14514608               -0.09942343
               4.02253311                7.99245077               27.02585410                0.01000000               -0.41492233               -0.04529900                0.11483807                0.74525656                0.24130887               -0.01849900
               5.01827456                7.99631420               27.02726797                0.01000000               -0.41751294                0.02438195                0.11817991                0.51134920                0.27961343                0.03491816
               6.01418285                7.99923858               27.02934520                0.01000000               -0.38555035                0.02332468                0.12456506                0.29764593                0.31985205                0.08977816
               7.01056356                8.00078536               27.03203622                0.01000001               -0.32694014               -0.00504521                0.13237967                0.06293401                0.36736892                0.16157646
               8.00764405                8.00107014               27.03544653                0.01000002               -0.22563848               -0.06088843                0.14207193               -0.16452950                0.35229390                0.28552578
               9.00605079                8.00126940               27.03811815                0.01000007               -0.11184415               -0.13750648                0.15023897               -0.31359748                0.23435935                0.62567221
              10.00540717                8.00341254               27.03927402                0.01000000               -0.06436206               -0.20294386                0.15577145               -0.22711680                0.15909911                0.61391228
               0.03056383                8.99562802               27.02919694                1.00000000               -0.03217604               -0.03198553                0.10699575               -0.00031559                0.00236213                0.01901137
               1.03024207                8.99272587               27.02763990                0.99999998               -0.03221868               -0.03218648                0.10737979                0.00008854                0.00126691                0.00203700
               2.02991946                8.98981630               27.02606158                1.00000000               -0.03234541               -0.03234153                0.10783111                0.00005618               -0.00513969               -0.01184905
               3.02959516                8.98689864               27.02437981                0.01000000               -0.26611804               -0.03644546                0.10833197                0.42218687                0.14872405               -0.05713913
               4.02459710                8.99231528               27.02588505                0.01000000               -0.52562462                0.09828179                0.10828009                0.53896631                0.29459240               -0.02115618
               5.01908267                8.99715519               27.02758013                0.01000000               -0.51989645                0.11194873                0.11761601                0.32976270                0.31026341                0.02351435
               6.01419917                8.99997022               27.02997157                0.01000002               -0.46657584                0.09743127                0.12581374                0.14448037                0.36647959                0.05632934
               7.00975115                9.00134925               27.03328354                0.01000002               -0.45624114                0.08261324                0.13605059               -0.01757940                0.45223042                0.10215126
               8.00507434                9.00127562               27.03783464                0.01000003               -0.50353217                0.08615581                0.14918528               -0.19508356                0.68401812                0.19682191
               8.99968051                9.00037388               27.04623630                0.99999998               -0.29551081               -0.07063073                0.17125386               -0.36322829                0.42618566                0.40985011
               9.99916413                8.99985680               27.04610805                1.00000000               -0.05163814               -0.20397808                0.17327051               -0.33804166               -0.00035131                0.34498106
               0.03346319                9.99531116               27.02945171                1.00000000               -0.03139265               -0.03168560                0.10452602               -0.00042414                0.01321845                0.01410057
               1.03314926                9.99240756               27.02788251                1.00000000               -0.03145493               -0.03183055                0.10491590               -0.00001391                0.01659622                0.00073095
               2.03283409                9.98949650               27.02638116                1.00000000               -0.03157475               -0.03197973                0.10537377               -0.00004641                0.01660706               -0.00373677
               3.03251777                9.98657737               27.02481531                0.09437658               -0.48890987               -0.03212757                0.10578135                0.53825589                0.14509375               -0.00432866
               4.02305589                9.99441641               27.02588964                0.01000002               -0.76514446                0.21011309                0.10820651                0.44466991                0.26503046               -0.00938130
               5.01721488                9.99855317               27.02763099                0.01000000               -0.50887480                0.13979857                0.11511874                0.15176059                0.30321874                0.01906646
               6.01287840               10.00118720               27.03006144                0.01000001               -0.41541546                0.12169874                0.12515073                0.06214534                0.37165624                0.03709818
               7.00890657               10.00243762               27.03357057                0.01000002               -0.40803229                0.10883715                0.13706674               -0.00415570                0.50279365                0.06123873
               8.00471775               10.00279326               27.03897922                0.01000002               -0.43507669                0.15176426                0.15315699               -0.16470120                0.66720510                0.14383704
               9.00020503                9.99985679               27.04616369                1.00000000               -0.25186321               -0.05170917                0.17370347               -0.12056169                0.36592781                0.00029232
               9.99968049                9.99933297               27.04603543                0.99997725               -0.05245484               -0.05238277                0.17572017               -0.00074546                0.00033213               -0.00033244
               0.00127924                0.00232402               28.02339713                1.00000000               -0.02516645               -0.02447708                0.08227295                0.00030507               -0.00336223                0.00390394
               1.00102757                0.00105916               28.02339900                1.00000000               -0.02562415               -0.02543938                0.08535920                0.00047652               -0.00361808               -0.00127826
               2.00076676               -0.00020933               28.02339301                0.01000001               -0.01436817               -0.02640228                0.08844518                0.03296450                0.06318021               -0.00156468
               3.00074021               -0.00083186               28.02473289                0.01000000               -0.01571687               -0.01171172                0.09179729                0.02830075                0.13392636                0.00471151
               4.00045242                0.00059119               28.02625204                0.01000000               -0.06763845                0.00376310                0.09554799                0.10460823                0.15488055               -0.00652888
               4.99938744                0.00437254               28.02813865                0.01000000               -0.23478357                0.01826942                0.09749725                0.26977139                0.19207168               -0.01904262
               5.99575675                0.01172314               28.03059480                0.19720863               -0.19691897               -0.03031441                0.10093871                0.29644930                0.10969470               -0.00112566
               6.99544906                0.01315733               28.03135661                1.00000000               -0.03172230               -0.03167862                0.10629571                0.00075880                0.01563780               -0.00464717
               7.99512230                0.01458918               28.03192578                0.99999998               -0.03343780               -0.03327486                0.11142063                0.00078400                0.00799092               -0.00050350
               8.99478031                0.01601736               28.03253076                1.00000000               -0.03496613               -0.03481287                0.11656411                0.00078939                0.00790667                0.00094667
               9.99442298                0.01744307               28.03309677                0.99996566               -0.03573282               -0.03640685                0.12170604                0.00097106                0.00591724                0.00538411
               0.00254715                1.00207925               28.02329279                1.00000000               -0.02481396               -0.02430424                0.08115858               -0.00015965                0.00140946                0.00448131
               1.00229901                1.00080476               28.02329180                0.01000000               -0.02526225               -0.02529958                0.08424483                0.00001109                0.00349908               -0.00322575
               2.00204191                0.99952665               28.02333120                0.01000000               -0.08380262               -0.04215558                0.08733156               -0.00228892                0.07605223                0.04359216
               3.00062296                0.99905103               28.02478482                0.01000001               -0.15728043               -0.01292075                0.09224333                0.08010708                0.12790252                0.01350179
               3.99889630                1.00062882               28.02609830                0.01000000               -0.20518904               -0.00205134                0.09569519                0.22235256                0.11902468               -0.00213871
               4.99651918                1.00455524               28.02764902                0.01000000               -0.22837253               -0.01290132                0.09810300                0.43198278                0.14635848               -0.01479642
               5.99432885                1.01141999               28.02982621                0.01000001               -0.12477749               -0.17396954                0.09991509                0.39648377                0.08688286               -0.03892123
               6.99402363                1.01284054               28.03050455                0.99999999               -0.03143626               -0.03152330                0.10525294                0.00007399                0.00643974               -0.00452287
               7.99370012                1.01425643               28.03106722                0.99999999               -0.03311871               -0.03311901                0.11038822                0.00000308                0.00121704               -0.00040497
               8.99336126                1.01566923               28.03163832                0.99999999               -0.03465700               -0.03466026                0.11553869                0.00000690                0.00117264                0.00063616
               9.99300698                1.01707900               28.03219973                1.00000000               -0.03542727               -0.03624961                0.12068912                0.00015691                0.00059045                0.00667199
               0.00382502                2.00183794               28.02319529                0.01000000               -0.02446231               -0.03156103                0.08004419               -0.01883979                0.00190745                0.07628759
               1.00358040                2.00055317               28.02314604                0.01000000               -0.06751519               -0.06862527                0.08312978               -0.03248600                0.05597076                0.07145386
               2.00247472                1.99894756               28.02417801                0.01000001               -0.11701060               -0.07548258                0.09047006                0.02643723                0.08876865                0.07398706
               3.00124018                1.99890973               28.02494329                0.01000000               -0.15397299               -0.04878547                0.09422926                0.20896340                0.07985716                0.02828824
               3.99939526                2.00055016               28.02595674                0.01000000               -0.20021312               -0.04038082                0.09728268                0.39909968                0.08891672                0.00745443
               4.99723592                2.00411452               28.02713807                0.01000001               -0.19970675               -0.08715414                0.09994953                0.55143245                0.08252725               -0.00650063
               5.99540112                2.00824375               28.02829336                0.01000000               -0.23109074               -0.23602767                0.10267273                0.58774260                0.08127615               -0.04341990
               6.99261411                2.01252686               28.02965019                0.01000000               -0.15537250               -0.13953625                0.10421301                0.35266340                0.03556999               -0.01072279
               7.99229367                2.01392680               28.03020844                0.09402644               -0.03281153               -0.03304288                0.10935010                0.00077598               -0.00562173               -0.00089441
               8.99195788                2.01532416               28.03073982                0.99999996               -0.03435425               -0.03432025                0.11452489                0.00003699               -0.00403134               -0.00163191
               9.99160659                2.01671808               28.03133097                1.00000000               -0.03512906               -0.03595992                0.11966993                0.00016953               -0.00119926                0.00660976
               0.00473990                3.00144803               28.02452355                0.01000000               -0.02002300               -0.02950770                0.08808876               -0.00346340                0.01050764                0.14888123
               1.00453967                2.99943226               28.02453441                0.01000001               -0.02629037               -0.13799492                0.09118936                0.03702892                0.02020426                0.12689045
               2.00421409                2.99801700               28.02475286                0.01000000               -0.06700192               -0.13265092                0.09433766                0.18627174                0.04353657                0.06312212
               3.00319963                2.99807532               28.02525581                0.01000000               -0.12702945               -0.11377868                0.09753959                0.36395154                0.06155940                0.03521722
               4.00167350                2.99982120               28.02594915                0.01002470               -0.16726938               -0.10561072                0.10022024                0.53068613                0.07027455                0.01883015
               4.99985424                3.00281216               28.02680083                0.01000000               -0.20010718               -0.13783287                0.10270003                0.65909414                0.07462405                0.01348704
               5.99767136                3.00669944               28.02778120                0.01000001               -0.22301971               -0.17051129                0.10551193                0.67843342                0.06539425                0.02204518
               6.99539385                3.01004982               28.02867045                0.01000001               -0.33765051               -0.20701753                0.10964178                0.70662717                0.03900316                0.01678989
               7.99091835                3.01359557               28.02933888                0.01000002               -0.24115641               -0.15422281                0.11218157                0.57275694               -0.00810334                0.04726710
               8.99057072                3.01498283               28.02980334                0.01000001               -0.03479053               -0.17979301                0.11354143                0.43596157               -0.00992157                0.05524316
               9.99022254                3.01635980               28.03043608                0.44428739               -0.03481823               -0.38360418                0.11864924                0.50583436               -0.00170923                0.04426863
               0.00778729                4.00124778               28.02586558                0.01000003               -0.00352887               -0.05466988                0.09536850                0.09334276               -0.00202198                0.15695405
               1.00775201                3.99779327               28.02557691                0.01000000               -0.01151009               -0.19635080                0.09759055                0.20273432                0.00710176                0.10307066
               2.00755709                3.99629454               28.02545255                0.01000000               -0.05184971               -0.19086761                0.09959387                0.37741327                0.02945223                0.05928543
               3.00671501                3.99663415               28.02561879                0.01002433               -0.11424772               -0.16147118                0.10172119                0.51731301                0.05450229                0.03108615
               4.00527214                3.99843795               28.02608334                0.01000000               -0.15877230               -0.15629131                0.10391692                0.64371681                0.07485106                0.02513932
               5.00353957                4.00135786               28.02681284                0.01000001               -0.17700042               -0.16058076                0.10634360                0.72782573                0.08759924                0.03683378
               6.00173213                4.00483352               28.02771530                0.01000001               -0.18445231               -0.19113180                0.10924643                0.78079149                0.08840627                0.05679068
               6.99985052                4.00838651               28.02864071                0.01002343               -0.14581661               -0.20991863                0.11286942                0.77785213                0.07423459                0.08506274
               7.99881580                4.01084234               28.02944305                0.01000000               -0.09688194               -0.28432417                0.11715887                0.83113692                0.05398772                0.11236286
               8.99791288                4.01172830               28.03004491                0.01000000                0.00767654               -0.33327474                0.12003573                0.59617560                0.02476171                0.12529522
               9.99896933                4.00904599               28.03032499                0.01002496                0.10564481               -0.52824311                0.12326677                0.44936370                0.01709614                0.08271938
               0.01351578                5.00035463               28.02730599                0.01000000                0.00318104               -0.23698171                0.10339278                0.28108455               -0.00445094                0.18017775
               1.01354759                4.99550524               28.02663447                0.01000000               -0.02971569               -0.21441670                0.10435870                0.44293836                0.00457944                0.10401603
               2.01292147                4.99419965               28.02611564                0.01000001               -0.10725537               -0.18693938                0.10504049                0.53652047                0.02802034                0.03891157
               3.01140249                4.99484589               28.02598347                0.01000000               -0.15486694               -0.19603202                0.10597424                0.63797355                0.06256719                0.01997708
               4.00982413                4.99669538               28.02633409                0.01000001               -0.16936527               -0.17858172                0.10798578                0.71225933                0.09812365                0.02493510
               5.00801518                4.99960054               28.02708722                0.01000001               -0.17827961               -0.17479293                0.11047859                0.75994518                0.12146691                0.04936071
               6.00625854                5.00287681               28.02809598                0.01000001               -0.15365554               -0.19337567                0.11376707                0.74600695                0.13014661                0.08532559
               7.00494207                5.00585144               28.02920235                0.01000000               -0.10296189               -0.24554323                0.11730464                0.69781917                0.12441683                0.12678801
               8.00419930                5.00790909               28.03022144                0.01000000               -0.03257437               -0.28799914                0.12139820                0.58176458                0.10150046                0.16416213
               9.00429058                5.00831733               28.03092295                0.01000000                0.01875603               -0.30734065                0.12548926                0.39440153                0.06051948                0.18180833
              10.00457442                5.00579494               28.03106907                0.01000000                0.02838386               -0.22291103                0.12886265                0.19335114                0.03674444                0.15798387
               0.02310776                5.99650815               28.02916817                0.52105258               -0.03420065               -0.20879229                0.11275755                0.32948643               -0.00318720                0.10783830
               1.02276576                5.99350493               28.02791569                0.01000001               -0.20804567               -0.11702078                0.11375909                0.41363825               -0.00639449                0.05946523
               2.01894685                5.99255576               28.02659981                0.01000000               -0.28935028               -0.20295318                0.10891333                0.58599742                0.01583681                0.01085313
               3.01697875                5.99271351               28.02628812                0.01000001               -0.20920879               -0.20935582                0.11019232                0.64788886                0.08656434               -0.00195731
               4.01476268                5.99486631               28.02662966                0.01000001               -0.22108566               -0.18434737                0.11122651                0.75397505                0.13430759                0.01604302
               5.01255704                5.99786200               28.02752210                0.01000001               -0.21806545               -0.14716800                0.11436387                0.73030301                0.16929898                0.05201653
               6.01040137                6.00096601               28.02879948                0.01000000               -0.18912107               -0.16090293                0.11825569                0.63873592                0.18704213                0.10191759
               7.00877462                6.00347565               28.03026842                0.01000000               -0.12080839               -0.20803736                0.12284510                0.50370513                0.18538954                0.16086429
               8.00798520                6.00508236               28.03166793                0.01000000               -0.04297781               -0.25775810                0.12742926                0.36328089                0.15897051                0.21964760
               9.00791506                6.00558148               28.03266215                0.01011493               -0.00520287               -0.24558869                0.13319271                0.20060950                0.09831669                0.26114273
              10.00788114                6.00458777               28.03281326                0.01000001               -0.00339205               -0.07968636                0.13743119                0.09775910                0.05899173                0.25959384
               0.02611194                6.99617879               28.02964576                0.99999999               -0.03391901               -0.03295149                0.11239371               -0.00055910               -0.00721437                0.02949938
               1.02577275                6.99316483               28.02823709                1.00000000               -0.03395521               -0.03370928                0.11279407               -0.00046206               -0.00819295                0.00718825
               2.02543284                6.99014058               28.02680903                0.01000000               -0.18615224               -0.13758988                0.11340055                0.35050209                0.04102744               -0.01167437
               3.02204971                6.99065878               28.02638765                0.01000001               -0.28388475               -0.30554206                0.10823101                0.70201032                0.11575180               -0.03126985
               4.01975514                6.99300843               28.02685947                0.01002827               -0.27640811               -0.12874199                0.11155393                0.74972412                0.18246001               -0.00442989
               5.01652154                6.99665718               28.02800876                0.01000000               -0.31677645               -0.07764996                0.11710922                0.66960128                0.22633761                0.04877257
               6.01341961                6.99965875               28.02969533                0.01000000               -0.28108613               -0.07835259                0.12275142                0.48057262                0.25536678                0.10647998
               7.01089982                7.00169070               28.03175535                0.01000000               -0.20302663               -0.12378654                0.12860998                0.27460444                0.26299191                0.17961773
               8.00935908                7.00275393               28.03384272                0.01000001               -0.10512301               -0.19130019                0.13492869                0.09207195                0.23280873                0.28646648
               9.00879736                7.00340556               28.03542505                0.01000002               -0.04210262               -0.20816480                0.13972436                0.00003100                0.14300397                0.37475979
              10.00851703                7.00420121               28.03573162                0.01006267               -0.02803333               -0.04710491                0.14165538               -0.02281110                0.08067068                0.42656061
               0.02912450                7.99584912               28.02993694                1.00000000               -0.03297816               -0.03259948                0.10931132               -0.00029896               -0.00087612                0.02215625
               1.02879472                7.99283075               28.02847333                1.00000000               -0.03307792               -0.03302305                0.11017598                0.00013678               -0.00063751                0.00314722
               2.02846294                7.98980396               28.02701484                0.06949991               -0.03218035               -0.03330485                0.11097256               -0.00822892                0.03405352               -0.01590647
               3.02815111                7.98660267               28.02624826                0.01000002               -0.23520955               -0.21110949                0.09334968                0.58033500                0.14265518               -0.09496310
               4.02375875                7.99229147               28.02688694                0.01000000               -0.44261832               -0.04383350                0.11024773                0.79329866                0.23365144               -0.01048421
               5.01929875                7.99630900               28.02846859                0.01000000               -0.43897242                0.02857814                0.11898558                0.53582088                0.28504844                0.03982350
               6.01497930                7.99939896               28.03059621                0.01000000               -0.40636103                0.02627428                0.12601962                0.31360759                0.32270232                0.09409784
               7.01117153                8.00099992               28.03336839                0.01000001               -0.34337649               -0.00419301                0.13380496                0.06444683                0.37302043                0.16668852
               8.00811177                8.00125636               28.03687441                0.01000002               -0.23515639               -0.06398761                0.14336497               -0.17566693                0.35843666                0.29281637
               9.00646840                8.00141819               28.03962822                0.01000007               -0.11390789               -0.14840926                0.15203072               -0.33062460                0.23907991                0.64016808
              10.00583362                8.00364567               28.04084182                0.01000000               -0.06347818               -0.21437884                0.15834798               -0.23916536                0.16253313                0.62702676
               0.03214270                8.99552680               28.03026623                1.00000000               -0.03220560               -0.03193295                0.10685020               -0.00031371                0.00238353                0.01914848
               1.03182065                8.99250437               28.02871537                0.99999998               -0.03231845               -0.03228362                0.10771287                0.00009277                0.00132917                0.00213143
               2.03149633                8.98947449               28.02714397                0.99999999               -0.03258776               -0.03258380                0.10864701                0.00006348               -0.00501379               -0.01169998
               3.03116889                8.98643659               28.02546967                0.01000001               -0.27907749               -0.02456464                0.10963830                0.43593370                0.14871887               -0.06335222
               4.02591478                8.99213176               28.02697922                0.01000000               -0.55192075                0.10302083                0.11003653                0.56562767                0.29570012               -0.01028632
               5.02013048                8.99722874               28.02876328                0.01000000               -0.54569656                0.12005229                0.11900247                0.34564098                0.31631636                0.02514353
               6.01500085                9.00018423               28.03123775                0.01000002               -0.48995587                0.10391963                0.12749140                0.15105878                0.37333603                0.05862760
               7.01033136                9.00160684               28.03465156                0.01000002               -0.47866918                0.08829774                0.13752881               -0.02055309                0.46159550                0.10505728
               8.00542747                9.00147418               28.03933243                0.01000003               -0.52679033                0.09135745                0.15028212               -0.20968308                0.69910287                0.20147054
               8.99979555                9.00043737               28.04794976                0.99999998               -0.30743595               -0.07490589                0.17144193               -0.38514131                0.43598860                0.41885996
               9.99927875                8.99991363               28.04784109                1.00000000               -0.05168023               -0.21278303                0.17333454               -0.35395575               -0.00035450                0.35207631
               0.03516309                9.99521046               28.03049602                1.00000000               -0.03142031               -0.03163373                0.10437350               -0.00049979                0.01330819                0.01422078
               1.03484889                9.99218507               28.02893307                1.00000000               -0.03155486               -0.03192904                0.10524288               -0.00008498                0.01669407                0.00080889
               2.03453199                9.98915228               28.02743866                0.99999999               -0.03181860               -0.03222041                0.10618361               -0.00011899                0.01668186               -0.00367236
               3.03421251                9.98611138               28.02587924                0.12168722               -0.51264223               -0.03252067                0.10707216                0.56434258                0.14635944               -0.00435195
               4.02427915                9.99435189               28.02698508                0.01000002               -0.80267109                0.22201302                0.11017577                0.46636979                0.26632284               -0.00298658
               5.01815909                9.99871005               28.02878984                0.01000000               -0.53283799                0.14813050                0.11700623                0.15913459                0.31070866                0.02008536
               6.01362239               10.00147735               28.03132092                0.01000001               -0.43442856                0.12931174                0.12697794                0.06494449                0.38168608                0.03819274
               7.00947052               10.00276587               28.03494822                0.01001632               -0.42674068                0.11590342                0.13853041               -0.00577606                0.51556255                0.06276361
               8.00508757               10.00308351               28.04051533                0.01000002               -0.45722041                0.16093299                0.15392508               -0.17627959                0.68389203                0.14696016
               9.00032611                9.99992007               28.04790041                1.00000000               -0.26427962               -0.05173047                0.17364124               -0.13161865                0.37498058                0.00029302
               9.99980198                9.99939001               28.04779172                0.99999550               -0.05241313               -0.05236221                0.17553382               -0.00068266                0.00033432               -0.00033395
               0.00122832                0.00247298               29.02421553                1.00000000               -0.02502907               -0.02424125                0.08140622                0.00046642               -0.00336259                0.00390435
               1.00097803                0.00115914               29.02425236                1.00000000               -0.02560707               -0.02545884                0.08531248                0.00060552               -0.00361822               -0.00127820
               2.00071618               -0.00015760               29.02428132                0.01000000               -0.01696325               -0.02667653                0.08921849                0.03288653                0.06323203               -0.00156476
               3.00063876               -0.00083177               29.02565722                0.01000000               -0.02150016               -0.00829973                0.09275494                0.02892018                0.13421349                0.00586051
               4.00028617                0.00068574               29.02721486                0.01000000               -0.07522792                0.00744365                0.09564667                0.11027982                0.15329443               -0.00628154
               4.99913420                0.00466535               29.02910195                0.01000786               -0.25335574                0.02378777                0.09645055                0.28791537                0.19023682               -0.01735767
               5.99521906                0.01248551               29.03159729                0.18870527               -0.21099825               -0.02989757                0.09948453                0.31764328                0.10911587               -0.00114803
               6.99491424                0.01396805               29.03241526                1.00000000               -0.03148213               -0.03143513                0.10543501                0.00088258                0.01576899               -0.00466851
               7.99458942                0.01544789               29.03303770                0.99999998               -0.03330511               -0.03316468                0.11095755                0.00085307                0.00798105               -0.00051140
               8.99424814                0.01692442               29.03369609                1.00000000               -0.03495221               -0.03482056                0.11650171                0.00084060                0.00789445                0.00094113
               9.99389037                0.01839897               29.03431548                1.00000000               -0.03577650               -0.03653311                0.12205044                0.00098922                0.00589550                0.00535985
               0.00254681                1.00223056               29.02410114                1.00000000               -0.02474425               -0.02409856                0.08051184               -0.00012139                0.00141005                0.00448183
               1.00229937                1.00090456               29.02413511                0.01000000               -0.02531570               -0.02535837                0.08441815                0.00001768                0.00349968               -0.00322578
               2.00204050                0.99957563               29.02420948                0.01000000               -0.08965385               -0.04296625                0.08832476               -0.00439709                0.07667637                0.04556324
               3.00050629                0.99908523               29.02571052                0.01000001               -0.17000436               -0.01021267                0.09282760                0.08385335                0.12821401                0.01561165
               3.99864041                1.00076018               29.02705630                0.01000000               -0.21964104                0.00097322                0.09552701                0.23500796                0.11773949               -0.00056014
               4.99611347                1.00490323               29.02862421                0.01000000               -0.24481352               -0.00930707                0.09718575                0.45807697                0.14369249               -0.01212020
               5.99374414                1.01218653               29.03081940                0.01000001               -0.13357982               -0.18233730                0.09863216                0.42332427                0.08521642               -0.03688576
               6.99344188                1.01365370               29.03155367                0.99999999               -0.03121905               -0.03130574                0.10455235                0.00011012                0.00656405               -0.00454029
               7.99311976                1.01511624               29.03216974                0.99990685               -0.03304369               -0.03303610                0.11011649                0.00000879                0.00122548               -0.00040034
               8.99278100                1.01657621               29.03279433                0.99999999               -0.03470213               -0.03470077                0.11566878               -0.00000857                0.00118144                0.00064972
               9.99242572                1.01803363               29.03340915                1.00000000               -0.03552845               -0.03639569                0.12119168                0.00010699                0.00059447                0.00663649
               0.00387790                2.00199100               29.02399359                0.01000000               -0.02445940               -0.03106765                0.07961736               -0.02024706                0.00190731                0.08080694
               1.00363331                2.00065198               29.02397931                0.01000000               -0.07151728               -0.07053629                0.08352348               -0.03474189                0.05794299                0.07592440
               2.00244756                1.99898307               29.02508568                0.01000001               -0.12510118               -0.07781036                0.09102673                0.02721525                0.09071512                0.07861202
               3.00113129                1.99896398               29.02588815                0.01000000               -0.16396100               -0.04930743                0.09466833                0.22077977                0.07930595                0.03227082
               3.99916834                2.00070520               29.02693018                0.01000000               -0.21309502               -0.04021301                0.09734173                0.42293913                0.08734438                0.01118830
               4.99686939                2.00447921               29.02813552                0.01000001               -0.21166325               -0.08922695                0.09944710                0.58410672                0.08041138               -0.00263259
               5.99493507                2.00883876               29.02931812                0.01000000               -0.24413250               -0.24846361                0.10205795                0.62440469                0.07835962               -0.03921501
               6.99198674                2.01334193               29.03068983                0.01000000               -0.16339997               -0.14643467                0.10367729                0.37460153                0.03366049               -0.00679248
               7.99166707                2.01478716               29.03130148                0.09635079               -0.03280833               -0.03278394                0.10928483                0.00048231               -0.00557502                0.00248789
               8.99133057                2.01623040               29.03188665                0.99999997               -0.03447015               -0.03442457                0.11487844               -0.00000051               -0.00400005               -0.00158059
               9.99097767                2.01767105               29.03253105                1.00000000               -0.03528984               -0.03615276                0.12031639                0.00012602               -0.00119097                0.00656056
               0.00481993                3.00160921               29.02540220                0.01000000               -0.02074635               -0.02769393                0.08763814               -0.00327260                0.01079102                0.15809133
               1.00461246                2.99949383               29.02544703                0.01000001               -0.02735608               -0.14340849                0.09128802                0.03966532                0.02029750                0.13550268
               2.00427281                2.99801943               29.02569887                0.01000000               -0.07063523               -0.13831220                0.09478725                0.19871863                0.04335239                0.06918922
               3.00319976                2.99809908               29.02623414                0.01000000               -0.13444207               -0.11850391                0.09801842                0.38668581                0.06073420                0.04069049
               4.00158396                2.99995592               29.02695342                0.01002425               -0.17688550               -0.10974515                0.10052510                0.56280517                0.06856614                0.02411675
               4.99966205                3.00311869               29.02782790                0.01000000               -0.21072270               -0.14418655                0.10282932                0.69849090                0.07226625                0.01862471
               5.99736951                3.00721726               29.02883437                0.01000001               -0.23382708               -0.17922064                0.10438657                0.71753129                0.06361688                0.02696949
               6.99498551                3.01072500               29.02977917                0.01000001               -0.35642870               -0.21840698                0.10992821                0.74814630                0.04041248                0.02342432
               7.99024094                3.01446056               29.03049014                0.01000002               -0.25442013               -0.16312070                0.12487105                0.60650436               -0.00865962                0.04981290
               8.98989710                3.01588772               29.03094139                0.01000000               -0.03469959               -0.19115231                0.11412636                0.46137814               -0.01321223                0.05937064
               9.98954694                3.01731058               29.03162679                0.49116805               -0.03501603               -0.40637286                0.11944651                0.53596537               -0.00172581                0.04677644
               0.00804321                4.00143713               29.02681821                0.01000003               -0.00268117               -0.05457539                0.09504043                0.10034137               -0.00234884                0.16672458
               1.00801640                3.99778381               29.02655369                0.01000000               -0.01132670               -0.20533868                0.09766619                0.21730410                0.00652228                0.11146199
               2.00781668                3.99621683               29.02645073                0.01000000               -0.05439435               -0.19954167                0.09993758                0.40268248                0.02855348                0.06654306
               3.00692851                3.99659390               29.02663831                0.01002370               -0.12059199               -0.16850786                0.10216617                0.54993715                0.05328158                0.03769173
               4.00540484                3.99851030               29.02712547                0.01000000               -0.16753271               -0.16324214                0.10439425                0.68259445                0.07315191                0.03143835
               5.00357786                4.00159548               29.02787811                0.01000001               -0.18627273               -0.16814000                0.10666706                0.77047135                0.08549165                0.04321672
               6.00167938                4.00525435               29.02880910                0.01000001               -0.19357476               -0.20081300                0.10925835                0.82450294                0.08642473                0.06332147
               6.99970636                4.00897379               29.02977348                0.01001168               -0.15224709               -0.22098517                0.11345357                0.81960482                0.07303782                0.09033002
               7.99863444                4.01152475               29.03062963                0.01000000               -0.09991252               -0.30131584                0.11814191                0.87635704                0.05168706                0.11499477
               8.99770811                4.01240736               29.03125575                0.01000000                0.01084122               -0.35353471                0.12199026                0.62869827                0.02204353                0.13191287
               9.99885127                4.00954359               29.03155714                0.01000004                0.11431529               -0.55956536                0.12394097                0.47523470                0.01521525                0.08869152
               0.01413339                5.00051770               29.02833853                0.01000000                0.00454499               -0.25040697                0.10301012                0.30094591               -0.00537035                0.19128827
               1.01417884                4.99538706               29.02767872                0.01000000               -0.03085134               -0.22366576                0.10438842                0.47380176                0.00337455                0.11420111
               2.01351636                4.99402859               29.02716761                0.01000001               -0.11369054               -0.19416355                0.10528574                0.57181660                0.02660517                0.04597337
               3.01190503                4.99472893               29.02704803                0.01000000               -0.16410448               -0.20364524                0.10637024                0.67737092                0.06101769                0.02640185
               4.01023427                4.99669107               29.02741530                0.01000001               -0.17888017               -0.18609107                0.10834812                0.75463444                0.09645864                0.03195597
               5.00832743                4.99975589               29.02819513                0.01000001               -0.18765117               -0.18254399                0.11097560                0.80364079                0.11998936                0.05637014
               6.00648125                5.00320100               29.02923789                0.01003030               -0.16101111               -0.20277498                0.11439591                0.78734853                0.12880076                0.09245629
               7.00510720                5.00630530               29.03037897                0.01000000               -0.10733696               -0.25792234                0.11770320                0.73493333                0.12408785                0.13270549
               8.00433451                5.00843424               29.03143758                0.01000001               -0.03274899               -0.30270806                0.12109187                0.61165625                0.10161276                0.17035191
               9.00445223                5.00881703               29.03218122                0.01000000                0.02223270               -0.32410127                0.12584848                0.41393316                0.06080607                0.18795137
              10.00477917                5.00611927               29.03236754                0.01000000                0.03269410               -0.23617795                0.13025761                0.20268019                0.03734482                0.16405769
               0.02432342                5.99642899               29.03029432                0.49065686               -0.03418770               -0.22077354                0.11228680                0.35366796               -0.00318288                0.11476953
               1.02398154                5.99331049               29.02905424                0.01000001               -0.22061407               -0.12082642                0.11376879                0.44152771               -0.00928268                0.06610814
               2.01991114                5.99233356               29.02769078                0.01000000               -0.30840467               -0.20998236                0.10924435                0.62289597                0.01150585                0.01796888
               3.01781345                5.99252099               29.02737292                0.01000001               -0.22202870               -0.21742079                0.10948288                0.68655673                0.08498878                0.00660976
               4.01547057                5.99478848               29.02774585                0.01000001               -0.23363520               -0.19078488                0.11156150                0.79586505                0.13344174                0.02100085
               5.01314075                5.99794460               29.02866870                0.01003181               -0.22968121               -0.15296897                0.11496285                0.77086648                0.16813595                0.05924722
               6.01087694                6.00119885               29.02998574                0.01000000               -0.19844791               -0.16822058                0.11908289                0.67338288                0.18654480                0.10874071
               7.00917179                6.00381535               29.03149972                0.01000000               -0.12605519               -0.21813775                0.12352883                0.53005051                0.18528660                0.16812921
               8.00835584                6.00547059               29.03294609                0.01000000               -0.04350205               -0.27090038                0.12835357                0.38054639                0.15955008                0.22720481
               9.00830175                6.00592533               29.03399130                0.01008605               -0.00277272               -0.25819451                0.13287399                0.20816262                0.09855920                0.26784699
              10.00830038                6.00482004               29.03417390                0.01000001               -0.00013641               -0.08504729                0.13625109                0.10016148                0.05850330                0.26381023
               0.02744374                6.99610223               29.03076858                0.99999999               -0.03389162               -0.03277302                0.11204338               -0.00059661               -0.00776596                0.03031694
               1.02710482                6.99297053               29.02936630                1.00000000               -0.03399782               -0.03372732                0.11293852               -0.00048509               -0.00856952                0.00790219
               2.02676378                6.98982895               29.02794666                0.01000000               -0.19617895               -0.14216530                0.11402728                0.37053658                0.04111764               -0.00806670
               3.02318124                6.99038051               29.02753974                0.01000001               -0.30179049               -0.30980008                0.11144400                0.73934910                0.11182918               -0.04814017
               4.02072797                6.99287538               29.02795448                0.01001676               -0.29234290               -0.13335714                0.11096565                0.79156176                0.17868196                0.00343952
               5.01733439                6.99669651               29.02918782                0.01000000               -0.33249071               -0.07942237                0.11811608                0.70433673                0.22714629                0.05477126
               6.01407816                6.99983659               29.03092534                0.01000000               -0.29489540               -0.08103690                0.12351420                0.50530989                0.25651794                0.11271327
               7.01143648                7.00194254               29.03304714                0.01000000               -0.21213525               -0.12962160                0.12970803                0.28768082                0.26520643                0.18635419
               8.00983545                7.00301624               29.03519847                0.01000001               -0.10852238               -0.20169109                0.13610420                0.09538529                0.23450167                0.29445902
               9.00926603                7.00365314               29.03682444                0.01000002               -0.04212315               -0.21886428                0.14089074               -0.00173414                0.14266394                0.38225439
              10.00899299                7.00441833               29.03714072                0.01000001               -0.02730395               -0.04882127                0.14343780               -0.02696943                0.07819179                0.43601133
               0.03057490                7.99577353               29.03102907                1.00000000               -0.03297675               -0.03251596                0.10904948               -0.00028427               -0.00090632                0.02196972
               1.03024513                7.99263595               29.02957653                1.00000000               -0.03315033               -0.03308837                0.11040662                0.00014070               -0.00066665                0.00315322
               2.02991189                7.98949025               29.02812837                0.07779519               -0.03455625               -0.03352397                0.11169175               -0.00049270                0.00917360               -0.01573921
               3.02955400                7.98632499               29.02687522                0.01000002               -0.24630427               -0.21899476                0.08117106                0.60920686                0.13848096               -0.08257359
               4.02498580                7.99212134               29.02805906                0.01000000               -0.46438678               -0.04319799                0.11429924                0.82603352                0.25748124               -0.00785482
               5.02026627                7.99635615               29.02964768                0.01000001               -0.46243504                0.03201523                0.11947326                0.56364279                0.28580863                0.04451903
               6.01573710                7.99957811               29.03186559                0.01000000               -0.42602541                0.02907305                0.12734285                0.32831085                0.32725343                0.09874455
               7.01174576                8.00122291               29.03471232                0.01000001               -0.35920765               -0.00359884                0.13505493                0.06552794                0.37827431                0.17201466
               8.00855295                8.00143677               29.03831383                0.01000002               -0.24403925               -0.06760625                0.14433583               -0.18760605                0.36474892                0.29972834
               9.00686497                8.00154805               29.04115876                0.01000000               -0.11611651               -0.15871239                0.15473155               -0.34837826                0.24352738                0.65381912
              10.00623062                8.00384361               29.04244098                0.01000000               -0.06343544               -0.22349475                0.16182611               -0.25137367                0.16549118                0.64134354
               0.03371321                8.99545191               29.03133395                1.00000000               -0.03223045               -0.03187605                0.10668071               -0.00029760                0.00240633                0.01928709
               1.03339091                8.99230876               29.02979415                0.99999998               -0.03241658               -0.03237976                0.10803917                0.00009598                0.00139253                0.00223008
               2.03306488                8.98915847               29.02823452                0.99999999               -0.03283065               -0.03282911                0.10946871                0.00007591               -0.00488698               -0.01153707
               3.03273430                8.98600062               29.02657257                0.01000001               -0.29236983               -0.03269005                0.11095695                0.45987438                0.14843581               -0.03827433
               4.02721749                8.99201142               29.02808578                0.01000000               -0.57919153                0.11118076                0.11194068                0.59110717                0.29875111               -0.00991665
               5.02115047                8.99733681               29.02996018                0.01000000               -0.57199381                0.12728116                0.12049048                0.36167849                0.32276025                0.02814047
               6.01577761                9.00041805               29.03252139                0.01000002               -0.51310415                0.11032945                0.12961915                0.15751958                0.38043092                0.06114076
               7.01088838                9.00187057               29.03603411                0.01000002               -0.50097049                0.09383358                0.13891778               -0.02381425                0.47041492                0.10807168
               8.00575820                9.00166411               29.04084028                0.01000003               -0.54983810                0.09649452                0.15104887               -0.22506136                0.71382809                0.20582488
               8.99989162                9.00047889               29.04966514                0.99999998               -0.31919042               -0.07933428                0.17163689               -0.40761999                0.44544789                0.42706767
               9.99937439                8.99994843               29.04957475                1.00000000               -0.05172294               -0.22092910                0.17339609               -0.36934975               -0.00035783                0.35776169
               0.03685525                9.99513601               29.03153918                1.00000000               -0.03147530               -0.03159072                0.10429881               -0.00056220                0.01339940                0.01434350
               1.03654049                9.99198835               29.02998736                1.00000000               -0.03168469               -0.03204105                0.10566498               -0.00015829                0.01679513                0.00089002
               2.03622155                9.98883367               29.02850483                0.99999999               -0.03209762               -0.03247957                0.10710552               -0.00019093                0.01676230               -0.00359849
               3.03589854                9.98567119               29.02695675                0.15023095               -0.53749013               -0.03294247                0.10849434                0.59198857                0.14733759               -0.00436407
               4.02547175                9.99434495               29.02809316                0.01000000               -0.84026692                0.23335365                0.11228910                0.48695552                0.27047898                0.00071910
               5.01909320                9.99890177               29.02997111                0.01000000               -0.55590055                0.15649595                0.11919602                0.16626117                0.31809515                0.02138594
               6.01435374               10.00178470               29.03260100                0.01000001               -0.45348940                0.13666513                0.12974832                0.06750369                0.39137941                0.03940944
               7.01002342               10.00309959               29.03634118                0.01000657               -0.44551695                0.12290184                0.13998260               -0.00739907                0.52715698                0.06444257
               8.00544340               10.00336666               29.04205772                0.01000002               -0.47975803                0.17025463                0.15406361               -0.18839117                0.70033345                0.14969390
               9.00042825                9.99996136               29.04963651                1.00000000               -0.27694282               -0.05175289                0.17358150               -0.14341810                0.38375332                0.00029417
               9.99990454                9.99942503               29.04954611                1.00000000               -0.05237102               -0.05234029                0.17534068               -0.00061809                0.00033603               -0.00033579
               0.00113834                0.00263088               30.02502526                1.00000000               -0.02489177               -0.02400546                0.08053878                0.00062750               -0.00336263                0.00390480
               1.00088942                0.00126808               30.02510525                1.00000000               -0.02559003               -0.02547813                0.08526552                0.00073456               -0.00361832               -0.00127820
               2.00062653               -0.00009694               30.02517738                0.01000000               -0.01992355               -0.02695093                0.08999213                0.03288372                0.06280975               -0.00156483
               3.00049095               -0.00082124               30.02658799                0.01000003               -0.02764797               -0.00464311                0.09337924                0.02892806                0.13238572                0.00675398
               4.00007358                0.00078267               30.02816497                0.01000000               -0.08406022                0.01196165                0.09439293                0.11648773                0.15055962               -0.00569415
               4.99880974                0.00498087               30.03006766                0.01000001               -0.27239102                0.02983983                0.09564509                0.30568435                0.18641504               -0.01564502
               5.99462575                0.01325598               30.03258449                0.18019621               -0.22428544               -0.02945271                0.09801498                0.33810957                0.10756371               -0.00114704
               6.99432403                0.01478714               30.03346531                1.00000000               -0.03123330               -0.03119659                0.10458801                0.00099941                0.01601778               -0.00471430
               7.99400109                0.01631489               30.03414494                0.99999998               -0.03318081               -0.03302425                0.11052807                0.00091752                0.00795522               -0.00048974
               8.99366042                0.01783971               30.03486080                1.00000000               -0.03494886               -0.03480442                0.11647377                0.00090676                0.00788726                0.00096021
               9.99330211                0.01936292               30.03553777                1.00000000               -0.03583056               -0.03667597                0.12242672                0.00103237                0.00588769                0.00530593
               0.00250741                1.00239083               30.02490303                1.00000000               -0.02467422               -0.02389296                0.07986487               -0.00008319                0.00141024                0.00448228
               1.00226067                1.00101330               30.02498016                0.01000000               -0.02536903               -0.02541703                0.08459147                0.00002377                0.00350018               -0.00322584
               2.00200003                0.99963355               30.02509769                0.01000000               -0.09601246               -0.04363273                0.08931839               -0.00636666                0.07665059                0.04718719
               3.00034042                0.99913232               30.02664137                0.01000001               -0.18313189               -0.00736195                0.09332992                0.08797959                0.12690109                0.01766198
               3.99833740                1.00090229               30.02800884                0.01000000               -0.23552440                0.00470639                0.09487943                0.24840737                0.11484959                0.00170700
               4.99562993                1.00527927               30.02959273                0.01000000               -0.26168388               -0.00613440                0.09630283                0.48528125                0.13907952               -0.00894901
               5.99310372                1.01296145               30.03179886                0.01000001               -0.14126813               -0.19057494                0.09727682                0.44920756                0.08311425               -0.03466440
               6.99280457                1.01447517               30.03259559                0.99999999               -0.03098713               -0.03108099                0.10384204                0.00015610                0.00681172               -0.00459398
               7.99248398                1.01598465               30.03326955                0.99998282               -0.03295522               -0.03293691                0.10978249                0.00003772                0.00125132               -0.00037947
               8.99214547                1.01749167               30.03395169                0.99999999               -0.03473747               -0.03471163                0.11575326               -0.00002951                0.00118256                0.00069947
               9.99178923                1.01899616               30.03462356                1.00000000               -0.03562415               -0.03656383                0.12171281                0.00004257                0.00057752                0.00654784
               0.00389173                2.00215302               30.02478763                0.01000000               -0.02445673               -0.03027934                0.07919094               -0.02139659                0.00190750                0.08520332
               1.00364716                2.00075974               30.02481651                0.01000000               -0.07557790               -0.07226814                0.08391716               -0.03671699                0.05956782                0.08011330
               2.00238017                1.99903041               30.02599854                0.01000001               -0.13326806               -0.07989080                0.09158034                0.02828858                0.09199016                0.08270676
               3.00098180                1.99903152               30.02683666                0.01000000               -0.17426974               -0.04966803                0.09499132                0.23328657                0.07797654                0.03593265
               3.99889478                2.00087680               30.02790358                0.01000000               -0.22627974               -0.03970211                0.09719245                0.44701718                0.08498573                0.01539561
               4.99645621                2.00485818               30.02912701                0.01000001               -0.22403869               -0.09186027                0.09913156                0.61781837                0.07769685                0.00185398
               5.99441400                2.00944448               30.03033452                0.01000000               -0.25761244               -0.26067991                0.10144242                0.65980206                0.07448007               -0.03585246
               6.99130396                2.01416552               30.03172374                0.01000000               -0.17143305               -0.15202626                0.10305027                0.39767107                0.03165747               -0.00364995
               7.99098534                2.01565615               30.03239413                0.10078322               -0.03278251               -0.03604790                0.10922404                0.00394595               -0.00551104                0.01558913
               8.99064831                2.01714548               30.03303739                0.99999997               -0.03456843               -0.03452622                0.11521807               -0.00000735               -0.00397052               -0.00142057
               9.99029397                2.01863165               30.03373730                1.00000000               -0.03543340               -0.03634625                0.12093168                0.00001634               -0.00122528                0.00640804
               0.00486605                3.00178524               30.02627632                0.01000000               -0.02171077               -0.02535380                0.08718152               -0.00284917                0.01102120                0.16718725
               1.00464894                2.99956793               30.02636017                0.01000001               -0.02860130               -0.14844610                0.09130344                0.04266337                0.02022736                0.14355041
               2.00429402                2.99803574               30.02664861                0.01000000               -0.07445909               -0.14368741                0.09511568                0.21171952                0.04289391                0.07472586
               3.00315976                2.99813896               30.02721618                0.01000000               -0.14214758               -0.12287086                0.09832031                0.40983020                0.05952241                0.04587283
               4.00145107                3.00010825               30.02795965                0.01002463               -0.18705678               -0.11359813                0.10081552                0.59518532                0.06656829                0.02933909
               4.99941863                3.00344206               30.02885742                0.01000000               -0.22293241               -0.15016092                0.10305787                0.73745803                0.06864773                0.02393894
               5.99699243                3.00774785               30.02986893                0.01000001               -0.24361525               -0.18740261                0.10478227                0.75719111                0.05927428                0.03228890
               6.99454632                3.01143464               30.03086901                0.01000001               -0.37047480               -0.22861026                0.10203185                0.78513157                0.04177194                0.02928798
               7.98958293                3.01526369               30.03183631                0.01000002               -0.26882485               -0.17306735                0.15997327                0.63742150               -0.03013844                0.06912944
               8.98916982                3.01680114               30.03208587                0.01000000               -0.03828537               -0.20093748                0.11483557                0.48917390               -0.02598877                0.06421509
               9.98881722                3.01826924               30.03282501                0.51615022               -0.03526022               -0.42762857                0.12008774                0.56565320               -0.00163559                0.04938260
               0.00826936                4.00164595               30.02776639                0.01000003               -0.00194281               -0.05404784                0.09453734                0.10758343               -0.00268316                0.17622743
               1.00824993                3.99779081               30.02753023                0.01000000               -0.01129132               -0.21396095                0.09755658                0.23238841                0.00585728                0.11943705
               2.00804353                3.99615666               30.02745130                0.01000000               -0.05720171               -0.20783384                0.10011107                0.42867608                0.02744519                0.07321994
               3.00710590                3.99657410               30.02766212                0.01002373               -0.12740739               -0.17498197                0.10249805                0.58317863                0.05177924                0.04347625
               4.00549539                3.99860484               30.02817122                0.01000000               -0.17700659               -0.16970652                0.10480002                0.72180002                0.07115755                0.03730729
               5.00356577                4.00185496               30.02894618                0.01000001               -0.19650701               -0.17523550                0.10720555                0.81326678                0.08280827                0.04923538
               6.00156525                4.00569643               30.02990047                0.01000001               -0.20375057               -0.20992793                0.10932919                0.86983180                0.08332108                0.07090786
               6.99949075                4.00959331               30.03090978                0.01000444               -0.15989859               -0.23276633                0.11428631                0.85880987                0.06870760                0.09974375
               7.99836727                4.01219480               30.03180589                0.01000000               -0.10322589               -0.31320111                0.11022490                0.91898994                0.05179464                0.11735877
               8.99742624                4.01312673               30.03248471                0.01000000                0.01517894               -0.37301675                0.12179745                0.66455944                0.02072363                0.14114911
               9.99867085                4.01007907               30.03280381                0.01000000                0.12446157               -0.59049521                0.12497036                0.50180671                0.01221325                0.09625140
               0.01472798                5.00070428               30.02936619                0.01000000                0.00580146               -0.26362288                0.10240792                0.32118915               -0.00628207                0.20206833
               1.01478600                4.99528871               30.02872224                0.01000000               -0.03218594               -0.23256499                0.10420157                0.50542483                0.00205432                0.12402972
               2.01408426                4.99387906               30.02822135                0.01000001               -0.12054196               -0.20102863                0.10540243                0.60826806                0.02472587                0.05250420
               3.01237516                4.99463932               30.02811087                0.01000000               -0.17390265               -0.21100495                0.10656436                0.71763075                0.05930770                0.03265436
               4.01060621                4.99671412               30.02850105                0.01000001               -0.18913906               -0.19288462                0.10880756                0.79691884                0.09504605                0.03770068
               5.00859237                4.99993735               30.02930673                0.01000001               -0.19777475               -0.19003541                0.11158101                0.84746370                0.11845104                0.06277053
               6.00665071                5.00354929               30.03038390                0.01001818               -0.16841169               -0.21215258                0.11492685                0.82889795                0.12682797                0.09991932
               7.00522414                5.00677932               30.03155642                0.01000000               -0.11107035               -0.27116250                0.11801872                0.77398118                0.12158096                0.14123508
               8.00442931                5.00899967               30.03264327                0.01000001               -0.03237003               -0.31646198                0.12217346                0.64394190                0.10083780                0.17958407
               9.00457674                5.00934081               30.03343992                0.01000000                0.02596808               -0.34157652                0.12627602                0.43459339                0.06223749                0.19580997
              10.00494867                5.00645933               30.03367422                0.01000003                0.03719281               -0.24941398                0.13126397                0.21261038                0.03860679                0.17131933
               0.02552428                5.99637349               30.03141391                0.46039068               -0.03406307               -0.23269510                0.11143054                0.37826198               -0.00318844                0.12154960
               1.02518365                5.99313951               30.03019107                0.01000001               -0.23329974               -0.12440676                0.11340346                0.46999420               -0.01218145                0.07265508
               2.02085828                5.99213609               30.02878470                0.01000000               -0.32800958               -0.21687019                0.10952913                0.66059875                0.00779555                0.02459881
               3.01862346                5.99235400               30.02847778                0.01000001               -0.23612753               -0.22228246                0.11033327                0.72571848                0.08338328                0.00980102
               4.01613573                5.99474715               30.02886089                0.01000001               -0.24717960               -0.19750531                0.11203889                0.83873753                0.13219017                0.02562621
               5.01367986                5.99805426               30.02982136                0.01001960               -0.24172471               -0.15818656                0.11559939                0.81037312                0.16809416                0.06503175
               6.01130124                6.00145337               30.03118113                0.01000000               -0.20799298               -0.17580631                0.12003353                0.70778727                0.18638062                0.11543230
               7.00952001                6.00417006               30.03273900                0.01000000               -0.13083100               -0.22870682                0.12469701                0.55594345                0.18547751                0.17595912
               8.00868462                6.00586556               30.03423501                0.01000000               -0.04307848               -0.28621472                0.12953705                0.39838230                0.15997444                0.23603430
               9.00865844                6.00629520               30.03531963                0.01006396                0.00006962               -0.27288118                0.13381934                0.21784404                0.09888912                0.27705282
              10.00868601                6.00509080               30.03553828                0.01000000                0.00275761               -0.09024877                0.13754221                0.10454097                0.05886631                0.27287721
               0.02876117                6.99605038               30.03188663                0.99999999               -0.03378879               -0.03251735                0.11144265               -0.00062141               -0.00830570                0.03114801
               1.02842328                6.99280058               30.03049586                1.00000000               -0.03397072               -0.03367766                0.11286065               -0.00051428               -0.00894156                0.00864186
               2.02808175                6.98954166               30.02908957                0.01000000               -0.20724052               -0.14673899                0.11445823                0.39412684                0.03692843               -0.00441106
               3.02427847                6.99019367               30.02861653                0.01000001               -0.32005238               -0.32178151                0.10971379                0.77944702                0.10825611               -0.04999998
               4.02168070                6.99276401               30.02907878                0.01000824               -0.30924288               -0.13720333                0.11344992                0.82900632                0.18156015                0.00553651
               5.01809361                6.99677362               30.03037109                0.01000000               -0.34950249               -0.08136157                0.11895984                0.73988385                0.22960051                0.05977316
               6.01469065                7.00003317               30.03216561                0.01000000               -0.30813946               -0.08377895                0.12464309                0.52950281                0.25848535                0.11861950
               7.01193082                7.00220518               30.03434951                0.01000000               -0.22094208               -0.13584128                0.13087882                0.30054878                0.26757293                0.19326564
               8.01027181                7.00327537               30.03656481                0.01000001               -0.11112158               -0.21282259                0.13745210                0.09768472                0.23616246                0.30205696
               9.00970839                7.00388319               30.03824286                0.01000002               -0.04117567               -0.23206656                0.14283947               -0.00338274                0.14421323                0.39193293
              10.00944830                7.00465436               30.03860038                0.01000000               -0.02600899               -0.05261375                0.14685694               -0.02823295                0.08002256                0.44879404
               0.03201145                7.99572314               30.03211793                1.00000000               -0.03293689               -0.03239780                0.10865911               -0.00025539               -0.00093811                0.02177960
               1.03168208                7.99246596               30.03068147                1.00000000               -0.03318644               -0.03312241                0.11052548                0.00014061               -0.00069653                0.00315695
               2.03134773                7.98920131               30.02924867                0.08512562               -0.03460205               -0.03371866                0.11232236               -0.00045838                0.00218098               -0.01556616
               3.03099004                7.98591837               30.02787168                0.01000002               -0.26059059               -0.23020545                0.10455626                0.64048290                0.13872021               -0.08555439
               4.02613591                7.99200308               30.02917293                0.01000000               -0.48908285               -0.04323421                0.11355533                0.86650749                0.26450351               -0.00453021
               5.02120839                7.99642702               30.03085806                0.01000001               -0.48380887                0.03472499                0.12160767                0.59155844                0.29097573                0.04784351
               6.01645974                7.99977779               30.03314307                0.01000000               -0.44598054                0.03192372                0.12839889                0.34355482                0.33153236                0.10415222
               7.01228878                8.00145323               30.03606949                0.01000001               -0.37497135               -0.00328873                0.13647594                0.06606327                0.38328748                0.17757438
               8.00896031                8.00160911               30.03976113                0.01000002               -0.25384915               -0.07142971                0.14547086               -0.19990874                0.37148457                0.30648092
               9.00721179                8.00165387               30.04272285                0.01001583               -0.11906503               -0.16911049                0.15767554               -0.36544662                0.24711704                0.66461856
              10.00657901                8.00403852               30.04407834                0.01000000               -0.06327850               -0.23453110                0.16450131               -0.26133073                0.16832961                0.65287408
               0.03527042                8.99540242               30.03239985                1.00000000               -0.03224944               -0.03181387                0.10648551               -0.00026652                0.00242856                0.01942173
               1.03494792                8.99213813               30.03087616                0.99999998               -0.03251205               -0.03247525                0.10835786                0.00009585                0.00145596                0.00233053
               2.03462018                8.98886729               30.02933335                0.99999999               -0.03307837               -0.03308032                0.11030141                0.00007802               -0.00475946               -0.01137041
               3.03428635                8.98558957               30.02768881                0.01000002               -0.30589879               -0.03313143                0.11230435                0.48064684                0.14851469               -0.03108707
               4.02850220                8.99189933               30.02921803                0.01000000               -0.60681453                0.11742168                0.11486568                0.62085034                0.30150457               -0.00762085
               5.02215006                8.99746812               30.03117309                0.01000000               -0.59833300                0.13444381                0.12226044                0.37885405                0.32878285                0.02946912
               6.01653554                9.00067164               30.03383013                0.01000002               -0.53646471                0.11642701                0.13230146                0.16457291                0.38651713                0.06514334
               7.01142077                9.00213941               30.03742992                0.01000002               -0.52312684                0.09936740                0.13954927               -0.02783522                0.48101338                0.11134519
               8.00607300                9.00184678               30.04235340                0.01000003               -0.57253611                0.10166970                0.15195965               -0.23999142                0.72884867                0.20945021
               8.99997005                9.00050098               30.05138250                0.99999998               -0.33103098               -0.08353314                0.17183893               -0.42910210                0.45481213                0.43382602
               9.99945238                8.99996374               30.05130901                1.00000000               -0.05176643               -0.22989757                0.17345513               -0.38319889               -0.00036130                0.36169489
               0.03853471                9.99508686               30.03258199                1.00000000               -0.03155694               -0.03155611                0.10430229               -0.00061129                0.01349015                0.01446432
               1.03821914                9.99181646               30.03104637                1.00000000               -0.03184301               -0.03216743                0.10618440               -0.00023614                0.01689762                0.00097294
               2.03789785                9.98853970               30.02958077                0.99999999               -0.03241014               -0.03275827                0.10814115               -0.00026830                0.01684813               -0.00352247
               3.03757094                9.98525574               30.02804913                0.17997981               -0.56117429               -0.03338247                0.11004752                0.61904893                0.14880720               -0.00438016
               4.02667436                9.99435151               30.02923086                0.01000000               -0.87788919                0.24521862                0.11499030                0.51022442                0.27516226                0.00275242
               5.02001315                9.99911590               30.03117376                0.01000000               -0.57972279                0.16477787                0.12138924                0.17405014                0.32420631                0.02229193
               6.01507991               10.00210634               30.03391589                0.01000001               -0.47281095                0.14346945                0.13372475                0.07067101                0.39852867                0.04126236
               7.01055694               10.00344058               30.03774787                0.01000001               -0.46404989                0.13011760                0.13955793               -0.00957491                0.54234001                0.06613644
               8.00579891               10.00364251               30.04359660                0.01000002               -0.50220721                0.17957286                0.15475945               -0.20027803                0.71736690                0.15195433
               9.00051279                9.99998321               30.05137204                1.00000000               -0.29047003               -0.05177697                0.17352432               -0.15582247                0.39274145                0.00029521
               9.99998951                9.99944057               30.05129853                1.00000000               -0.05232811               -0.05231678                0.17514048               -0.00055112                0.00033791               -0.00033760
               0.00100109                0.00279553               31.02582631                1.00000000               -0.02475435               -0.02376956                0.07967076                0.00078877               -0.00336266                0.00390523
               1.00075354                0.00138375               31.02595767                1.00000000               -0.02557294               -0.02549742                0.08521833                0.00086367               -0.00361827               -0.00127825
               2.00048963               -0.00002953               31.02608117                0.01000001               -0.02273295               -0.02722543                0.09076583                0.03290778                0.06189234               -0.00156481
               3.00029888               -0.00080345               31.02752480                0.01000308               -0.03359628               -0.00067498                0.09386663                0.02911203                0.12980777                0.00764671
               3.99981770                0.00088413               31.02910272                0.01000000               -0.09279504                0.01715858                0.09162795                0.12212195                0.14875908               -0.00431123
               4.99844298                0.00530230               31.03101485                0.01000001               -0.29225103                0.03625864                0.09460555                0.32369208                0.18432988               -0.01431688
               5.99397268                0.01403384               31.03355759                0.17164074               -0.23844144               -0.02906250                0.09662112                0.35863289                0.10611433               -0.00115849
               6.99367415                0.01561320               31.03450702                1.00000000               -0.03098240               -0.03098052                0.10378201                0.00107717                0.01634809               -0.00470657
               7.99335303                0.01718886               31.03524827                0.99999998               -0.03305552               -0.03294087                0.11012712                0.00099794                0.00792596               -0.00055748
               8.99301304                0.01876184               31.03602557                1.00000000               -0.03494291               -0.03482233                0.11647297                0.00099212                0.00785876                0.00091718
               9.99265417                0.02033351               31.03676402                1.00000000               -0.03588686               -0.03684422                0.12283052                0.00110156                0.00586722                0.00531281
               0.00242075                1.00255783               31.02569844                1.00000000               -0.02460418               -0.02368730                0.07921760               -0.00004494                0.00141042                0.00448285
               1.00217471                1.00112878               31.02582694                0.01000000               -0.02542239               -0.02547573                0.08476493                0.00002984                0.00350056               -0.00322598
               2.00191230                0.99969821               31.02599585                0.01000000               -0.10207677               -0.04420845                0.09031267               -0.00806941                0.07596202                0.04849863
               3.00013317                0.99918980               31.02757712                0.01000001               -0.19631290               -0.00443680                0.09346670                0.09221999                0.12315880                0.01844716
               3.99798604                1.00105571               31.02895389                0.01000000               -0.25140649                0.00890890                0.09247401                0.26175439                0.11387230                0.00438714
               4.99510504                1.00566489               31.03055027                0.01000000               -0.27912408               -0.00253514                0.09598497                0.51184517                0.13601454               -0.00578343
               5.99240356                1.01374322               31.03276493                0.01000001               -0.14988136               -0.19911031                0.09597442                0.47468858                0.08081793               -0.03199569
               6.99210742                1.01530339               31.03363051                0.99998315               -0.03074367               -0.03088392                0.10312117                0.00011764                0.00711815               -0.00464726
               7.99178869                1.01685945               31.03436539                0.99999999               -0.03283878               -0.03283346                0.10946987                0.00001989                0.00122092               -0.00032234
               8.99145064                1.01841362               31.03510940                0.99999999               -0.03475832               -0.03470109                0.11584734                0.00002800                0.00122247                0.00076801
               9.99109352                1.01996506               31.03584341                1.00000000               -0.03571176               -0.03678702                0.12224954                0.00010272                0.00063900                0.00648935
               0.00385830                2.00232178               31.02557741                0.01000000               -0.02445410               -0.02918158                0.07876446               -0.02215990                0.00190773                0.08947245
               1.00361376                2.00087424               31.02565765                0.01000000               -0.07955441               -0.07388301                0.08431132               -0.03827356                0.06088017                0.08398444
               2.00226721                1.99908630               31.02691729                0.01000001               -0.14139875               -0.08185155                0.09212496                0.02979743                0.09333876                0.08582017
               3.00078578                1.99910782               31.02778798                0.01000000               -0.18447549               -0.04993589                0.09472059                0.24609978                0.07754623                0.03927832
               3.99857770                2.00106230               31.02887403                0.01000000               -0.23967025               -0.03903294                0.09720740                0.47159182                0.08306892                0.01993361
               4.99599238                2.00525160               31.03011815                0.01000001               -0.23748748               -0.09432958                0.09921071                0.65050047                0.07515499                0.00696259
               5.99382795                2.01005164               31.03134697                0.01000000               -0.27160525               -0.27230651                0.10152376                0.69418767                0.07077754               -0.03040394
               6.99056027                2.01499552               31.03275083                0.01000000               -0.17923736               -0.15893344                0.10247279                0.41133548                0.02942742               -0.00716276
               7.99024320                2.01653219               31.03348596                0.23606182               -0.03261415               -0.02140305                0.10879509               -0.01475393               -0.00535798                0.05398488
               8.98990799                2.01806782               31.03419101                0.99999997               -0.03449354               -0.03444584                0.11522688                0.00017789               -0.00398770               -0.00109724
               9.98955333                2.01959777               31.03494968                1.00000000               -0.03546567               -0.03666688                0.12168724                0.00011579               -0.00137144                0.00617967
               0.00487265                3.00197420               31.02714583                0.01000000               -0.02279236               -0.02249921                0.08670911               -0.00213060                0.01120284                0.17602431
               1.00464472                2.99965112               31.02727310                0.01000001               -0.02989877               -0.15318773                0.09122107                0.04609259                0.02016848                0.15084898
               2.00427467                2.99806118               31.02760119                0.01000000               -0.07827795               -0.14889081                0.09536198                0.22532285                0.04217668                0.07932693
               3.00307916                2.99819109               31.02820055                0.01000000               -0.15002866               -0.12695421                0.09865139                0.43361342                0.05789915                0.05056394
               4.00127410                3.00027505               31.02896973                0.01002518               -0.19767217               -0.11736310                0.10114317                0.62767185                0.06451967                0.03463878
               4.99912572                3.00377830               31.02988905                0.01000000               -0.23653482               -0.15603647                0.10364967                0.77672157                0.06662310                0.02945627
               5.99654340                3.00829709               31.03093001                0.01000001               -0.26360734               -0.19470484                0.10629316                0.79503395                0.05029460                0.03720782
               6.99385357                3.01212472               31.03181980                0.01000001               -0.40610448               -0.23571287                0.10547862                0.83745623                0.06653648                0.03830383
               7.98842131                3.01643139               31.03368961                0.01000002               -0.27324744               -0.17336165                0.08971162                0.67260874               -0.01372637                0.05774944
               8.98838862                3.01772470               31.03323811                0.01000002               -0.01926837               -0.20957642                0.11465357                0.50085078               -0.06404647                0.06772532
               9.98803594                3.01923173               31.03402855                0.52856612               -0.03526805               -0.44891770                0.12108768                0.59590297               -0.00222552                0.05189394
               0.00846186                4.00187180               31.02870895                0.01000000               -0.00132278               -0.05313272                0.09391665                0.11501915               -0.00297734                0.18531923
               1.00844863                3.99781048               31.02850482                0.01000000               -0.01140793               -0.22221517                0.09726961                0.24783649                0.00519665                0.12686786
               2.00823370                3.99610848               31.02845295                0.01000000               -0.06022246               -0.21579498                0.10011400                0.45529137                0.02622684                0.07923446
               3.00724418                3.99656873               31.02868828                0.01002400               -0.13448868               -0.18123658                0.10272370                0.61694395                0.05024582                0.04874160
               4.00554393                3.99871504               31.02922147                0.01000000               -0.18697031               -0.17598190                0.10526369                0.76136915                0.06952133                0.04256190
               5.00350477                4.00213087               31.03002222                0.01000001               -0.20808585               -0.18210893                0.10801924                0.85651908                0.08075481                0.05477324
               6.00138221                4.00615754               31.03099569                0.01000001               -0.21648391               -0.21891821                0.11074538                0.91875534                0.08174472                0.07712833
               6.99917510                4.01028126               31.03205921                0.01000152               -0.16434032               -0.24119707                0.11134453                0.91666473                0.06138459                0.11159557
               7.99809540                4.01306496               31.03283412                0.01000000               -0.10252128               -0.34172904                0.11301448                0.98207435                0.04750163                0.09762281
               8.99712467                4.01387629               31.03369170                0.01000000                0.01809692               -0.39131965                0.11823916                0.69159278                0.02811809                0.14998565
               9.99845734                4.01061941               31.03405655                0.01000001                0.13326695               -0.62102697                0.12648428                0.52664971                0.01220407                0.10167697
               0.01529566                5.00091155               31.03038668                0.01000001                0.00691057               -0.27661287                0.10161055                0.34170019               -0.00714383                0.21228643
               1.01536477                4.99520681               31.02976275                0.01000000               -0.03367084               -0.24102539                0.10376802                0.53761160                0.00074848                0.13330600
               2.01462225                4.99374528               31.02927566                0.01000001               -0.12766431               -0.20755845                0.10534535                0.64530944                0.02296081                0.05857726
               3.01281148                4.99456635               31.02917932                0.01000000               -0.18414523               -0.21786885                0.10686453                0.75854373                0.05769126                0.03781301
               4.01093934                4.99675542               31.02959145                0.01000001               -0.19989398               -0.19958820                0.10932778                0.83983145                0.09393086                0.04284077
               5.00881360                5.00013612               31.03042675                0.01000001               -0.20856109               -0.19749999                0.11246998                0.89204621                0.11758443                0.06823863
               6.00676812                5.00391872               31.03153643                0.01000931               -0.17670760               -0.22158771                0.11572042                0.87346829                0.12582594                0.10637977
               7.00527945                5.00730078               31.03273934                0.01000000               -0.11501752               -0.28699109                0.11973429                0.81652287                0.12023702                0.14877480
               8.00446777                5.00959681               31.03388105                0.01000001               -0.03067123               -0.33976089                0.12424633                0.67384089                0.10046166                0.19401995
               9.00466603                5.00989831               31.03470674                0.01000000                0.03074622               -0.36064222                0.12813771                0.45329820                0.06188072                0.20389378
              10.00508269                5.00681119               31.03499282                0.01001698                0.04166674               -0.26339955                0.13270357                0.22044193                0.03964233                0.17814393
               0.02670533                5.99633954               31.03252293                0.43025850               -0.03382029               -0.24451901                0.11016973                0.40321876               -0.00320098                0.12806083
               1.02636713                5.99298997               31.03132231                0.01000001               -0.24624914               -0.12769222                0.11264442                0.49880257               -0.01491976                0.07900125
               2.02178035                5.99195731               31.02988136                0.01000000               -0.34811022               -0.22342651                0.10977283                0.69904072                0.00369784                0.03086310
               3.01940492                5.99221136               31.02957959                0.01000001               -0.25047795               -0.22898735                0.11079519                0.76558214                0.08192635                0.01399946
               4.01677079                5.99472328               31.02998663                0.01000001               -0.26112666               -0.20406729                0.11308814                0.88173975                0.13201819                0.02975584
               5.01418239                5.99818087               31.03098068                0.01001068               -0.25419369               -0.16404249                0.11654326                0.85142363                0.16869079                0.07003968
               6.01168691                6.00172579               31.03238641                0.01000000               -0.21774604               -0.18358379                0.12120200                0.74309447                0.18745407                0.12160737
               7.00982747                6.00454144               31.03399366                0.01000001               -0.13561102               -0.24117052                0.12630050                0.58266210                0.18658177                0.18347156
               8.00897469                6.00626974               31.03553683                0.01000000               -0.04256052               -0.30327795                0.13132289                0.41597937                0.16064075                0.24361914
               9.00897626                6.00666345               31.03666769                0.01004738                0.00328625               -0.29048634                0.13584667                0.22651875                0.09914635                0.28516067
              10.00904042                6.00535142               31.03692474                0.01000000                0.00641606               -0.09785230                0.14000283                0.10858307                0.05892688                0.27953283
               0.03005917                6.99602117               31.03299743                0.99999999               -0.03361248               -0.03218191                0.11059768               -0.00063297               -0.00882044                0.03202014
               1.02972305                6.99265297               31.03162352                1.00000000               -0.03387474               -0.03355952                0.11256347               -0.00055401               -0.00929831                0.00944123
               2.02938168                6.98927675               31.03023582                0.01000000               -0.21829440               -0.15110788                0.11469375                0.41592944                0.03435451               -0.00084584
               3.02535716                6.98998661               31.02973402                0.01000001               -0.33885289               -0.33348668                0.11306905                0.81982718                0.10596645               -0.05073550
               4.02260462                6.99267407               31.03022348                0.01000291               -0.32587965               -0.14158975                0.11589273                0.86936860                0.18277335                0.00870777
               5.01883957                6.99685527               31.03156702                0.01000000               -0.36675886               -0.08349307                0.12037486                0.77531188                0.23282215                0.06361302
               6.01526944                7.00024705               31.03341820                0.01000001               -0.32254137               -0.08645748                0.12598962                0.55457542                0.26135196                0.12403790
               7.01238874                7.00247737               31.03566471                0.01000000               -0.23020463               -0.14237223                0.13229596                0.31250897                0.27077581                0.19982447
               8.01066535                7.00353125               31.03794751                0.01000002               -0.11370092               -0.22459760                0.13899529                0.09828973                0.23882151                0.31018005
               9.01011472                7.00408858               31.03968123                0.01000002               -0.03934732               -0.24813327                0.14535472               -0.00816340                0.14516667                0.40283465
              10.00987840                7.00485414               31.04007786                0.01000000               -0.02363170               -0.05794780                0.14946818               -0.03115373                0.08144806                0.45906099
               0.03342907                7.99569590               31.03320225                1.00000000               -0.03286054               -0.03224393                0.10814132               -0.00021255               -0.00097081                0.02158862
               1.03310046                7.99231878               31.03178704                1.00000000               -0.03318846               -0.03312490                0.11053393                0.00013652               -0.00072775                0.00316019
               2.03276530                7.98893516               31.03037482                0.09150008               -0.03481561               -0.03388991                0.11286028               -0.00008991               -0.00045509               -0.01538749
               3.03240415                7.98554162               31.02896634                0.01000002               -0.27379007               -0.23925908                0.11363438                0.67095386                0.13809306               -0.08313384
               4.02728950                7.99189148               31.03033016                0.01000000               -0.51442508               -0.04365003                0.11748381                0.90640317                0.26980199               -0.00239004
               5.02211565                7.99651101               31.03207983                0.01000001               -0.50665864                0.03776116                0.12340924                0.61898053                0.29455687                0.05057420
               6.01715632                7.99999664               31.03443357                0.01000000               -0.46611009                0.03505212                0.12966435                0.35823346                0.33654813                0.10942561
               7.01279345                8.00169399               31.03744184                0.01000001               -0.39135223               -0.00291403                0.13782264                0.06888946                0.38883815                0.18247117
               8.00932928                8.00177779               31.04122324                0.01000002               -0.26516726               -0.07568040                0.14734226               -0.21379872                0.37955626                0.31368008
               9.00749010                8.00170078               31.04431227                0.01016611               -0.12215279               -0.17911776                0.15668363               -0.38338924                0.25531722                0.67632733
              10.00688622                8.00419246               31.04573100                0.01000000               -0.06038777               -0.24460003                0.16194367               -0.26904410                0.17350003                0.65830293
               0.03680916                8.99537629               31.03346366                1.00000000               -0.03226350               -0.03174524                0.10626421               -0.00022014                0.00244924                0.01954631
               1.03648653                8.99199047               31.03196131                0.99999998               -0.03260603               -0.03256970                0.10866955                0.00009342                0.00151638                0.00243080
               2.03615704                8.98859895               31.03044055                0.99999999               -0.03333083               -0.03333930                0.11114473                0.00007068               -0.00463639               -0.01120090
               3.03581991                8.98520143               31.02881866                0.01000004               -0.31968725               -0.03393341                0.11368173                0.50112833                0.14928534               -0.02826280
               4.02976330                8.99180107               31.03038309                0.01000000               -0.63529427                0.12414293                0.11826549                0.64849687                0.30417382               -0.00595351
               5.02311402                8.99761049               31.03240539                0.01000000               -0.62560829                0.14176347                0.12474584                0.39618366                0.33382136                0.03047141
               6.01725113                9.00094809               31.03516742                0.01012973               -0.55643231                0.12208946                0.13420325                0.17012383                0.38943154                0.06941714
               7.01198538                9.00241909               31.03882510                0.01000002               -0.54342695                0.10462098                0.13994999               -0.02671937                0.48908564                0.11279208
               8.00638259                9.00201764               31.04387948                0.01000004               -0.59765589                0.10707805                0.15332740               -0.25377860                0.74340496                0.21362668
               9.00003226                9.00050622               31.05310192                0.99999998               -0.34342192               -0.08562918                0.17204852               -0.44822259                0.46370542                0.43955110
               9.99951415                8.99996214               31.05304385                1.00000000               -0.05181078               -0.23766197                0.17351151               -0.39580418               -0.00036493                0.36502308
               0.04019630                9.99506100               31.03362523                1.00000000               -0.03166349               -0.03152901                0.10438167               -0.00064708                0.01357512                0.01457751
               1.03987966                9.99166739               31.03211105                1.00000000               -0.03202713               -0.03230814                0.10679917               -0.00031763                0.01699660                0.00105594
               2.03955576                9.98826837               31.03066765                0.99999999               -0.03275315               -0.03305846                0.10928883               -0.00035015                0.01693698               -0.00344482
               3.03922460                9.98486295               31.02915770                0.21043691               -0.58526956               -0.03384710                0.11173309                0.64576778                0.15043280               -0.00440278
               4.02785036                9.99437434               31.03039296                0.01000000               -0.91661513                0.25732731                0.11766987                0.53287326                0.27843057                0.00399570
               5.02089230                9.99934628               31.03239890                0.01000000               -0.60500802                0.17357863                0.12447664                0.18103166                0.33009966                0.02312350
               6.01575020               10.00243843               31.03527549                0.01000001               -0.48513958                0.14903351                0.13609631                0.07191415                0.39886152                0.04426173
               7.01118951               10.00378641               31.03913234                0.01000000               -0.47918165                0.13673240                0.13846477               -0.00554099                0.55202667                0.06447816
               8.00616657               10.00391935               31.04515291                0.01000002               -0.53041775                0.19017060                0.15676752               -0.21151280                0.73377895                0.15460712
               9.00058115                9.99998820               31.05310700                1.00000000               -0.30541317               -0.05180289                0.17346966               -0.16911704                0.40090421                0.00029651
              10.00005831                9.99943923               31.05304892                1.00000000               -0.05228434               -0.05229150                0.17493291               -0.00048147                0.00033973               -0.00033965
               0.00080836                0.00296471               32.02661867                1.00000000               -0.02461677               -0.02353350                0.07880207                0.00095017               -0.00336267                0.00390570
               1.00056219                0.00150396               32.02680961                1.00000000               -0.02555575               -0.02551669                0.08517089                0.00099287               -0.00361815               -0.00127834
               2.00029725                0.00004240               32.02699269                0.01000000               -0.02483205               -0.02750009                0.09153973                0.03334094                0.06036322               -0.00156478
               3.00006555               -0.00077294               32.02846533                0.01000003               -0.03692687                0.00110265                0.09306227                0.02558577                0.14231419                0.00669718
               3.99955871                0.00099411               32.02999753                0.01000000               -0.10120447                0.02246108                0.09120258                0.12812990                0.15191301               -0.00615768
               4.99804146                0.00562370               32.03195977                0.01000001               -0.31514173                0.04366022                0.09618021                0.34097313                0.18226081               -0.01241303
               5.99325587                0.01481813               32.03451692                0.16312468               -0.25405692               -0.02859746                0.09507053                0.37951195                0.10397591               -0.00113865
               6.99296032                0.01644602               32.03554095                1.00000000               -0.03074069               -0.03076078                0.10295890                0.00118411                0.01674315               -0.00471487
               7.99264106                0.01806950               32.03634748                0.99999998               -0.03292416               -0.03289974                0.10967573                0.00106434                0.00788020               -0.00053826
               8.99230184                0.01969041               32.03719026                1.00000000               -0.03492494               -0.03488212                0.11642128                0.00104994                0.00783997                0.00094620
               9.99194256                0.02131039               32.03799439                1.00000000               -0.03592802               -0.03701086                0.12318550                0.00114037                0.00587663                0.00538643
               0.00227862                1.00272938               32.02648738                1.00000000               -0.02453411               -0.02348152                0.07857001               -0.00000660                0.00141057                0.00448351
               1.00203328                1.00124879               32.02667546                0.01000000               -0.02547579               -0.02553448                0.08493854                0.00003594                0.00350093               -0.00322618
               2.00176910                0.99976740               32.02690395                0.01000000               -0.10938591               -0.04504646                0.09130756               -0.00956627                0.07425777                0.04945248
               2.99984556                0.99923809               32.02851070                0.01000001               -0.20637064               -0.00167088                0.08797028                0.09808737                0.14539832                0.02137482
               3.99764169                1.00121872               32.02985832                0.01000000               -0.26531885                0.01327603                0.09335453                0.27447457                0.11650282                0.00934952
               4.99453918                1.00606030               32.03151243                0.01000000               -0.30009282                0.00174735                0.09713743                0.53791722                0.13287645               -0.00273721
               5.99163983                1.01453216               32.03371834                0.01000001               -0.15963499               -0.20734058                0.09459308                0.50095551                0.07752762               -0.02842764
               6.99134648                1.01613841               32.03465802                0.99938882               -0.03051609               -0.03065266                0.10243657                0.00007693                0.00760642               -0.00457858
               7.99102951                1.01774050               32.03545895                0.99980259               -0.03272945               -0.03289367                0.10924836                0.00000565                0.00123392               -0.00044397
               8.99069189                1.01934158               32.03626864                0.99999999               -0.03477672               -0.03477901                0.11600631                0.00013898                0.00119384                0.00068412
               9.99033398                1.02094029               32.03706855                1.00000000               -0.03579161               -0.03701466                0.12275797                0.00020257                0.00061192                0.00667466
               0.00376940                2.00249508               32.02636292                0.01000001               -0.02445155               -0.02775994                0.07833800               -0.02233415                0.00190802                0.09360248
               1.00352489                2.00099327               32.02650274                0.01000000               -0.08263911               -0.07555230                0.08470598               -0.03949651                0.06183498                0.08747589
               2.00211662                1.99914148               32.02784104                0.01000001               -0.14744511               -0.08403922                0.09197075                0.03206917                0.09442098                0.08628440
               3.00057599                1.99919365               32.02873107                0.01000000               -0.19453166               -0.04940728                0.09510678                0.26108945                0.07278896                0.04285018
               3.99822599                2.00125963               32.02984772                0.01000000               -0.25448091               -0.03825671                0.09771788                0.49381380                0.08170977                0.02764851
               4.99548637                2.00565865               32.03111123                0.01000001               -0.25145572               -0.09665913                0.09966198                0.68316615                0.07283886                0.01174153
               5.99319687                2.01067132               32.03236500                0.01000000               -0.28664246               -0.28444322                0.10187612                0.73010272                0.06738492               -0.02357439
               6.98975352                2.01583297               32.03377319                0.01000000               -0.18794358               -0.16230358                0.10205193                0.42556391                0.02630565               -0.00001017
               7.98943800                2.01741163               32.03457003                0.24399585               -0.03243409               -0.03349927                0.10841717                0.00112238               -0.00545292               -0.00294760
               8.98910484                2.01899483               32.03534192                0.99999996               -0.03443953               -0.03433087                0.11524296                0.00082684               -0.00388208               -0.00144797
               9.98874921                2.02057010               32.03617105                1.00000000               -0.03556254               -0.03700166                0.12249544                0.00041991               -0.00116741                0.00654929
               0.00483556                3.00217418               32.02801050                0.01000000               -0.02386085               -0.01918052                0.08625779               -0.00120931                0.01130220                0.18457975
               1.00459695                2.99973775               32.02818459                0.01000001               -0.03127281               -0.15773762                0.09106364                0.04987109                0.02019808                0.15712157
               2.00421011                2.99808662               32.02855584                0.01000000               -0.08238799               -0.15373013                0.09553942                0.23900956                0.04103136                0.08323110
               3.00294920                2.99824995               32.02918921                0.01000000               -0.15785718               -0.13117432                0.09903173                0.45666342                0.05618854                0.05494275
               4.00105296                3.00045358               32.02998251                0.01002585               -0.20791919               -0.12126325                0.10146294                0.66015298                0.06232491                0.03933542
               4.99879081                3.00412712               32.03093041                0.01000000               -0.24926986               -0.16229572                0.10427517                0.81549941                0.06522470                0.03481980
               5.99606757                3.00884329               32.03199480                0.01000001               -0.28366788               -0.20193726                0.10655799                0.83657471                0.05387316                0.04298637
               6.99311745                3.01289234               32.03297858                0.01000001               -0.40887329               -0.24636423                0.11583389                0.86768584                0.02098069                0.03901024
               7.98789010                3.01707052               32.03363054                0.01000001               -0.27837503               -0.17279027               -0.00727653                0.70047211               -0.01342957                0.06677621
               8.98754995                3.01865497               32.03437894                0.01000001               -0.03491381               -0.21685066                0.11421356                0.53955378               -0.00754665                0.06833875
               9.98719182                3.02020025               32.03524676                0.55117469               -0.03581290               -0.47108792                0.12233611                0.62632978               -0.00181563                0.05549273
               0.00861809                4.00211147               32.02964472                0.01000000               -0.00082150               -0.05190743                0.09311979                0.12257432               -0.00305100                0.19377609
               1.00860987                3.99783852               32.02947562                0.01000000               -0.01167367               -0.23001998                0.09670547                0.26352147                0.00468210                0.13358826
               2.00838461                3.99606687               32.02945358                0.01000000               -0.06337906               -0.22322122                0.09996542                0.48242240                0.02517044                0.08446053
               3.00734229                3.99657016               32.02971659                0.01002458               -0.14163702               -0.18728355                0.10273558                0.65157445                0.04886671                0.05326473
               4.00555187                3.99883436               32.03027649                0.01000000               -0.19678217               -0.18239024                0.10558787                0.80135040                0.06836779                0.04731728
               5.00340665                4.00241273               32.03110657                0.01000001               -0.21943629               -0.18917317                0.10863670                0.90032428                0.08042432                0.05967651
               6.00116315                4.00663257               32.03211538                0.01000001               -0.22633175               -0.22785648                0.11224606                0.96400114                0.07964140                0.08124877
               6.99888001                4.01090568               32.03313667                0.01000003               -0.17391638               -0.25359888                0.10810378                0.97450273                0.06497144                0.11158864
               7.99768482                4.01395582               32.03406618                0.01000000               -0.10569180               -0.34465784                0.12463858                1.01665868                0.04763109                0.14875167
               8.99676618                4.01465781               32.03484949                0.01000000                0.02502090               -0.41061354                0.11656571                0.71725751                0.02295250                0.15519557
               9.99818524                4.01114834               32.03533349                0.01000000                0.14190612               -0.65231176                0.12850342                0.54792918                0.01661372                0.10711333
               0.01583296                5.00113603               32.03139840                0.01000001                0.00790225               -0.28937572                0.10075340                0.36230292               -0.00781970                0.22162090
               1.01591199                4.99513735               32.03079760                0.01000000               -0.03530257               -0.24898699                0.10303237                0.57015588               -0.00042875                0.14206528
               2.01512691                4.99362219               32.03032826                0.01000001               -0.13493953               -0.21368408                0.10494590                0.68286386                0.02131092                0.06423614
               3.01321319                4.99450427               32.03024816                0.01000000               -0.19447564               -0.22454344                0.10689772                0.79990057                0.05636275                0.04281647
               4.01123740                4.99680578               32.03068761                0.01000001               -0.21070551               -0.20620642                0.10976176                0.88312548                0.09346474                0.04752605
               5.00899908                5.00034366               32.03155613                0.01000001               -0.21913799               -0.20489763                0.11326818                0.93638163                0.11759960                0.07293885
               6.00685464                5.00428616               32.03269831                0.01000303               -0.18574107               -0.23144136                0.11664194                0.91754534                0.12671105                0.11107982
               7.00528426                5.00782036               32.03395110                0.01000000               -0.11917468               -0.29957819                0.12173125                0.85562054                0.12142563                0.15612036
               8.00447115                5.01017736               32.03512820                0.01000001               -0.02908411               -0.36421697                0.12532460                0.70804603                0.09996666                0.19584431
               9.00470258                5.01044270               32.03600267                0.01000000                0.03491015               -0.38169447                0.13041338                0.47319661                0.06029785                0.21204170
              10.00516935                5.00715402               32.03632829                0.01000000                0.04667673               -0.27759651                0.13448023                0.22939218                0.03761310                0.18311121
               0.02786151                5.99632396               32.03361730                0.40016877               -0.03346895               -0.25622824                0.10852849                0.42846270               -0.00320968                0.13416018
               1.02752683                5.99285878               32.03244396                0.01000001               -0.25932769               -0.13063374                0.11151472                0.52780820               -0.01735366                0.08506734
               2.02267496                5.99179319               32.03098015                0.01000000               -0.36850541               -0.22954542                0.10979239                0.73759720                0.00039816                0.03687650
               3.02015672                5.99207929               32.03069368                0.01000001               -0.26499813               -0.23560337                0.11127593                0.80569943                0.08076049                0.01868306
               4.01737500                5.99471023               32.03112266                0.01000001               -0.27514115               -0.21055739                0.11400460                0.92506314                0.13183177                0.03438703
               5.01465389                5.99831478               32.03215222                0.01000369               -0.26688265               -0.16984629                0.11766960                0.89248794                0.16975892                0.07463663
               6.01203735                6.00200375               32.03360517                0.01000000               -0.22763344               -0.19096958                0.12242258                0.77823479                0.18929496                0.12692943
               7.01010123                6.00491412               32.03526501                0.01000001               -0.14069693               -0.25334355                0.12773039                0.61002484                0.18844410                0.18906095
               8.00922341                6.00667148               32.03686146                0.01000000               -0.04238881               -0.31924002                0.13312166                0.43351929                0.16168505                0.25047261
               9.00925345                6.00702392               32.03803657                0.01003693                0.00635160               -0.30737012                0.13777995                0.23518626                0.09931451                0.29283603
              10.00935044                6.00559641               32.03833834                0.01000000                0.00969896               -0.10623500                0.14236007                0.11298132                0.05891368                0.28646169
               0.03133258                6.99601147               32.03409858                0.99999999               -0.03336634               -0.03176377                0.10952225               -0.00063224               -0.00930076                0.03297200
               1.03099892                6.99252467               32.03274713                1.00000000               -0.03371202               -0.03337032                0.11205183               -0.00060217               -0.00963137                0.01034540
               2.03065834                6.98903129               32.03138345                0.01000000               -0.22943885               -0.15521801                0.11473072                0.43759460                0.03277770                0.00251927
               3.02641014                6.98979221               32.03087791                0.01000001               -0.35775839               -0.34541204                0.11638431                0.86015922                0.10428853               -0.04514891
               4.02350317                6.99259463               32.03139664                0.01000003               -0.34274053               -0.14572828                0.11823626                0.90989935                0.18334559                0.01253183
               5.01955533                6.99694673               32.03277858                0.01000000               -0.38415884               -0.08573225                0.12186192                0.81071838                0.23463842                0.06802408
               6.01582000                7.00046677               32.03468540                0.01000001               -0.33691514               -0.08933305                0.12731529                0.57990563                0.26460360                0.12861416
               7.01281703                7.00275349               32.03699543                0.01000000               -0.23941338               -0.14859222                0.13369598                0.32502129                0.27445629                0.20560835
               8.01103173                7.00379256               32.03934471                0.01000002               -0.11678263               -0.23603650                0.14035194                0.09996962                0.24336427                0.31852958
               9.01048137                7.00429529               32.04114996                0.01000002               -0.03738658               -0.26320982                0.14664221               -0.01031572                0.14829211                0.41268439
              10.01028400                7.00502932               32.04158974                0.01000000               -0.01973779               -0.06789101                0.15097131               -0.03354230                0.08228924                0.46738119
               0.03482246                7.99568868               32.03428076                1.00000000               -0.03274983               -0.03205471                0.10750102               -0.00015563               -0.00100258                0.02139867
               1.03449496                7.99219137               32.03289215                0.99999999               -0.03315718               -0.03309698                0.11043558                0.00012927               -0.00075802                0.00316794
               2.03415932                7.98868883               32.03150588                0.09928441               -0.03492028               -0.03404271                0.11330554               -0.00042806                0.00056705               -0.01519365
               3.03379656                7.98517105               32.03014437                0.01000002               -0.28704282               -0.24796281                0.11978453                0.70131097                0.13855802               -0.08099688
               4.02841846                7.99179567               32.03152261                0.01000000               -0.54002181               -0.04385855                0.12194199                0.94624298                0.26943119                0.00037666
               5.02299612                7.99660014               32.03332624                0.01000001               -0.52948825                0.04058771                0.12522990                0.64541232                0.29746497                0.05389909
               6.01782870                8.00021709               32.03573635                0.01000000               -0.48601286                0.03756441                0.13111346                0.37133029                0.34078393                0.11350456
               7.01327586                8.00194228               32.03882594                0.01000002               -0.40738487               -0.00243737                0.13905677                0.07035339                0.39588733                0.18642026
               8.00968100                8.00195075               32.04270797                0.01000002               -0.27327437               -0.08014581                0.14850158               -0.22749983                0.38585964                0.32061613
               9.00781038                8.00175973               32.04585652                0.01002654               -0.12347260               -0.18990113                0.15511764               -0.40568747                0.26203925                0.69401856
              10.00721155                8.00423859               32.04731722                0.01000000               -0.05988297               -0.25415169                0.15869319               -0.28825199                0.17966610                0.67484725
               0.03832409                8.99537037               32.03452513                1.00000000               -0.03227382               -0.03167037                0.10601895               -0.00015906                0.00246744                0.01965377
               1.03800136                8.99186273               32.03304955                0.99999998               -0.03269977               -0.03266382                0.10897672                0.00008724                0.00157381                0.00253081
               2.03767010                8.98835043               32.03155624                0.99999999               -0.03359168               -0.03361117                0.11200422                0.00004206               -0.00451646               -0.01102757
               3.03732952                8.98483295               32.02996245                0.01000000               -0.33355757               -0.03407245                0.11510583                0.52123769                0.15083524               -0.02910640
               4.03099895                8.99171746               32.03158334                0.01000000               -0.66436821                0.13080087                0.12182441                0.67544263                0.30747136               -0.00472710
               5.02404216                8.99775849               32.03366801                0.01000000               -0.65472427                0.14956071                0.12742492                0.41185484                0.33898746                0.03237170
               6.01790446                9.00121806               32.03651420                0.01011656               -0.57758636                0.12791741                0.13463200                0.17206310                0.39520573                0.07220439
               7.01249043                9.00270475               32.04022892                0.01000002               -0.56200907                0.10866926                0.14159595               -0.02921155                0.49390351                0.11297952
               8.00666428                9.00218964               32.04541995                0.01000000               -0.62053237                0.11185138                0.15450326               -0.26943217                0.75623205                0.21865675
               9.00007978                9.00049727               32.05482347                0.99999998               -0.35515273               -0.08903758                0.17226594               -0.47094342                0.47206501                0.44777646
               9.99956123                8.99994628               32.05477924                1.00000000               -0.05185574               -0.24074789                0.17356567               -0.41005283               -0.00036882                0.37183361
               0.04183456                9.99505528               32.03466963                1.00000000               -0.03179133               -0.03150965                0.10453616               -0.00067146                0.01364386                0.01467346
               1.04151665                9.99153809               32.03318235                1.00000000               -0.03223111               -0.03246377                0.10750241               -0.00040422                0.01708022                0.00113738
               2.04118994                9.98801661               32.03176655                0.99999999               -0.03311824               -0.03338249                0.11053515               -0.00044053                0.01702320               -0.00336815
               3.04085428                9.98448960               32.03028379                0.24133412               -0.60940804               -0.03433487                0.11353377                0.67223004                0.15238212               -0.00443849
               4.02900178                9.99441169               32.03158426                0.01000000               -0.95608328                0.26942260                0.12040372                0.55537053                0.28309325                0.00433653
               5.02173262                9.99959135               32.03366329                0.01000003               -0.63390405                0.18328644                0.12784215                0.18723345                0.33716469                0.02407007
               6.01632370               10.00277543               32.03663782                0.01000001               -0.50062842                0.15573752                0.13566562                0.06813910                0.40522999                0.04656890
               7.01172005               10.00411566               32.04051716                0.01000001               -0.49119341                0.14109148                0.14093675               -0.00642096                0.55558792                0.06254331
               8.00649983               10.00418778               32.04673195                0.01000002               -0.55425913                0.19981354                0.15813517               -0.22327939                0.74806813                0.15752032
               9.00063487                9.99997897               32.05484143                1.00000000               -0.31936816               -0.05182967                0.17341844               -0.18269882                0.40798252                0.00029667
              10.00011247                9.99942363               32.05479719                1.00000000               -0.05224005               -0.05226492                0.17471673               -0.00041003                0.00034237               -0.00034098
               0.00055195                0.00313623               33.02740235                1.00000000               -0.02447906               -0.02329725                0.07793262                0.00111170               -0.00336268                0.00390618
               1.00030716                0.00162649               33.02766108                1.00000000               -0.02553845               -0.02553596                0.08512325                0.00112217               -0.00361795               -0.00127844
               2.00004118                0.00011666               33.02791196                0.01537888               -0.00834140               -0.02777479                0.09231374                0.03276596                0.05704642               -0.00156480
               3.00014033               -0.00076026               33.02938605                0.01000002               -0.03398308                0.01118140                0.06347750                0.04078093                0.11938406               -0.00660801
               3.99936152                0.00103940               33.03092677                0.01000000               -0.12857588                0.03531096                0.10015520                0.13073515                0.13964476               -0.00118287
               4.99756881                0.00594872               33.03293846                0.01000000               -0.34452504                0.05099652                0.09722081                0.36181403                0.17320001               -0.01186294
               5.99247102                0.01560821               33.03545900                0.15423208               -0.26951787               -0.02816274                0.09348887                0.40055328                0.09935734               -0.00109068
               6.99217845                0.01728477               33.03656620                0.99996791               -0.03048440               -0.03051886                0.10205233                0.00139575                0.01739583               -0.00472258
               7.99186133                0.01895515               33.03744178                0.99999998               -0.03277599               -0.03271394                0.10917354                0.00110376                0.00785157               -0.00047472
               8.99152293                0.02062400               33.03835400                1.00000000               -0.03489380               -0.03483707                0.11630690                0.00108473                0.00784763                0.00101566
               9.99116345                0.02229290               33.03922773                1.00000000               -0.03594820               -0.03710005                0.12341445                0.00113676                0.00591451                0.00544840
               0.00207280                1.00290325               33.02726984                1.00000000               -0.02446406               -0.02327561                0.07792209                0.00003179                0.00141072                0.00448424
               1.00182816                1.00137113               33.02752571                0.01000000               -0.02552934               -0.02559329                0.08511232                0.00004218                0.00350132               -0.00322641
               2.00156221                0.99983892               33.02782200                0.01000000               -0.08706949               -0.04782870                0.09230300               -0.00667314                0.06625650                0.04939388
               3.00008677                0.99935155               33.02933652                0.01000001               -0.21239189                0.00232885                0.07965866                0.08240717                0.13229871                0.02145930
               3.99731438                1.00139251               33.03082098                0.01000000               -0.30921130                0.02258397                0.09952031                0.27886803                0.11064451                0.01029646
               4.99390254                1.00645869               33.03249302                0.01000000               -0.32529244                0.00598649                0.09786645                0.56485748                0.12305275               -0.00195612
               5.99080853                1.01532659               33.03465679                0.01000001               -0.16918015               -0.21522577                0.09328967                0.52817788                0.07263459               -0.02422429
               6.99051894                1.01697958               33.03567924                0.99843279               -0.03028903               -0.03050086                0.10187469                0.00021606                0.00834991               -0.00451658
               7.99020275                1.01862802               33.03655035                0.99999997               -0.03270152               -0.03267528                0.10898482                0.00000713                0.00126081               -0.00055362
               8.98986491                1.02027563               33.03742952                0.99999999               -0.03484092               -0.03477227                0.11611779                0.00001411                0.00114805                0.00058353
               9.98950593                1.02192190               33.03829857                1.00000000               -0.03589827               -0.03711770                0.12323767                0.00004050                0.00054099                0.00687727
               0.00361683                2.00267071               33.02714417                0.01000001               -0.02444910               -0.02596274                0.07791159               -0.02172375                0.00190833                0.09762587
               1.00337234                2.00111462               33.02735177                0.01000000               -0.08447681               -0.07752353                0.08510118               -0.04177237                0.06177745                0.09057370
               2.00192729                1.99916009               33.02875671                0.01000001               -0.15687300               -0.08628268                0.09267527                0.03500774                0.09365991                0.08901788
               3.00023488                1.99928632               33.02969011                0.01000000               -0.20477760               -0.05235642                0.09757797                0.25102425                0.06826706                0.04929769
               3.99783174                2.00149108               33.03082839                0.01000000               -0.26514979               -0.03797590                0.09731151                0.51235788                0.07678564                0.02898117
               4.99493188                2.00606845               33.03211139                0.01000001               -0.26590287               -0.09896653                0.10007087                0.71640027                0.06825826                0.01438345
               5.99251369                2.01130370               33.03338450                0.01000000               -0.30252682               -0.29600768                0.10154795                0.76852291                0.06255367               -0.01653307
               6.98888135                2.01667475               33.03479187                0.01000000               -0.19741349               -0.17190632                0.10170899                0.45582266                0.02271015                0.00716193
               7.98856542                2.01830165               33.03565431                0.10735910               -0.03260052               -0.01786231                0.10879991               -0.00982863               -0.00561965               -0.06139196
               8.98822934                2.01992856               33.03649587                0.99999996               -0.03468381               -0.03458648                0.11586112                0.00027232               -0.00383683               -0.00197087
               9.98787174                2.02155054               33.03739959                1.00000000               -0.03575978               -0.03713801                0.12309949                0.00010076               -0.00096353                0.00702717
               0.00475051                3.00238400               33.02887098                0.01000000               -0.02471680               -0.01556493                0.08594597               -0.00022407                0.01158309                0.19274658
               1.00450334                2.99982066               33.02909437                0.01000001               -0.03299141               -0.16226917                0.09118570                0.05451659                0.02006594                0.16320066
               2.00409068                2.99811326               33.02951197                0.01000000               -0.08635358               -0.15674053                0.09596680                0.25263064                0.03984786                0.08673659
               3.00277627                2.99830442               33.03018119                0.01000000               -0.16556404               -0.13556201                0.09834908                0.48417265                0.05459176                0.05832769
               4.00077940                3.00063299               33.03099899                0.01002733               -0.21791681               -0.12673942                0.10154570                0.69322483                0.06026836                0.04295438
               4.99841793                3.00447936               33.03197456                0.01000000               -0.26033535               -0.16848842                0.10406015                0.85579674                0.06319876                0.03914146
               5.99557269                3.00940643               33.03306117                0.01000001               -0.28902428               -0.21123472                0.10674037                0.87466706                0.05648131                0.04838786
               6.99263744                3.01354145               33.03413648                0.01000001               -0.44101627               -0.25671187                0.10560999                0.92533557               -0.02804259                0.04077136
               7.98675236                3.01827077               33.03354408                0.01000001               -0.30079897               -0.18796597                0.09187441                0.74061175               -0.02301810                0.06980497
               8.98662147                3.01958390               33.03552238                0.01000000               -0.02441934               -0.22860460                0.11550047                0.54977191                0.05021401                0.06927994
               9.98626398                3.02117914               33.03647527                0.57412295               -0.03574872               -0.49351961                0.12298026                0.65701707               -0.00120083                0.05941762
               0.00873903                4.00235942               33.03057135                0.01000002               -0.00056189               -0.05063087                0.09220117                0.13050135               -0.00342061                0.20160808
               1.00873341                3.99786924               33.03043893                0.01000000               -0.01214424               -0.23704375                0.09609421                0.27944317                0.00448056                0.13926318
               2.00849614                3.99602528               33.03045226                0.01000000               -0.06674025               -0.23049140                0.09944098                0.51065274                0.02472887                0.08907641
               3.00739860                3.99657508               33.03074299                0.01002558               -0.14874186               -0.19294150                0.10253188                0.68670659                0.04783468                0.05751346
               4.00552131                3.99895629               33.03133323                0.01000000               -0.20621135               -0.18866080                0.10560868                0.84224422                0.06750687                0.05180002
               5.00327438                4.00269868               33.03219495                0.01000001               -0.22881864               -0.19650589                0.10887070                0.94298401                0.08011368                0.06437445
               6.00094493                4.00707900               33.03324061                0.01000001               -0.23753267               -0.23779539                0.11185948                1.00882500                0.07720373                0.08546057
               6.99852372                4.01154051               33.03422129                0.01000003               -0.18048676               -0.26233017                0.11303151                1.00519763                0.06927269                0.11208139
               7.99733520                4.01454233               33.03532690                0.01000000               -0.11036570               -0.37761777                0.11625361                1.07395628                0.04861022                0.19976175
               8.99631641                4.01535647               33.03602301                0.01000000                0.02432102               -0.43159174                0.12103428                0.75941223                0.01555566                0.15951329
               9.99782162                4.01168015               33.03662662                0.01000000                0.15052091               -0.68552833                0.12937152                0.57835504                0.02035984                0.11294603
               0.01634088                5.00137138               33.03240175                0.01000001                0.00854557               -0.30184253                0.09916984                0.38328018               -0.00758339                0.22963768
               1.01642634                4.99507978               33.03182340                0.01000000               -0.03714923               -0.25637246                0.10222731                0.60279229               -0.00036286                0.14840468
               2.01559790                4.99350343               33.03137458                0.01000001               -0.14234760               -0.21928129                0.10444444                0.72041283                0.01990366                0.06977694
               3.01357939                4.99444559               33.03131728                0.01000000               -0.20486128               -0.23099030                0.10691379                0.84176845                0.05525287                0.04744862
               4.01150067                4.99685978               33.03178669                0.01000001               -0.22122449               -0.21271484                0.11008119                0.92656098                0.09320278                0.05210053
               5.00915490                5.00054924               33.03269211                0.01000001               -0.22966546               -0.21237680                0.11380768                0.98057114                0.11779771                0.07758468
               6.00690736                5.00465053               33.03386927                0.01000003               -0.19384123               -0.24008616                0.11757540                0.95803513                0.12771189                0.11575163
               7.00527807                5.00829485               33.03517397                0.01000000               -0.12459140               -0.31310890                0.12186217                0.89421132                0.12275376                0.16330815
               8.00441554                5.01071841               33.03638754                0.01000001               -0.03030909               -0.37398253                0.12675467                0.73794305                0.09948777                0.19661113
               9.00467189                5.01095207               33.03731500                0.01000000                0.03840891               -0.39917928                0.13124530                0.49597111                0.05880322                0.22009396
              10.00518371                5.00746857               33.03768243                0.01002484                0.05118232               -0.29304734                0.13630743                0.24132672                0.03523540                0.18796398
               0.02898782                5.99632257               33.03469350                0.36999072               -0.03306227               -0.26771156                0.10662002                0.45368220               -0.00320945                0.13962813
               1.02865720                5.99274179               33.03355260                0.01000001               -0.27246176               -0.13340475                0.11011762                0.55681524               -0.01952402                0.09082186
               2.02353859                5.99163965               33.03207721                0.01000000               -0.38897855               -0.23510089                0.10936481                0.77610134               -0.00294798                0.04259904
               3.02087763                5.99195527               33.03180510                0.01000001               -0.27948551               -0.24063266                0.11103162                0.84563495                0.07968901                0.02409139
               4.01794888                5.99470199               33.03226672                0.01000001               -0.28912912               -0.21675096                0.11451789                0.96830331                0.13224439                0.03892940
               5.01509505                5.99845115               33.03333408                0.01000003               -0.27944260               -0.17537537                0.11868379                0.93319796                0.17101100                0.07915372
               6.01236003                6.00227728               33.03483487                0.01000000               -0.23774937               -0.19811855                0.12337340                0.81322460                0.19126307                0.13208182
               7.01034006                6.00527833               33.03654827                0.01000001               -0.14615951               -0.26331203                0.12871888                0.63629403                0.19035837                0.19443455
               8.00943684                6.00706268               33.03819926                0.01000000               -0.04271925               -0.33315410                0.13404214                0.45285603                0.16302165                0.25720764
               9.00948568                6.00737288               33.03942329                0.01003135                0.00891583               -0.32148788                0.13925103                0.24600826                0.09976597                0.29963076
              10.00961515                6.00581920               33.03977194                0.01000001                0.01294776               -0.11228435                0.14400223                0.11767710                0.05898062                0.29234044
               0.03257607                6.99601715               33.03518787                0.99999999               -0.03305182               -0.03126172                0.10823659               -0.00062516               -0.00974839                0.03402461
               1.03224556                6.99241169               33.03386455                1.00000000               -0.03348132               -0.03310363                0.11132568               -0.00063759               -0.00994458                0.01137179
               2.03190645                6.98880142               33.03253044                0.01000000               -0.24079053               -0.15905824                0.11454449                0.46035395                0.03296881                0.00573230
               3.02742974                6.98963294               33.03206170                0.01000001               -0.37677935               -0.35590597                0.11606881                0.90021442                0.10400108               -0.03855288
               4.02437086                6.99252476               33.03258820                0.01000003               -0.35930882               -0.14948411                0.12028205                0.94780780                0.18319717                0.01749422
               5.02024357                6.99704173               33.03400426                0.01000000               -0.40130948               -0.08757916                0.12290438                0.84597752                0.23651915                0.07219317
               6.01634467                7.00068815               33.03596451                0.01000001               -0.35125068               -0.09196729                0.12850081                0.60495765                0.26785341                0.13318866
               7.01321855                7.00302861               33.03833863                0.01000000               -0.24832810               -0.15447117                0.13491338                0.33833430                0.27823164                0.21129976
               8.01137811                7.00405533               33.04075455                0.01000002               -0.11915115               -0.24739036                0.14142379                0.10363776                0.24658743                0.32589100
               9.01083553                7.00452231               33.04261407                0.01000002               -0.03667480               -0.27326229                0.14700264               -0.00982424                0.15051131                0.42116182
              10.01064461                7.00522288               33.04309729                0.01000000               -0.01909196               -0.06596434                0.15089784               -0.03279307                0.08391609                0.47403384
               0.03618624                7.99569733               33.03535227                1.00000000               -0.03260584               -0.03183261                0.10674570               -0.00008128               -0.00103329                0.02121126
               1.03586018                7.99207972               33.03399575                0.99999999               -0.03309128               -0.03304040                0.11022741                0.00012454               -0.00077859                0.00318719
               2.03552442                7.98845849               33.03264093                0.10464701               -0.03508024               -0.03418444                0.11366897                0.00023992                0.00310788               -0.01496157
               3.03515858                7.98483715               33.03136203                0.01000001               -0.30140867               -0.25765332                0.14004641                0.73167980                0.13902071               -0.08059055
               4.02949624                7.99171231               33.03276900                0.01000000               -0.56536896               -0.04399404                0.12299103                0.98493565                0.26722493                0.00297898
               5.02385120                7.99669957               33.03458443                0.01000001               -0.55119690                0.04395733                0.12616088                0.67224868                0.29955555                0.05788583
               6.01847231                8.00043794               33.03705584                0.01000000               -0.50558153                0.04012796                0.13271531                0.38695062                0.34531496                0.11709349
               7.01373957                8.00218891               33.04022297                0.01000002               -0.42282091               -0.00205760                0.14038513                0.07080367                0.40212813                0.19042940
               8.01001589                8.00211487               33.04419327                0.01000002               -0.28089641               -0.08442652                0.14932194               -0.23733527                0.39192460                0.32809507
               9.00812164                8.00190764               33.04741463                0.01012822               -0.12288675               -0.20227323                0.15520292               -0.41681069                0.26442124                0.70525489
              10.00755815                8.00449992               33.04890487                0.01000000               -0.05634889               -0.26520213                0.15900452               -0.29324043                0.18044743                0.68416048
               0.03980967                8.99538050               33.03558404                1.00000000               -0.03227825               -0.03159275                0.10575897               -0.00008757                0.00248281                0.01973860
               1.03948689                8.99175088               33.03414085                0.99999998               -0.03279284               -0.03275932                0.10927401                0.00006935                0.00163689                0.00263165
               2.03915381                8.98811773               33.03268064                0.99999997               -0.03386855               -0.03390490                0.11290248               -0.00003213               -0.00436719               -0.01083839
               3.03880952                8.98447987               33.03112078                0.01000002               -0.34733282               -0.03528264                0.11665576                0.54115527                0.15318391               -0.03140298
               4.03220716                8.99164488               33.03281958                0.01000000               -0.69232996                0.13734632                0.12496690                0.70387441                0.31111726               -0.00527942
               5.02496292                8.99792088               33.03495389                0.01000000               -0.68064100                0.15687772                0.12884160                0.42883349                0.34357692                0.03537448
               6.01859434                9.00149071               33.03786006                0.01010916               -0.60026132                0.13423120                0.13544185                0.17976014                0.40314302                0.07427201
               7.01295769                9.00298746               33.04165702                0.01000002               -0.58408301                0.11359386                0.14406201               -0.03281754                0.50159242                0.11460039
               8.00691268                9.00236680               33.04696954                0.01000005               -0.64217089                0.11654421                0.15568870               -0.28614137                0.76866402                0.22345946
               9.00011427                9.00047685               33.05654724                0.99999998               -0.36587176               -0.09747108                0.17249026               -0.49470213                0.48016015                0.45554789
               9.99959524                8.99991884               33.05651516                1.00000000               -0.05190315               -0.25517088                0.17361633               -0.42602691               -0.00037215                0.37873814
               0.04344372                9.99506548               33.03571595                1.00000000               -0.03193821               -0.03150226                0.10477753               -0.00068894                0.01367539                0.01474253
               1.04312434                9.99142453               33.03426110                1.00000000               -0.03244714               -0.03263492                0.10828731               -0.00050887                0.01711668                0.00121314
               2.04279478                9.98778039               33.03287835                0.99999999               -0.03349025               -0.03373371                0.11184087               -0.00055500                0.01706207               -0.00329364
               3.04245454                9.98413150               33.03142838                0.28124215               -0.63310269               -0.03483775                0.11537782                0.69844438                0.15438433               -0.00448625
               4.03013273                9.99445924               33.03280104                0.01000000               -0.99362527                0.28143628                0.12227328                0.57783814                0.28837439                0.00361820
               5.02258203                9.99983712               33.03495574                0.01001434               -0.65658975                0.19162406                0.12956484                0.19507746                0.34394958                0.02533918
               6.01700093               10.00312256               33.03798880                0.01000001               -0.51874501                0.16318457                0.13613137                0.07184290                0.41622168                0.04774812
               7.01220713               10.00446079               33.04195107                0.01001980               -0.50986321                0.14733323                0.14519310               -0.00889616                0.56503935                0.06386805
               8.00680367               10.00444576               33.04831561                0.01000002               -0.57657850                0.20789548                0.15931664               -0.23602957                0.76094644                0.16010727
               9.00067556                9.99995821               33.05657537                1.00000000               -0.33250190               -0.05186332                0.17336818               -0.19633411                0.41489163                0.00030279
              10.00015363                9.99939650               33.05654325                1.00000000               -0.05219310               -0.05223405                0.17449395               -0.00033271                0.00034119               -0.00034597
               0.00022363                0.00330785               34.02817732                1.00000000               -0.02434115               -0.02306075                0.07706249                0.00127351               -0.00336259                0.00390662
               0.99998022                0.00174913               34.02851208                1.00000000               -0.02552111               -0.02555530                0.08507530                0.00125159               -0.00361788               -0.00127858
               1.99971321                0.00019103               34.02883897                0.01000001               -0.02708976               -0.02804948                0.09308794                0.02926298                0.02433683               -0.00156447
               2.99943843               -0.00080604               34.02973488                0.01000000               -0.04570073                0.01692516                0.08506336                0.05496263                0.09566336                0.04213313
               3.99879919                0.00118203               34.03200063                0.01000000               -0.12325998                0.03409963                0.09770873                0.14405696                0.14495163               -0.00174421
               4.99697323                0.00627732               34.03390419                0.01000000               -0.35919586                0.05709270                0.09553036                0.38005513                0.15488537               -0.01061720
               5.99161528                0.01640074               34.03638669                0.14502178               -0.28238803               -0.02785600                0.09213341                0.42150987                0.09462483               -0.00109990
               6.99132546                0.01812548               34.03758200                0.99930619               -0.03024918               -0.03030697                0.10124090                0.00155148                0.01821302               -0.00466846
               7.99101029                0.01984286               34.03853095                1.00000000               -0.03263094               -0.03259564                0.10869610                0.00112479                0.00790118               -0.00053307
               8.99067285                0.02155967               34.03951640                1.00000000               -0.03484539               -0.03482899                0.11616064                0.00112002                0.00786374                0.00095992
               9.99031339                0.02327768               34.04046267                1.00000000               -0.03594597               -0.03717111                0.12358402                0.00113252                0.00590728                0.00547211
               0.00179509                1.00307724               34.02804582                0.99999999               -0.02439405               -0.02306950                0.07727368                0.00007032                0.00141087                0.00448487
               1.00155115                1.00149358               34.02837771                0.01000000               -0.02558305               -0.02565226                0.08528643                0.00004875                0.00350166               -0.00322671
               2.00128342                0.99991054               34.02875001                0.01000000               -0.10292962               -0.04795868                0.09329930               -0.00960507                0.05442337                0.04983539
               2.99949255                0.99936321               34.03010388                0.01000001               -0.22926708                0.00704883                0.09521670                0.10218523                0.08376848                0.04913062
               3.99669808                1.00152302               34.03184872                0.01000000               -0.31640659                0.02396035                0.09770736                0.30131347                0.10125266                0.00307720
               4.99316442                1.00684825               34.03346976                0.01000000               -0.33958930                0.00937272                0.09684220                0.59606782                0.10859633               -0.00136703
               5.98990630                1.01612218               34.03558414                0.01000001               -0.17722504               -0.22322296                0.09229279                0.55631743                0.06733849               -0.02013166
               6.98961992                1.01782241               34.03669551                0.99752977               -0.03009241               -0.03032562                0.10139442                0.00035838                0.00910250               -0.00456102
               7.98930445                1.01951690               34.03763864                1.00000000               -0.03266417               -0.03263988                0.10879807                0.00001384                0.00123144               -0.00046835
               8.98896664                1.02121138               34.03859099                0.99999999               -0.03488743               -0.03485570                0.11624816               -0.00004834                0.00119541                0.00062317
               9.98860670                1.02290597               34.03953331                1.00000000               -0.03599363               -0.03718680                0.12368973               -0.00008505                0.00060236                0.00684429
               0.00339237                2.00284646               34.02792115                0.01003206               -0.02444659               -0.02376552                0.07748499               -0.01976936                0.00190884                0.10164917
               1.00314790                2.00123609               34.02820476                0.01000000               -0.08704461               -0.07894874                0.08549717               -0.04042320                0.06221999                0.09357017
               2.00165147                1.99923186               34.02969455                0.01000001               -0.16391297               -0.08923688                0.10073674                0.03678386                0.08426381                0.09046882
               2.99986964                1.99933494               34.03068263                0.01000000               -0.21555241               -0.04997921                0.09132694                0.27454178                0.07029198                0.06000428
               3.99734043                2.00166124               34.03179395                0.01000000               -0.27871075               -0.03575972                0.09703962                0.54483580                0.07024088                0.02421684
               4.99429543                2.00646478               34.03311264                0.01000001               -0.27864809               -0.10109306                0.09953357                0.75516169                0.06298500                0.01644097
               5.99176746                2.01193628               34.03439595                0.01000000               -0.31787583               -0.30836225                0.10101016                0.80915810                0.05582081               -0.01020732
               6.98793791                2.01751897               34.03580737                0.01000000               -0.20729299               -0.17720286                0.10149330                0.48537781                0.01936442                0.00404936
               7.98762160                2.01919006               34.03674603                0.10564542               -0.03275476               -0.03614382                0.10913705                0.00414900               -0.00555698               -0.01976377
               8.98728281                2.02086255               34.03765915                0.99999996               -0.03495498               -0.03489750                0.11651146                0.00001420               -0.00395923               -0.00175721
               9.98692251                2.02253394               34.03863304                1.00000000               -0.03603095               -0.03721935                0.12371799               -0.00009512               -0.00113957                0.00687034
               0.00462045                3.00260193               34.02972942                0.01000005               -0.02631637               -0.01167964                0.08515495                0.00237472                0.01276941                0.19962457
               1.00435728                2.99991460               34.03000830                0.01000001               -0.03500978               -0.16706670                0.09206062                0.05972706                0.02183867                0.16865979
               2.00392025                2.99812580               34.03047518                0.01000000               -0.09016362               -0.16230322                0.09389456                0.26863393                0.04337197                0.09002889
               3.00255401                2.99836363               34.03115619                0.01000000               -0.17276461               -0.13752981                0.09811096                0.51151997                0.05453031                0.06163254
               4.00046496                3.00080783               34.03201343                0.01002848               -0.22807008               -0.12892823                0.10075873                0.72861902                0.06012817                0.04785929
               4.99799261                3.00482639               34.03301161                0.01000000               -0.27148457               -0.17410545                0.10397801                0.89766091                0.06033916                0.04309548
               5.99503527                3.00995494               34.03412960                0.01000001               -0.29594567               -0.22012959                0.10577398                0.91826929                0.04558735                0.05301709
               6.99207370                3.01427835               34.03509078                0.01000001               -0.44957118               -0.27045708                0.10337234                0.95401804               -0.00317055                0.05116209
               7.98604384                3.01879403               34.03546803                0.01000001               -0.32253280               -0.20412342                0.16975822                0.77343824               -0.01218047                0.05578132
               8.98562304                3.02051343               34.03668895                0.01000000               -0.03909124               -0.24035514                0.11686922                0.59311537                0.00865776                0.07362529
               9.98526202                3.02216158               34.03770637                0.59570183               -0.03610204               -0.51669169                0.12368677                0.68795142               -0.00179269                0.06243069
               0.00881452                4.00261287               34.03148874                0.01000001                0.00040561               -0.04976496                0.09083912                0.13906587               -0.00368615                0.20765317
               1.00881857                3.99789475               34.03139751                0.01000000               -0.01196948               -0.24614177                0.09556900                0.29737710                0.00387284                0.14443325
               2.00857513                3.99598579               34.03144240                0.01000000               -0.07002827               -0.23665087                0.09871173                0.54002242                0.02327874                0.09444639
               3.00741801                3.99658434               34.03176723                0.01002643               -0.15625417               -0.19862484                0.10214605                0.72245075                0.04728336                0.06370458
               4.00545005                3.99908267               34.03238867                0.01000000               -0.21582348               -0.19467654                0.10589301                0.88299929                0.06657293                0.05701548
               5.00310154                4.00298267               34.03328398                0.01000001               -0.23845804               -0.20350815                0.10907414                0.98654326                0.07816325                0.06973427
               6.00068089                4.00753369               34.03435257                0.01000001               -0.24611802               -0.24739977                0.11178727                1.05094565                0.07512565                0.09188022
               6.99817918                4.01210983               34.03539730                0.01000003               -0.19127944               -0.27594038                0.11787874                1.03606377                0.06148965                0.12457924
               7.99685530                4.01510759               34.03639125                0.01000000               -0.12008056               -0.37784059                0.11413653                1.11108214                0.04384547                0.17655706
               8.99577757                4.01605545               34.03727018                0.01000000                0.02649656               -0.45345626                0.12680488                0.80266174                0.02137344                0.16848280
               9.99738523                4.01220011               34.03792092                0.01000000                0.16076592               -0.71968061                0.13011678                0.60832564                0.01934482                0.11906793
               0.01683799                5.00160663               34.03338180                0.01007157                0.00939037               -0.31412335                0.09737094                0.40174415               -0.00815398                0.23624978
               1.01693190                4.99499177               34.03284214                0.01000000               -0.04034420               -0.26303444                0.10125840                0.63601066               -0.00161237                0.15510980
               2.01603111                4.99339278               34.03241715                0.01000001               -0.15128751               -0.22482389                0.10432477                0.75938654                0.01807534                0.07535741
               3.01390615                4.99439113               34.03238644                0.01000000               -0.21522467               -0.23838246                0.10707459                0.88322475                0.05388914                0.05214121
               4.01172662                4.99691430               34.03288923                0.01000001               -0.23168462               -0.21976843                0.11067432                0.97029814                0.09257548                0.05694604
               5.00927246                5.00075623               34.03383228                0.01000001               -0.23997979               -0.21984775                0.11450273                1.02485341                0.11725563                0.08301534
               6.00692702                5.00500694               34.03504982                0.01000003               -0.20256945               -0.24917731                0.11855779                0.99854259                0.12683783                0.12217990
               7.00522107                5.00875955               34.03638835                0.01000000               -0.13035792               -0.32358410                0.12213617                0.92975458                0.12201787                0.16987599
               8.00431986                5.01123721               34.03766329                0.01000001               -0.03186540               -0.38294864                0.12700006                0.77191405                0.09938570                0.21083822
               9.00458376                5.01144430               34.03862758                0.01000000                0.04096761               -0.41689900                0.13204585                0.52146362                0.05853900                0.22802418
              10.00513922                5.00776797               34.03905444                0.01000001                0.05554564               -0.30858747                0.13808232                0.25474205                0.03606043                0.19492158
               0.03007913                5.99633040               34.03574970                0.33984916               -0.03264929               -0.27867198                0.10457891                0.47767921               -0.00320570                0.14502276
               1.02975264                5.99263406               34.03464631                0.01000001               -0.28578175               -0.13414046                0.10855652                0.58422397               -0.02156704                0.09596583
               2.02436350                5.99148932               34.03316745                0.01000000               -0.40958264               -0.24052838                0.10881508                0.81360416               -0.00658968                0.04769386
               3.02156099                5.99181669               34.03291431                0.01000001               -0.29362916               -0.24634551                0.11195322                0.88621165                0.07860075                0.02668771
               4.01849091                5.99468730               34.03341301                0.01000001               -0.30275092               -0.22360344                0.11513902                1.01334847                0.13283302                0.04368681
               5.01550597                5.99858571               34.03452590                0.01000003               -0.29212491               -0.18079933                0.11975922                0.97498967                0.17202063                0.08374273
               6.01264842                6.00255014               34.03607264                0.01000000               -0.24809860               -0.20486830                0.12437664                0.84840479                0.19231207                0.13780801
               7.01054400                6.00563814               34.03783939                0.01000001               -0.15197973               -0.27273810                0.12955532                0.66345137                0.19162792                0.20167507
               8.00960882                6.00744862               34.03954231                0.01000000               -0.04339545               -0.34604238                0.13494374                0.47237500                0.16414930                0.26462594
               9.00967609                6.00771747               34.04082159                0.01003184                0.01119575               -0.33585554                0.14044426                0.25724224                0.10064570                0.30777180
              10.00983274                6.00602836               34.04121838                0.01000001                0.01566491               -0.11954490                0.14537814                0.12392264                0.05936933                0.29863512
               0.03378425                6.99603319               34.03626332                0.99999999               -0.03267913               -0.03068269                0.10675986               -0.00063826               -0.01016871                0.03511251
               1.03345746                6.99230896               34.03497364                0.99999999               -0.03318439               -0.03276201                0.11039106               -0.00064423               -0.01025179                0.01245343
               2.03312057                6.98858221               34.03367434                0.01000000               -0.25125337               -0.16249573                0.11408735                0.48234775                0.03072548                0.00886042
               3.02843239                6.98946422               34.03319929                0.01000001               -0.39480002               -0.36582615                0.11214568                0.93739623                0.10390815               -0.02282073
               4.02522457                6.99244223               34.03380228                0.01000095               -0.37614930               -0.15317143                0.12182423                0.98628324                0.18685821                0.01919556
               5.02090941                6.99714024               34.03523667                0.01000000               -0.41909399               -0.08887460                0.12388094                0.88308870                0.23803403                0.07603952
               6.01684269                7.00090957               34.03725542                0.01000001               -0.36588960               -0.09433709                0.12981683                0.63062928                0.27090621                0.13817365
               7.01359162                7.00330478               34.03969370                0.01000000               -0.25773238               -0.16028316                0.13614799                0.35218929                0.28143339                0.21738927
               8.01168804                7.00431637               34.04217319                0.01000002               -0.12213759               -0.25754789                0.14237554                0.10707119                0.24966788                0.33416722
               9.01114887                7.00472719               34.04409001                0.01000002               -0.03460737               -0.28929051                0.14829564               -0.01140880                0.15170001                0.42894120
              10.01099589                7.00537707               34.04460770                0.01000001               -0.01529749               -0.07622159                0.15249130               -0.03464835                0.08394026                0.48031446
               0.03751484                7.99571675               34.03641567                1.00000000               -0.03241027               -0.03158640                0.10590902                0.00000162               -0.00105286                0.02101824
               1.03719073                7.99197882               34.03509669                0.99999999               -0.03298230               -0.03294722                0.10987916                0.00013438               -0.00078509                0.00322433
               2.03685519                7.98823940               34.03377926                0.12467211               -0.03709196               -0.03429885                0.11395347                0.00018019                0.02351858               -0.01468684
               3.03644889                7.98450017               34.03294530                0.01000001               -0.31573150               -0.26628362                0.16283087                0.76031678                0.14835483               -0.09409295
               4.03054056                7.99162387               34.03398243                0.01000000               -0.58742476               -0.04311959                0.11880066                1.02358348                0.25554368                0.00745346
               5.02470040                7.99680822               34.03584946                0.01000001               -0.57220523                0.04772141                0.12791010                0.70016650                0.30408249                0.06131370
               6.01909646                8.00066340               34.03839066                0.01000000               -0.52597054                0.04304794                0.13418180                0.40228845                0.35019793                0.12103692
               7.01418099                8.00243248               34.04163364                0.01000002               -0.43843091               -0.00180662                0.14191875                0.07277235                0.40783571                0.19523362
               8.01032784                8.00229766               34.04569441                0.01000002               -0.28968905               -0.08899376                0.15074449               -0.25207596                0.39661091                0.33539616
               9.00838721                8.00193166               34.04896058                0.01000001               -0.12439133               -0.21398524                0.15449430               -0.44026173                0.26885133                0.71869689
              10.00784001                8.00450393               34.05049731                0.01000000               -0.05471966               -0.27472050                0.15778283               -0.31167103                0.18422937                0.69250070
               0.04126013                8.99540146               34.03664031                1.00000000               -0.03226381               -0.03152220                0.10551887                0.00000152                0.00249353                0.01980443
               1.04093749                8.99165001               34.03523503                0.99999998               -0.03286544               -0.03284869                0.10953756                0.00003081                0.00172243                0.00274183
               2.04060282                8.98789624               34.03381429                0.99999997               -0.03416186               -0.03420513                0.11381152               -0.00013764               -0.00408437               -0.01062034
               3.04025426                8.98413855               34.03229556                0.01000001               -0.36073209               -0.03577458                0.11839040                0.56269977                0.15598187               -0.05134334
               4.03338818                8.99157984               34.03408268                0.01000000               -0.71905230                0.14486307                0.12572730                0.73287303                0.31474557               -0.00246784
               5.02587321                8.99809467               34.03624484                0.01000000               -0.70619942                0.16431020                0.12984943                0.44570683                0.34721044                0.03842527
               6.01926419                9.00177053               34.03922303                0.01010776               -0.62302046                0.14047581                0.13728434                0.18651639                0.40871697                0.07656414
               7.01341280                9.00326865               34.04311016                0.01000002               -0.60584269                0.11862116                0.14624305               -0.03605015                0.50980798                0.11714872
               8.00714734                9.00253649               34.04853373                0.01002077               -0.66377182                0.12000571                0.15763697               -0.30272690                0.78065343                0.22825206
               9.00013737                9.00044749               34.05827328                0.99999998               -0.37647024               -0.10014457                0.17271178               -0.51679895                0.48772007                0.46420503
               9.99961794                8.99988266               34.05825156                1.00000000               -0.05194308               -0.25716983                0.17365758               -0.43930714               -0.00038476                0.38555200
               0.04501777                9.99508630               34.03676518                1.00000000               -0.03211910               -0.03151629                0.10513681               -0.00068177                0.01365292                0.01478929
               1.04469658                9.99132185               34.03534810                1.00000000               -0.03269325               -0.03281654                0.10916623               -0.00064191                0.01706298                0.00129263
               2.04436390                9.98755530               34.03400337                0.99999999               -0.03386447               -0.03409388                0.11317279               -0.00075066                0.01696281               -0.00323513
               3.04401929                9.98378468               34.03259135                0.30405588               -0.65610008               -0.03538715                0.11712153                0.72479489                0.15561387               -0.00450161
               4.03124190                9.99452114               34.03402972                0.01000003               -1.02977230                0.29412962                0.12366322                0.60085941                0.29240778                0.00201167
               5.02342384               10.00009442               34.03625459                0.01000000               -0.67945517                0.19997581                0.13075612                0.20265216                0.34938430                0.02732620
               6.01765280               10.00347292               34.03936044                0.01000001               -0.53649079                0.17023847                0.13830224                0.07438448                0.42218307                0.04888053
               7.01269403               10.00480490               34.04342103                0.01000000               -0.52791668                0.15362531                0.14812616               -0.01063462                0.57551971                0.06530028
               8.00709447               10.00469778               34.04991828                0.01000002               -0.59944830                0.21612850                0.16198682               -0.24909430                0.77247723                0.16274847
               9.00070506                9.99992877               34.05830879                1.00000000               -0.34554722               -0.05187177                0.17332615               -0.21009286                0.42092636                0.00031554
              10.00018352                9.99936053               34.05828707                1.00000000               -0.05215398               -0.05221294                0.17427483               -0.00026523                0.00035590               -0.00035559
              -0.00018481                0.00347736               35.02894360                1.00000000               -0.02420312               -0.02282414                0.07619255                0.00143592               -0.00336296                0.00390682
               0.99957316                0.00186966               35.02936259                1.00000000               -0.02550342               -0.02557465                0.08502691                0.00138181               -0.00361822               -0.00127854
               1.99930512                0.00026330               35.02977372                0.01000000               -0.03406128               -0.02832497                0.09386103                0.03567596                0.04100914               -0.00156476
               2.99889193               -0.00065560               35.03108732                0.01000001               -0.06069393                0.00420117                0.12338447                0.02940157                0.09973718                0.02060426
               3.99809124                0.00130834               35.03288094                0.01000000               -0.13057356                0.03523956                0.09235452                0.15127275                0.12381670               -0.00010691
               4.99628046                0.00660523               35.03484906                0.01000000               -0.37027697                0.06176550                0.09229477                0.40000913                0.15028731               -0.01006674
               5.99068570                0.01719133               35.03730167                0.13549548               -0.29409999               -0.02766346                0.09110646                0.44234125                0.09031778               -0.00108243
               6.99039846                0.01896437               35.03859102                0.99865158               -0.03003738               -0.03013879                0.10056455                0.00169131                0.01914703               -0.00470780
               7.99008495                0.02072910               35.03961570                1.00000000               -0.03249879               -0.03255382                0.10829216                0.00117581                0.00792117               -0.00051755
               8.98974848                0.02249401               35.04067721                1.00000000               -0.03479557               -0.03486602                0.11604001                0.00116566                0.00788497                0.00096376
               9.98938904                0.02426107               35.04169941                1.00000000               -0.03594418               -0.03726521                0.12378056                0.00113692                0.00591251                0.00543351
               0.00143725                1.00324912               35.02881532                1.00000000               -0.02432399               -0.02286309                0.07662468                0.00010967                0.00141110                0.00448495
               1.00119401                1.00161392               35.02923144                0.01000000               -0.02563685               -0.02571157                0.08546061                0.00005571                0.00350223               -0.00322678
               2.00092451                0.99998005               35.02968798                0.01000000               -0.12652916               -0.05095013                0.09429723               -0.01989639                0.06016228                0.05662051
               2.99866343                0.99938641               35.03124086                0.01000001               -0.24754808                0.00448454                0.11034358                0.11650340                0.09186164                0.02385497
               3.99597355                1.00166073               35.03277513                0.01000000               -0.31621847                0.02511873                0.09431675                0.32758935                0.09086337                0.00738604
               4.99233906                1.00722289               35.03442986                0.01000000               -0.35220023                0.01250929                0.09497102                0.62815415                0.10174986                0.00031605
               5.98892955                1.01691469               35.03650265                0.01000001               -0.18462852               -0.23186200                0.09158763                0.58448834                0.06230812               -0.01591968
               6.98864649                1.01866298               35.03770713                0.99663499               -0.02988261               -0.03019526                0.10093700                0.00044843                0.00996986               -0.00461407
               7.98833189                1.02040356               35.03872631                1.00000000               -0.03261647               -0.03260551                0.10868416               -0.00000432                0.00124975               -0.00045027
               8.98799416                1.02214535               35.03975448                0.99999999               -0.03492726               -0.03492729                0.11642203               -0.00002400                0.00119549                0.00065613
               9.98763335                1.02388842               35.04077236                1.00000000               -0.03608083               -0.03730919                0.12413781               -0.00008661                0.00059448                0.00676302
               0.00308779                2.00302010               35.02869387                0.01000000               -0.02444474               -0.02201103                0.07705664               -0.01592349                0.00190851                0.10508580
               1.00284335                2.00135543               35.02906171                0.01000000               -0.09765481               -0.08064041                0.08589444               -0.03877342                0.06900633                0.09692562
               2.00113470                1.99924429               35.03077144                0.01000001               -0.16510180               -0.09070313                0.11596581                0.04821880                0.16246795                0.12486313
               2.99954131                1.99943409               35.03151665                0.01000000               -0.21640753               -0.04669640                0.08790910                0.31158107                0.07771457                0.05278681
               3.99680655                2.00181071               35.03276918                0.01000000               -0.29758641               -0.03326352                0.09888342                0.57871613                0.07509743                0.02922168
               4.99358958                2.00685542               35.03410206                0.01000001               -0.29355869               -0.10264774                0.09923438                0.79564278                0.05866667                0.02025672
               5.99093537                2.01255409               35.03540470                0.01000000               -0.33355129               -0.32022657                0.10124882                0.84903837                0.04914500               -0.00457620
               6.98691856                2.01836047               35.03682174                0.01000000               -0.21664358               -0.18441077                0.10131344                0.50560148                0.01581716                0.00879227
               7.98660250                2.02007699               35.03783705                0.11079300               -0.03277042               -0.03311941                0.10909981                0.00068472               -0.00554906               -0.00084999
               8.98626315                2.02179546               35.03882610                0.99999998               -0.03506678               -0.03499857                0.11684414                0.00000083               -0.00396530               -0.00161093
               9.98590117                2.02351489               35.03987395                1.00000000               -0.03619823               -0.03742781                0.12445822               -0.00006087               -0.00118363                0.00670022
               0.00444812                3.00280890               35.03057408                0.01000005               -0.02537720               -0.00800024                0.08367700                0.00721946                0.01585367                0.20744056
               1.00419435                3.00000111               35.03093558                0.01000001               -0.03189454               -0.17156812                0.09117042                0.06854702                0.02352805                0.16875865
               2.00381023                2.99816598               35.03138987                0.01000000               -0.09328610               -0.16360266                0.09066294                0.29543370                0.03581072                0.09443387
               3.00232863                2.99845248               35.03214340                0.01000000               -0.18418448               -0.14075835                0.09977648                0.53430869                0.06213451                0.07965169
               4.00012654                3.00099546               35.03301417                0.01002990               -0.24100453               -0.12949598                0.10148283                0.76234590                0.05986965                0.05299230
               4.99750854                3.00516993               35.03405412                0.01000000               -0.28606370               -0.17913586                0.10492662                0.93994284                0.05648536                0.04843156
               5.99440527                3.01051016               35.03517665                0.01000001               -0.31364630               -0.22788455                0.10638286                0.96017930                0.03969892                0.05898762
               6.99123561                3.01497477               35.03620393                0.01000001               -0.47473380               -0.28129669                0.11213948                1.00136440                0.00102906                0.05878095
               7.98491059                3.01974118               35.03693924                0.01000001               -0.33396667               -0.20993937                0.13658096                0.81036665               -0.03185802                0.08047285
               8.98455628                3.02144538               35.03785976                0.01000000               -0.03586557               -0.25039846                0.11729185                0.61748731               -0.00994301                0.07967259
               9.98419328                3.02313986               35.03894901                0.62470207               -0.03629981               -0.54007255                0.12477259                0.71974178               -0.00172663                0.06535050
               0.00884777                4.00286010               35.03238813                0.01000000                0.00094333               -0.04867423                0.08867612                0.14684697               -0.00277841                0.21363349
               1.00885721                3.99792407               35.03235031                0.01000000               -0.01278867               -0.25339642                0.09437901                0.31382687                0.00178906                0.15019189
               2.00859200                3.99597224               35.03242649                0.01000000               -0.07296003               -0.24402245                0.09920986                0.56498657                0.02155932                0.10244234
               3.00739800                3.99661892               35.03278591                0.01002710               -0.16279932               -0.20555729                0.10274022                0.75525047                0.04549923                0.06986550
               4.00533601                3.99922079               35.03345109                0.01000000               -0.22621320               -0.20105561                0.10700330                0.92167907                0.06567798                0.06395580
               5.00287374                4.00327270               35.03437643                0.01000001               -0.25009431               -0.21011530                0.11013986                1.03032470                0.07508601                0.07556583
               6.00033413                4.00799640               35.03547636                0.01000001               -0.25794550               -0.25680560                0.11343284                1.09723076                0.07136598                0.09982629
               6.99771483                4.01273453               35.03657886                0.01000003               -0.19974502               -0.28622432                0.11880655                1.08755751                0.05572197                0.13440625
               7.99633923                4.01587820               35.03760963                0.01000000               -0.12503116               -0.39785253                0.12289793                1.16531949                0.04299112                0.17643900
               8.99521421                4.01678749               35.03855911                0.01000000                0.02839013               -0.47421148                0.12874221                0.83652380                0.02130371                0.17828172
               9.99690703                4.01271344               35.03922895                0.01000000                0.16928206               -0.75351597                0.13202369                0.63549014                0.01633696                0.12586214
               0.01725712                5.00183542               35.03434917                0.01000000                0.01016255               -0.32592958                0.09425912                0.42391233               -0.01279902                0.24542691
               1.01735874                4.99493318               35.03384857                0.01000000               -0.04210046               -0.26972280                0.09961073                0.67005128               -0.00593147                0.16517869
               2.01641511                4.99328553               35.03346108                0.01000001               -0.15868302               -0.23179503                0.10408936                0.79774764                0.01567056                0.08051920
               3.01418508                4.99434133               35.03345877                0.01000000               -0.22543842               -0.24713725                0.10786993                0.92474475                0.05225282                0.05815631
               4.01190634                4.99697435               35.03400017                0.01000001               -0.24228281               -0.22790525                0.11176668                1.01421165                0.09111080                0.06213123
               5.00933943                5.00096763               35.03498217                0.01000001               -0.25091441               -0.22755446                0.11577909                1.07008951                0.11562152                0.08909486
               6.00688805                5.00537405               35.03624042                0.01000003               -0.21172373               -0.25842785                0.11985249                1.04206540                0.12438750                0.12947408
               7.00510495                5.00925028               35.03761669                0.01000000               -0.13620167               -0.33640221                0.12386984                0.96991001                0.11927891                0.17814440
               8.00416402                5.01178413               35.03892754                0.01000001               -0.03267155               -0.40164511                0.12819855                0.80546314                0.09837952                0.22069487
               9.00445152                5.01196115               35.03995592                0.01000000                0.04435874               -0.43608032                0.13398626                0.54468636                0.05989562                0.23583412
              10.00505119                5.00806954               35.04044407                0.01000000                0.05996726               -0.32373953                0.13991819                0.26593600                0.03741064                0.20256985
               0.03113050                5.99634151               35.03678508                0.31008440               -0.03223814               -0.28909931                0.10246200                0.50355734               -0.00321847                0.14962998
               1.03080811                5.99252961               35.03572373                0.01000001               -0.29958498               -0.13614015                0.10688567                0.61327931               -0.02324480                0.10056512
               2.02513880                5.99133634               35.03425351                0.01000000               -0.43020153               -0.24593571                0.10851785                0.85133817               -0.00836599                0.05259118
               3.02220408                5.99167618               35.03404417                0.01000001               -0.30724216               -0.25978958                0.11237895                0.92606181                0.07737382                0.02861759
               4.01899395                5.99466269               35.03456950                0.01000001               -0.31641256               -0.23175483                0.11667092                1.06048683                0.13193723                0.04952719
               5.01587583                5.99872161               35.03572926                0.01000003               -0.30505856               -0.18643331                0.12090306                1.01884156                0.17158282                0.08900122
               6.01289278                6.00282784               35.03732240                0.01000000               -0.25864383               -0.21202190                0.12579856                0.88512957                0.19212741                0.14407778
               7.01070296                6.00600649               35.03913937                0.01000001               -0.15775793               -0.28340713                0.13082456                0.69209816                0.19191562                0.20953981
               8.00973762                6.00784530               35.04089814                0.01000000               -0.04402194               -0.35987779                0.13621038                0.49352662                0.16496643                0.27377352
               9.00982252                6.00806589               35.04223217                0.01003808                0.01356657               -0.34995023                0.14191236                0.26884206                0.10134207                0.31627043
              10.01000895                6.00623865               35.04267951                0.01000001                0.01864374               -0.12596507                0.14725308                0.12911792                0.05992608                0.30596462
               0.03495205                6.99605343               35.03732307                0.99999999               -0.03225555               -0.03004014                0.10510715               -0.00067302               -0.01051910                0.03614003
               1.03462950                6.99221038               35.03607237                0.99999999               -0.03283713               -0.03233979                0.10923214               -0.00069119               -0.01053457                0.01347811
               2.03429531                6.98836682               35.03481218                0.01000000               -0.26247627               -0.16557708                0.11344684                0.49712797                0.02694256                0.01168718
               3.02937997                6.98914554               35.03430462                0.01000001               -0.41123343               -0.39085791                0.11861915                0.98454281                0.10442654                0.00311299
               4.02607064                6.99233925               35.03502469                0.01000391               -0.39144320               -0.15408546                0.11953280                1.04012089                0.18852765                0.02101997
               5.02155111                6.99723896               35.03648187                0.01000000               -0.43824354               -0.09019725                0.12571966                0.92215717                0.23828068                0.08049084
               6.01730577                7.00113361               35.03856085                0.01000001               -0.38108271               -0.09683895                0.13133079                0.65712394                0.27290415                0.14336551
               7.01392945                7.00358214               35.04106159                0.01000000               -0.26653084               -0.16646829                0.13756744                0.36712657                0.28367757                0.22394566
               8.01197515                7.00458657               35.04360206                0.01000002               -0.12472165               -0.26915220                0.14371383                0.11317740                0.25220855                0.34236138
               9.01143502                7.00496214               35.04557999                0.01000002               -0.03435599               -0.29837899                0.14920429               -0.00815356                0.15377795                0.43662843
              10.01128803                7.00555024               35.04614711                0.01000001               -0.01469864               -0.07662895                0.15395385               -0.03317347                0.08447349                0.48617233
               0.03880314                7.99574070               35.03747045                1.00000000               -0.03222439               -0.03131730                0.10499799                0.00011384               -0.00111580                0.02082928
               1.03848090                7.99188282               35.03619333                0.99999999               -0.03284785               -0.03280302                0.10944299                0.00009761               -0.00073301                0.00323850
               2.03814619                7.98802480               35.03492000                0.23238697               -0.02791978               -0.03428063                0.11385773               -0.01537564                0.04809447               -0.01426131
               3.03792251                7.98385902               35.03461865                0.01000001               -0.32216178               -0.26692930                0.10206563                0.79184900                0.14070991               -0.07422617
               4.03170295                7.99158098               35.03514502                0.01000000               -0.61989435               -0.03955162                0.12495320                1.07703987                0.23643794                0.00837567
               5.02552462                7.99691767               35.03714263                0.01000001               -0.60054342                0.05226476                0.12915282                0.72628740                0.30982170                0.06484300
               6.01969208                8.00089106               35.03973947                0.01000000               -0.54660444                0.04592992                0.13598525                0.41785234                0.35331784                0.12485677
               7.01459253                8.00267712               35.04306135                0.01000002               -0.45354585               -0.00195462                0.14375321                0.07424517                0.41255406                0.20003500
               8.01062117                8.00246226               35.04720816                0.01000002               -0.29483782               -0.09392987                0.15166874               -0.25956702                0.39976846                0.34285715
               9.00869577                8.00209831               35.05050451                0.01000001               -0.12259412               -0.22747030                0.15638163               -0.45201873                0.26905728                0.73334358
              10.00816928                8.00470607               35.05206052                0.01000000               -0.05264886               -0.28550624                0.16002206               -0.32207704                0.18403601                0.70722365
               0.04267010                8.99542708               35.03769441                1.00000000               -0.03227477               -0.03145876                0.10531604                0.00011282                0.00246468                0.01984343
               1.04234735                8.99155432               35.03633160                0.99999998               -0.03292529               -0.03292836                0.10980387                0.00003154                0.00184480                0.00287782
               2.04201159                8.98768121               35.03495687                0.99999996               -0.03432917               -0.03436310                0.11445903               -0.00013784               -0.00356545               -0.01039795
               3.04166077                8.98380696               35.03348858                0.01000000               -0.37294037               -0.02045611                0.11942341                0.57424848                0.15732049               -0.07520101
               4.03455279                8.99154822               35.03533412                0.01000000               -0.74469983                0.15122015                0.12411364                0.75459941                0.31848335                0.00394721
               5.02676677                8.99828426               35.03755088                0.01000000               -0.73247124                0.17232422                0.13181631                0.46091829                0.35047588                0.04003039
               6.01990336                9.00205221               35.04060575                0.01011131               -0.64618075                0.14671421                0.13937783                0.19224313                0.41338415                0.07875713
               7.01384316                9.00354305               35.04458188                0.01000002               -0.62703676                0.12339678                0.14796938               -0.03885404                0.51632075                0.11977197
               8.00736263                9.00270797               35.05012228                0.01000001               -0.68461608                0.12346752                0.16102505               -0.31930150                0.78901441                0.23306529
               9.00015084                9.00041274               35.06000147                0.99999998               -0.38658283               -0.11024069                0.17292193               -0.54191627                0.49426002                0.47319539
               9.99963097                8.99984012               35.05998831                0.99999999               -0.05198655               -0.26938459                0.17368533               -0.45551645               -0.00039740                0.39396850
               0.04655094                9.99511153               35.03781869                1.00000000               -0.03235310               -0.03155574                0.10564783               -0.00064390                0.01361981                0.01480830
               1.04622741                9.99122425               35.03644442                1.00000000               -0.03300754               -0.03300664                0.11014866               -0.00069397                0.01693749                0.00141892
               2.04589079                9.98733754               35.03514181                0.99999998               -0.03434743               -0.03436718                0.11465549               -0.00079825                0.01666436               -0.00328498
               3.04554046                9.98344990               35.03377081                0.34006507               -0.67865740               -0.03570620                0.11910879                0.75136141                0.15637174               -0.00508525
               4.03231764                9.99460538               35.03527430                0.01000000               -1.06507322                0.30571598                0.12596135                0.62219822                0.29526013                0.00248113
               5.02423900               10.00036415               35.03757086                0.01000000               -0.70197418                0.20798956                0.13272143                0.20822045                0.35370013                0.02898221
               6.01827816               10.00382534               35.04075485                0.01000001               -0.55396546                0.17731344                0.14092335                0.07652475                0.42749994                0.04991300
               7.01315969               10.00514506               35.04491360                0.01000000               -0.54563556                0.16020116                0.14980070               -0.01303389                0.58404557                0.06687255
               8.00736545               10.00493161               35.05155535                0.01000002               -0.62171922                0.22236369                0.16616492               -0.26229633                0.78152442                0.16598357
               9.00072530                9.99989349               35.06004189                0.99999999               -0.35806268               -0.05192434                0.17330319               -0.22321509                0.42531555                0.00032819
              10.00020419                9.99931838               35.06002875                1.00000000               -0.05211096               -0.05217422                0.17406629               -0.00018954                0.00037056               -0.00036519
              -0.00068161                0.00364255               36.02970118                1.00000000               -0.02406515               -0.02258811                0.07532452                0.00159724               -0.00336537                0.00390578
               0.99907773                0.00198586               36.03021262                1.00000000               -0.02548590               -0.02559368                0.08497867                0.00151139               -0.00362044               -0.00127864
               1.99880867                0.00033121               36.03071619                0.01000000               -0.03758942               -0.02859788                0.09463393                0.03251463                0.04502477               -0.00155945
               2.99832595               -0.00070103               36.03220256                0.01000001               -0.06474431                0.01120066                0.10907002                0.04468588                0.09844842                0.01003777
               3.99751378                0.00139152               36.03384772                0.01000000               -0.13838520                0.03909820                0.09520013                0.16202780                0.11918819               -0.00313107
               4.99555824                0.00691439               36.03575008                0.01000000               -0.39170503                0.06871802                0.09158512                0.42064606                0.14504202               -0.00773614
               5.98967968                0.01797714               36.03820882                0.12592090               -0.30819326               -0.02763783                0.09047232                0.46378582                0.08761463               -0.00110343
               6.98939438                0.01979909               36.03959329                0.99800800               -0.02985769               -0.02996841                0.09987933                0.00183491                0.01997489               -0.00473124
               7.98908253                0.02161128               36.04069679                1.00000000               -0.03237682               -0.03247321                0.10791666                0.00122122                0.00793791               -0.00052255
               8.98874684                0.02342439               36.04183720                1.00000000               -0.03476447               -0.03487843                0.11596650                0.00122329                0.00789248                0.00096530
               9.98838724                0.02524044               36.04293829                1.00000000               -0.03596028               -0.03737521                0.12401495                0.00116415                0.00590569                0.00541196
               0.00099105                1.00341667               36.02957832                1.00000000               -0.02425320               -0.02265708                0.07597657                0.00014808                0.00141227                0.00448381
               1.00074852                1.00172992               36.03008692                0.04584602               -0.02568969               -0.02576997                0.08563190                0.00006404                0.00350395               -0.00322600
               2.00047726                1.00004523               36.03063595                0.01000000               -0.12529377               -0.01519824                0.09529066                0.06591406                0.06163822                0.07107379
               2.99824264                0.99941097               36.03231075                0.01000001               -0.25754565                0.00945783                0.10380642                0.14187624                0.10284072                0.01431968
               3.99532635                1.00178251               36.03373506                0.01000000               -0.33853751                0.03075513                0.09583262                0.34668944                0.08830913                0.00911893
               4.99147189                1.00760157               36.03536918                0.01000000               -0.37255785                0.01656301                0.09523535                0.65966282                0.09562221                0.00508801
               5.98787519                1.01770076               36.03741589                0.01000001               -0.19381210               -0.24031917                0.09119334                0.61244222                0.05779614               -0.01117860
               6.98759565                1.01949941               36.03871425                0.99571526               -0.02965485               -0.03005391                0.10046923                0.00066600                0.01072198               -0.00463255
               7.98728209                1.02128655               36.03981233                1.00000000               -0.03255779               -0.03255752                0.10851251               -0.00000374                0.00126215               -0.00043216
               8.98694450                1.02307561               36.04091943                0.99999999               -0.03496299               -0.03496659                0.11656107               -0.00000514                0.00120105                0.00067023
               9.98658283                1.02486668               36.04201606                1.00000000               -0.03616653               -0.03745662                0.12460071               -0.00009711                0.00059015                0.00671622
               0.00269485                2.00318941               36.02946229                0.01000001               -0.02443901               -0.01800945                0.07662938               -0.01072207                0.00191483                0.10783603
               1.00245046                2.00147046               36.02992265                0.01000000               -0.01244765               -0.08643680                0.08628535                0.00506865                0.08345977                0.09841534
               2.00244589                2.00002724               36.03201386                0.01000001               -0.15121333               -0.08429008                0.07595681                0.04845271                0.15590649                0.11290038
               2.99942619                1.99948812               36.03244081                0.01000000               -0.30944627               -0.03617835                0.10492609                0.29545699                0.06226916                0.05082810
               3.99625697                2.00200663               36.03377162                0.01000000               -0.32964737               -0.02983689                0.10106211                0.60914126                0.07433172                0.03432732
               4.99283324                2.00724565               36.03509733                0.01000001               -0.31131402               -0.10404641                0.10081141                0.83260342                0.05336240                0.02647326
               5.99003069                2.01317076               36.03642093                0.01000000               -0.35056694               -0.33188649                0.10217181                0.88783042                0.04267650                0.00357148
               6.98582190                2.01919802               36.03783364                0.01000000               -0.22622157               -0.19012812                0.10105502                0.52627059                0.01167506                0.01443186
               7.98550626                2.02096013               36.03892803                0.12359234               -0.03276497               -0.03278238                0.10910333               -0.00020992               -0.00552229                0.00738898
               8.98516661                2.02272506               36.03999603                0.99988221               -0.03515604               -0.03508668                0.11715901                0.00005440               -0.00396969               -0.00157286
               9.98480314                2.02449130               36.04112220                1.00000000               -0.03634688               -0.03765471                0.12518801               -0.00006710               -0.00120749                0.00662410
               0.00421452                3.00305648               36.03140296                0.01000000               -0.02024539               -0.00394800                0.08104135                0.00145797                0.01464286                0.21296483
               1.00401206                3.00000118               36.03183171                0.01000001               -0.03929348               -0.17424258                0.08698005                0.08342424                0.01945215                0.17188328
               2.00342865                2.99835942               36.03228844                0.01000000               -0.09198316               -0.20319058                0.09815330                0.24055217                0.03411194                0.08274191
               3.00217240                2.99868741               36.03315172                0.01000000               -0.18385032               -0.14109177                0.10003536                0.53517741                0.06050414                0.08405320
               3.99975164                3.00118577               36.03404308                0.01003110               -0.26062821               -0.13154216                0.10504271                0.78746758                0.05499943                0.05700461
               4.99695983                3.00552065               36.03511014                0.01000000               -0.30361025               -0.18398596                0.10682586                0.98110073                0.05164222                0.05423192
               5.99367943                3.01106303               36.03625726                0.01000001               -0.33140740               -0.23521568                0.10884134                1.00256453                0.03500511                0.06523361
               6.99033169                3.01569685               36.03733357                0.01000001               -0.49642913               -0.29064133                0.11333785                1.04531589                0.00403166                0.06866863
               7.98375085                3.02063090               36.03819965                0.01000001               -0.34586355               -0.21560297                0.11341182                0.84528179               -0.03375140                0.08452148
               8.98341441                3.02237387               36.03903478                0.01000000               -0.03509276               -0.26000669                0.11776823                0.64501988               -0.01811193                0.08499886
               9.98304900                3.02411359               36.04020182                0.65509670               -0.03654183               -0.56345090                0.12577898                0.75242932               -0.00174523                0.06903826
               0.00883460                4.00311045               36.03326227                0.01000000               -0.00186036               -0.04691290                0.08581037                0.15595066               -0.00344222                0.21840145
               1.00881600                3.99798560               36.03328509                0.01000000               -0.01319431               -0.25396322                0.09285985                0.32711409                0.00113148                0.15443295
               2.00857071                3.99596343               36.03342660                0.01000000               -0.07563010               -0.25916391                0.09923441                0.59931809                0.01980089                0.10843788
               3.00730340                3.99666629               36.03382203                0.01002828               -0.16988170               -0.21957048                0.10502300                0.78260334                0.04265261                0.07297100
               4.00517308                3.99937578               36.03452873                0.01000000               -0.23627000               -0.20736269                0.10861470                0.95867209                0.06226950                0.06817665
               5.00257800                4.00356593               36.03548678                0.01000001               -0.26336518               -0.21676756                0.11210983                1.07377296                0.07102578                0.08092306
               5.99990578                4.00846644               36.03662123                0.01000001               -0.27088233               -0.26563263                0.11545425                1.14600341                0.06776257                0.10632872
               6.99716035                4.01338519               36.03777343                0.01000635               -0.20854538               -0.29674636                0.11935446                1.13847378                0.05253549                0.14125521
               7.99573487                4.01664807               36.03884921                0.01000000               -0.12880156               -0.41341521                0.12445466                1.21685526                0.03969685                0.17698991
               8.99458432                4.01752492               36.03984502                0.01000000                0.03187079               -0.49429743                0.12815446                0.87124682                0.01885255                0.18697845
               9.99637229                4.01322229               36.04056140                0.01000000                0.17879680               -0.78723904                0.13399686                0.66284284                0.01443495                0.13288467
               0.01758322                5.00211822               36.03526698                0.01000000                0.01181468               -0.33806747                0.09157108                0.44551283               -0.01184708                0.25308000
               1.01770136                4.99492192               36.03483436                0.01000000               -0.04244459               -0.27820223                0.09799172                0.70306208               -0.00567794                0.17101052
               2.01673432                4.99317615               36.03449893                0.01000001               -0.16446265               -0.23866987                0.10369260                0.83395514                0.01474098                0.08414419
               3.01441211                4.99429600               36.03454384                0.01000000               -0.23544452               -0.25615478                0.10858513                0.96757231                0.05053388                0.06186839
               4.01202543                4.99703851               36.03512457                0.01000001               -0.25337378               -0.23612276                0.11318446                1.05803918                0.08880643                0.06694256
               5.00934463                5.00118529               36.03614786                0.01000001               -0.26225932               -0.23499525                0.11733686                1.11592974                0.11298130                0.09438499
               6.00678025                5.00575038               36.03744687                0.01000003               -0.22125529               -0.26775826                0.12149338                1.08758501                0.12156862                0.13591000
               7.00491953                5.00976192               36.03886574                0.01000000               -0.14160124               -0.35005759                0.12583884                1.01292218                0.11687975                0.18528123
               8.00394822                5.01236260               36.04022726                0.01000001               -0.03271943               -0.41992531                0.13064462                0.84032426                0.09697463                0.22827122
               9.00426514                5.01248792               36.04130730                0.01000000                0.04814531               -0.45530545                0.13588716                0.56717254                0.05922955                0.24294427
              10.00491113                5.00836881               36.04185281                0.01001583                0.06459890               -0.33888379                0.14176356                0.27630378                0.03728722                0.20935212
               0.03213746                5.99634910               36.03779894                0.28120802               -0.03181503               -0.30237985                0.10023124                0.53184847               -0.00324731                0.15511961
               1.03181931                5.99242156               36.03678402                0.01000001               -0.31308626               -0.14064999                0.10509505                0.64486132               -0.02434758                0.10482317
               2.02587574                5.99119003               36.03533781                0.01000000               -0.45134204               -0.25133373                0.10792738                0.89072406               -0.00995743                0.05721586
               3.02279247                5.99154319               36.03516189                0.01000001               -0.32155867               -0.26719996                0.11274901                0.96798039                0.07672952                0.03848784
               4.01944457                5.99465333               36.03574643                0.01000001               -0.33038736               -0.23757007                0.11750494                1.10576331                0.13064035                0.05301341
               5.01618473                5.99886603               36.03694396                0.01000003               -0.31818575               -0.19243066                0.12218648                1.06260903                0.16986367                0.09453228
               6.01308085                6.00311128               36.03858861                0.01000000               -0.26890783               -0.21952842                0.12742924                0.92294047                0.19119492                0.15014531
               7.01080657                6.00638404               36.04045588                0.01000001               -0.16327494               -0.29500986                0.13257955                0.72213570                0.19120389                0.21675639
               8.00981535                6.00824957               36.04226651                0.01000000               -0.04425053               -0.37545165                0.13783863                0.51501854                0.16496862                0.28142959
               9.00992156                6.00841881               36.04365983                0.01004946                0.01606177               -0.36502515                0.14364787                0.28046377                0.10178141                0.32326303
              10.01013659                6.00644461               36.04416344                0.01008366                0.02150287               -0.13246551                0.14944326                0.13457835                0.06032226                0.31158321
               0.03607526                6.99607063               36.03836546                0.99999999               -0.03176066               -0.02935554                0.10324810               -0.00070608               -0.01083061                0.03699016
               1.03575766                6.99210892               36.03715828                0.99999999               -0.03240451               -0.03185949                0.10786806               -0.00069700               -0.01068739                0.01440064
               2.03542717                6.98814947               36.03594328                0.01000000               -0.27246182               -0.16902691                0.11261771                0.51795501                0.03146103                0.01371412
               3.03030842                6.98895200               36.03557167                0.01000001               -0.43046556               -0.38557570                0.11766019                1.01916198                0.10116378               -0.02335930
               4.02681786                6.99228711               36.03619293                0.01000802               -0.40847771               -0.15856883                0.11811822                1.08427266                0.18137751                0.03134777
               5.02213887                6.99733668               36.03775106                0.01000000               -0.45484068               -0.09149756                0.12700382                0.95951743                0.23971069                0.08463414
               6.01772105                7.00135981               36.03988203                0.01000001               -0.39574578               -0.09978229                0.13302535                0.68441456                0.27351330                0.14856148
               7.01422395                7.00386172               36.04244504                0.01000000               -0.27536160               -0.17355701                0.13932114                0.38252831                0.28522459                0.23057518
               8.01221382                7.00485357               36.04504746                0.01000002               -0.12722887               -0.28074902                0.14552048                0.11951936                0.25277161                0.34964890
               9.01167937                7.00518742               36.04707409                0.01000002               -0.03313556               -0.31208853                0.15075694               -0.00698172                0.15384845                0.44319316
              10.01155111                7.00571950               36.04768678                0.01000001               -0.01282681               -0.08187049                0.15552580               -0.03318616                0.08484779                0.49226348
               0.04004676                7.99576199               36.03851563                1.00000000               -0.03202286               -0.03102636                0.10399427                0.00022806               -0.00109710                0.02064801
               1.03972653                7.99178437               36.03728555                0.99999999               -0.03274975               -0.03262202                0.10891596                0.00008930               -0.00080489                0.00327177
               2.03939176                7.98780949               36.03605641                0.24723747               -0.03442277               -0.03415038                0.11361249               -0.00026693                0.00729109               -0.01402485
               3.03903807                7.98383168               36.03498661                0.01000001               -0.33232128               -0.27348134                0.06823543                0.81937234                0.13727484               -0.06317077
               4.03274534                7.99148195               36.03648149                0.01000000               -0.63678469               -0.03788067                0.12609804                1.10410481                0.26842593                0.01153978
               5.02630238                7.99703608               36.03843252                0.01000001               -0.62506176                0.05651819                0.13063577                0.75529581                0.30620214                0.06771771
               6.02024410                8.00111563               36.04111036                0.01000000               -0.56695000                0.04852445                0.13780448                0.43283230                0.35680815                0.12857095
               7.01496338                8.00291290               36.04450871                0.01000002               -0.46820285               -0.00249417                0.14576339                0.07588470                0.41597265                0.20465854
               8.01088004                8.00263459               36.04872779                0.01000002               -0.30236925               -0.10014783                0.15327436               -0.27208189                0.40344467                0.35201273
               9.00891599                8.00217704               36.05208821                0.01000000               -0.12356686               -0.24067029                0.15966687               -0.46751138                0.26880835                0.74086939
              10.00840871                8.00480720               36.05369775                0.01000000               -0.05072872               -0.29628474                0.16495950               -0.33272431                0.18326244                0.71138559
               0.04403506                8.99545010               36.03874663                1.00000000               -0.03231225               -0.03140316                0.10513340                0.00023461                0.00248798                0.01988747
               1.04371194                8.99145648               36.03743111                0.99999998               -0.03302670               -0.03298992                0.11007663                0.00010213                0.00186405                0.00295798
               2.04337453                8.98746646               36.03610347                0.99999996               -0.03442649               -0.03448906                0.11500414                0.00024696               -0.00348625               -0.01005522
               3.04302341                8.98348237               36.03468403                0.01000000               -0.38394846               -0.03565766                0.12004527                0.60195979                0.15676064               -0.03398924
               4.03569556                8.99152950               36.03656495                0.01000000               -0.77061528                0.16042275                0.12396096                0.77931938                0.31988767                0.00017734
               5.02761110                8.99846705               36.03888117                0.01000000               -0.75973412                0.17990067                0.13389679                0.47578590                0.35409899                0.04136486
               6.02050088                9.00233030               36.04201059                0.01012151               -0.66942078                0.15286752                0.14126322                0.19803795                0.41698301                0.08068964
               7.01422269                9.00381184               36.04606954                0.01000002               -0.64964217                0.12830078                0.15057684               -0.04343151                0.52362463                0.12180553
               8.00750803                9.00285061               36.05175423                0.01016777               -0.70330772                0.12583598                0.16344115               -0.33606046                0.79431047                0.23948002
               9.00015653                9.00037401               36.06173171                0.99999998               -0.39358626               -0.11612745                0.17312999               -0.56174139                0.49883315                0.48038318
               9.99963631                8.99979380               36.06172527                0.99999999               -0.05202263               -0.27674238                0.17370350               -0.46759552               -0.00040084                0.39881834
               0.04803869                9.99513393               36.03887813                1.00000000               -0.03264839               -0.03161726                0.10628156               -0.00057275                0.01361262                0.01484444
               1.04771220                9.99112457               36.03755107                1.00000000               -0.03339399               -0.03319063                0.11123356               -0.00068423                0.01694099                0.00148105
               2.04737081                9.98711971               36.03629648                0.99999998               -0.03489854               -0.03467526                0.11627537               -0.00067433                0.01668604               -0.00308101
               3.04701423                9.98311852               36.03497352                0.36707713               -0.70118795               -0.03638459                0.12132072                0.77761708                0.15758844               -0.00491560
               4.03334705                9.99469041               36.03654895                0.01000000               -1.09984678                0.31609069                0.12873208                0.64092740                0.29786547                0.00570282
               5.02501730               10.00063409               36.03890902                0.01000000               -0.72434923                0.21670470                0.13537249                0.21474807                0.35689185                0.02874597
               6.01886006               10.00417298               36.04217891                0.01000001               -0.57214305                0.18426825                0.14322478                0.07815990                0.43109949                0.05097978
               7.01357444               10.00547891               36.04641704                0.01000000               -0.56317018                0.16670733                0.15248036               -0.01590890                0.59317530                0.06815883
               8.00759666               10.00515131               36.05324158                0.01000002               -0.64182320                0.23006966                0.16825071               -0.27235812                0.78242988                0.16989900
               9.00073797                9.99985450               36.06177486                0.99999999               -0.36897228               -0.05195185                0.17328864               -0.23580391                0.42731929                0.00033406
              10.00021721                9.99927235               36.06176840                1.00000000               -0.05207572               -0.05214515                0.17386070               -0.00012352                0.00036930               -0.00037008
              -0.00127500                0.00380120               37.03045009                1.00000000               -0.02392626               -0.02235113                0.07446727                0.00175743               -0.00337400                0.00391124
               0.99848573                0.00209548               37.03106216                0.99999999               -0.02546652               -0.02561206                0.08493178                0.00164069               -0.00362764               -0.00128234
               1.99821567                0.00039258               37.03166640                0.01000000               -0.03781856               -0.02887313                0.09539813                0.03344285                0.04579193               -0.00155381
               2.99772936               -0.00067122               37.03326872                0.01000001               -0.06440891                0.01057696                0.10664148                0.04310056                0.11549615                0.00580077
               3.99692749                0.00147105               37.03478495                0.01000000               -0.14545809                0.04481646                0.09517147                0.16955805                0.11563328               -0.00558370
               4.99482020                0.00721231               37.03668077                0.01000000               -0.41663514                0.07650820                0.09616957                0.43925023                0.13692730               -0.00463907
               5.98859479                0.01875512               37.03911112                0.11669322               -0.32551066               -0.02761103                0.08988389                0.48533628                0.08279498               -0.00120371
               6.98830999                0.02062782               37.04058860                0.99735931               -0.02974911               -0.02978418                0.09916235                0.00207284                0.02053250               -0.00474133
               7.98799980                0.02248758               37.04177404                1.00000000               -0.03225741               -0.03238964                0.10752372                0.00126570                0.00795566               -0.00051886
               8.98766484                0.02434884               37.04299654                1.00000000               -0.03474130               -0.03489176                0.11590740                0.00126872                0.00790879                0.00096347
               9.98730498                0.02621375               37.04417971                1.00000000               -0.03598624               -0.03749250                0.12427846                0.00118300                0.00591005                0.00540124
               0.00044829                1.00357769               37.03033485                1.00000000               -0.02418351               -0.02245094                0.07532789                0.00018605                0.00141136                0.00448634
               1.00020645                1.00183936               37.03094408                0.06186616               -0.02574202               -0.02582702                0.08579559                0.00006965                0.00350949               -0.00323323
               1.99993345                1.00010385               37.03159380                0.01000000               -0.12926586               -0.02713832                0.09628807                0.05570924                0.05902505                0.03664257
               2.99762113                0.99943455               37.03331698                0.01000001               -0.26260713                0.01404474                0.09538872                0.15574683                0.12478178                0.02267711
               3.99468130                1.00191921               37.03469178                0.01000000               -0.35252334                0.03590921                0.09897704                0.36260098                0.08576058                0.01462904
               4.99057067                1.00797740               37.03633457                0.01000000               -0.39704538                0.02158022                0.09885062                0.68735596                0.08554421                0.00951322
               5.98674040                1.01847901               37.03832652                0.01000001               -0.20530894               -0.24854878                0.09084110                0.64051957                0.05142814               -0.00579580
               6.98646449                1.02032998               37.03971652                0.99477890               -0.02942217               -0.02990195                0.09997428                0.00098213                0.01120817               -0.00462795
               7.98615195                1.02216368               37.04089656                1.00000000               -0.03250238               -0.03250630                0.10833244               -0.00000971                0.00126827               -0.00042954
               8.98581444                1.02399992               37.04208571                0.99999999               -0.03500303               -0.03500910                0.11670197               -0.00000559                0.00120350                0.00066838
               9.98545189                1.02583883               37.04326438                1.00000000               -0.03625490               -0.03760705                0.12506829               -0.00012437                0.00058849                0.00671614
               0.00220537                2.00335218               37.03022646                0.01000000               -0.02443993               -0.01547341                0.07620511               -0.00556454                0.00191415                0.10885216
               1.00196097                2.00157894               37.03078742                0.01000000               -0.02353518               -0.08815154                0.08665532               -0.00054535                0.04904329                0.09696582
               2.00173466                1.99984981               37.03229058                0.01000001               -0.14660164               -0.08478822                0.05293125                0.06348745                0.07584166                0.08071015
               2.99902893                1.99960968               37.03361518                0.01000000               -0.30489992               -0.03411126                0.10681320                0.32511765                0.06463623                0.04908672
               3.99563666                2.00218923               37.03479042                0.01000000               -0.35107060               -0.02703853                0.10430794                0.63105224                0.05682498                0.04099566
               4.99200752                2.00764392               37.03611829                0.01000001               -0.32920345               -0.10561342                0.10323876                0.86757250                0.04546182                0.03183624
               5.98905260                2.01378415               37.03744813                0.01000000               -0.36812810               -0.34322363                0.10325004                0.92637039                0.03394184                0.01213275
               6.98464496                2.02002978               37.03884284                0.01000000               -0.23614633               -0.19608137                0.10078978                0.54813384                0.00667705                0.02048793
               7.98432967                2.02183745               37.04001911                0.12965134               -0.03276882               -0.03266301                0.10913500                0.00006360               -0.00552117                0.00288186
               8.98398958                2.02364866               37.04116928                0.99999999               -0.03524978               -0.03517806                0.11748546                0.00007902               -0.00396883               -0.00157237
               9.98362467                2.02546161               37.04237771                1.00000000               -0.03649107               -0.03786979                0.12586586               -0.00008388               -0.00119893                0.00664636
               0.00388347                3.00326822               37.03219491                0.01000000               -0.01855572                0.00059607                0.07858453                0.00720705                0.00942687                0.21577683
               1.00369791                3.00007633               37.03267519                0.01000001               -0.03555036               -0.17844304                0.08463113                0.09471992                0.01943139                0.17742820
               2.00317246                2.99840808               37.03335293                0.01000000               -0.09569223               -0.19596557                0.09851496                0.26962031                0.03642507                0.10483591
               3.00178407                2.99875233               37.03414411                0.01000000               -0.19521771               -0.14617264                0.10113193                0.55451744                0.04308095                0.06753733
               3.99926811                3.00137844               37.03511502                0.01003324               -0.27284314               -0.13431961                0.10748832                0.81963973                0.04684772                0.05841063
               4.99632720                3.00586513               37.03619063                0.01000000               -0.31930828               -0.18952368                0.10898445                1.02151700                0.04378576                0.05868576
               5.99288194                3.01161454               37.03735348                0.01000001               -0.34766724               -0.24253908                0.11016469                1.04466762                0.03015310                0.07132901
               6.98937386                3.01640835               37.03847069                0.01000001               -0.51737954               -0.30011592                0.11269151                1.08942388               -0.00606617                0.07667347
               7.98253435                3.02151042               37.03920748                0.01000001               -0.35909979               -0.22235346                0.10241522                0.88099535               -0.03874097                0.09132773
               8.98219186                3.02329636               37.04021513                0.01000001               -0.03550252               -0.26970562                0.11825473                0.67302497               -0.01363064                0.08948473
               9.98182430                3.02508143               37.04146459                0.67873276               -0.03675629               -0.58707331                0.12667047                0.78542288               -0.00173991                0.07296177
               0.00873328                4.00336410               37.03410434                0.01000001               -0.00177795               -0.04539403                0.08402659                0.16469607               -0.00357209                0.22537312
               1.00871550                3.99801008               37.03420750                0.01000000               -0.01411032               -0.26109396                0.09183967                0.34408611                0.00170971                0.15755446
               2.00845107                3.99593050               37.03441118                0.01000000               -0.07832889               -0.26754368                0.09921765                0.62520651                0.01850875                0.10362882
               3.00714892                3.99668622               37.03488637                0.01002985               -0.17672081               -0.22567418                0.10602367                0.81792011                0.04009916                0.07353728
               4.00491666                3.99950284               37.03562338                0.01000000               -0.24735787               -0.21414697                0.11020327                0.99887792                0.05635866                0.06850567
               5.00220177                4.00385345               37.03661863                0.01000001               -0.27569667               -0.22334921                0.11387954                1.11900377                0.06598847                0.08455489
               5.99940272                4.00893337               37.03778544                0.01000001               -0.28321056               -0.27448394                0.11696653                1.19468094                0.06319106                0.11179928
               6.99653755                4.01402746               37.03896595                0.01001307               -0.21705780               -0.30674470                0.11946281                1.18726549                0.04970836                0.14654531
               7.99506157                4.01739038               37.04009872                0.01000000               -0.13292402               -0.42890879                0.12399469                1.26773415                0.03670018                0.18938658
               8.99387907                4.01825454               37.04112220                0.01000000                0.03507069               -0.51455680                0.12770848                0.90742346                0.01589162                0.19456575
               9.99576298                4.01372015               37.04190889                0.01000000                0.18839083               -0.82134454                0.13544032                0.69064200                0.01347588                0.13985292
               0.01788543                5.00236034               37.03618059                0.01000000                0.01278059               -0.35093399                0.08988999                0.46751681               -0.01079470                0.25933000
               1.01801323                4.99485445               37.03580840                0.01000000               -0.04424890               -0.28539660                0.09662404                0.73818343               -0.00437107                0.17348498
               2.01700045                4.99305721               37.03553493                0.01000001               -0.17215522               -0.24470931                0.10317568                0.87475487                0.01438999                0.08659888
               3.01457013                4.99423884               37.03563047                0.01000000               -0.24610022               -0.26340625                0.10895095                1.01097105                0.04878455                0.06358578
               4.01207844                4.99709550               37.03626386                0.01000001               -0.26466869               -0.24241252                0.11421154                1.10336664                0.08637469                0.06934834
               5.00927675                5.00139814               37.03732890                0.01000001               -0.27384511               -0.24221945                0.11874543                1.16292577                0.10981859                0.09817511
               6.00660154                5.00612486               37.03867029                0.01000226               -0.23073026               -0.27688943                0.12307574                1.13386757                0.11870016                0.14112404
               7.00466215                5.01027346               37.04013347                0.01000000               -0.14697945               -0.36325739                0.12739862                1.05594827                0.11421895                0.19160881
               8.00366195                5.01293225               37.04154043                0.01000001               -0.03257893               -0.43683459                0.13189235                0.87516176                0.09442741                0.23443843
               9.00401057                5.01300522               37.04267367                0.01000000                0.05219900               -0.47450940                0.13689242                0.59022188                0.05740062                0.25028952
              10.00470593                5.00865454               37.04327934                0.01000002                0.06953627               -0.35419044                0.14313188                0.28719204                0.03611358                0.21577176
               0.03309539                5.99634542               37.03878971                0.25373730               -0.03130888               -0.31418974                0.09776043                0.55889117               -0.00332486                0.15900919
               1.03278230                5.99230215               37.03782563                0.01000001               -0.32668028               -0.14287972                0.10308290                0.67577961               -0.02523785                0.10812979
               2.02656178                5.99103632               37.03641206                0.01000000               -0.47261242               -0.25673551                0.10695934                0.93133208               -0.01064595                0.05997834
               3.02333005                5.99141810               37.03629915                0.01000001               -0.33685455               -0.26926020                0.11264182                1.01008687                0.07599583                0.03825872
               4.01982469                5.99465459               37.03691960                0.01000001               -0.34495629               -0.24321765                0.11761855                1.15156541                0.12872522                0.05532024
               5.01643092                5.99900906               37.03817299                0.01000211               -0.33099640               -0.19775283                0.12345973                1.10602247                0.16890975                0.09844268
               6.01320476                6.00339558               37.03987098                0.01000000               -0.27908953               -0.22708849                0.12901771                0.96168858                0.19006681                0.15551824
               7.01084913                6.00676232               37.04179097                0.01000001               -0.16858618               -0.30663219                0.13438406                0.75322399                0.19018756                0.22318040
               8.00983304                6.00865369               37.04365491                0.01000000               -0.04439580               -0.39069871                0.13969341                0.53708104                0.16417040                0.28855709
               9.00996122                6.00876435               37.04510513                0.01006710                0.01875728               -0.38037982                0.14542138                0.29223744                0.10144912                0.32986268
              10.01020818                6.00663634               37.04566837                0.01000000                0.02469668               -0.13966691                0.15143329                0.13988267                0.06027747                0.31686006
               0.03714979                6.99607654               37.03938803                0.99999999               -0.03118609               -0.02864651                0.10114881               -0.00066973               -0.01105821                0.03762294
               1.03683793                6.99199686               37.03822974                0.99999999               -0.03193252               -0.03133618                0.10634578               -0.00061579               -0.01082079                0.01510493
               2.03651114                6.98792250               37.03706454                0.01000000               -0.28421705               -0.17261064                0.11164450                0.54429775                0.02714235                0.01533326
               3.03115359                6.98885364               37.03665782                0.01000001               -0.44961726               -0.39674285                0.11083519                1.06107617                0.09844878               -0.03041570
               4.02751880                6.99223115               37.03738705                0.01001335               -0.42486859               -0.16074179                0.11967767                1.11951595                0.18523117                0.03130170
               5.02265622                6.99744309               37.03902195                0.01000000               -0.47183706               -0.09335697                0.12773627                0.99704022                0.24063420                0.08918461
               6.01808206                7.00158309               37.04122135                0.01000001               -0.40938524               -0.10308262                0.13466277                0.71225111                0.27470461                0.15331247
               7.01446851                7.00414081               37.04384802                0.01000000               -0.28402603               -0.18082617                0.14127650                0.39903033                0.28624293                0.23696771
               8.01240153                7.00511827               37.04651247                0.01000002               -0.12979190               -0.29289707                0.14753419                0.12671631                0.25360096                0.35711339
               9.01187268                7.00539763               37.04859512                0.01000002               -0.03209562               -0.32531404                0.15315783               -0.00581547                0.15358862                0.45034552
              10.01175962                7.00586120               37.04925763                0.01000001               -0.01130533               -0.08705257                0.15829603               -0.03327847                0.08447432                0.49792996
               0.04124136                7.99577249               37.03955034                1.00000000               -0.03173354               -0.03071044                0.10288192                0.00034929               -0.00109279                0.02050908
               1.04092403                7.99167543               37.03837165                0.99999999               -0.03252030               -0.03244504                0.10828065                0.00007351               -0.00084321                0.00328738
               2.04059096                7.98758410               37.03719225                0.26027200               -0.03405523               -0.03412327                0.11356901               -0.00071895               -0.00220974               -0.01390964
               3.04024292                7.98348324               37.03598336                0.01000001               -0.34826970               -0.28566907                0.10592657                0.85182838                0.14098545               -0.07342205
               4.03362556                7.99143976               37.03766698                0.01000551               -0.66115670               -0.03734210                0.12075860                1.14466395                0.27704360                0.01557873
               5.02701979                7.99714192               37.03975535                0.01000001               -0.64367517                0.05959830                0.13200155                0.78205329                0.31089013                0.07041440
               6.02075206                8.00133392               37.04249556                0.01000000               -0.58626150                0.05071815                0.13972244                0.44882331                0.35982411                0.13162700
               7.01529456                8.00314579               37.04597662                0.01000002               -0.48207530               -0.00349958                0.14743126                0.07826630                0.42121662                0.21108000
               8.01111055                8.00279575               37.05027365                0.01000002               -0.30962900               -0.10672477                0.15586899               -0.28512926                0.40628498                0.36068055
               9.00910198                8.00225807               37.05369785                0.01000001               -0.12475463               -0.25319348                0.16226779               -0.48083432                0.27184872                0.75104541
              10.00861546                8.00489529               37.05535971                0.01000000               -0.04865182               -0.30576829                0.16816552               -0.34246786                0.18468141                0.71810657
               0.04535091                8.99546233               37.03979708                1.00000000               -0.03231164               -0.03135406                0.10494124                0.00036003                0.00250431                0.01993472
               1.04502779                8.99134796               37.03853313                0.99999998               -0.03309796               -0.03307427                0.11033934                0.00007776                0.00189084                0.00302898
               2.04468895                8.98724003               37.03725695                0.99999997               -0.03466425               -0.03470990                0.11574489                0.00017014               -0.00344147               -0.00990517
               3.04433450                8.98314026               37.03588949                0.01000000               -0.39677730               -0.03553226                0.12119932                0.62205554                0.15622419               -0.02456772
               4.03675340                8.99148431               37.03781334                0.01000000               -0.79656951                0.16558421                0.12629012                0.81043442                0.32028688                0.00366538
               5.02840311                8.99863505               37.04022881                0.01000000               -0.78493772                0.18707289                0.13550204                0.49201142                0.35897672                0.04227540
               6.02105465                9.00259745               37.04343101                0.01013708               -0.69155510                0.15871845                0.14232538                0.20379177                0.42369188                0.08153817
               7.01457201                9.00407082               37.04759341                0.01000002               -0.67339899                0.13337265                0.15424434               -0.04738562                0.53134566                0.12566985
               8.00758667                9.00298378               37.05339110                0.01000001               -0.72077789                0.12795629                0.16087009               -0.35956953                0.81105458                0.24887319
               9.00015645                9.00033376               37.06346407                0.99999998               -0.39754128               -0.12220916                0.17334645               -0.57975220                0.50336716                0.48650081
               9.99963584                8.99974584               37.06346238                0.99999999               -0.05206135               -0.28352813                0.17371786               -0.47833994               -0.00040499                0.40254854
               0.04947732                9.99514541               37.03994432                1.00000000               -0.03294336               -0.03169249                0.10695713               -0.00050586                0.01366323                0.01488760
               1.04914788                9.99101394               37.03866910                1.00000000               -0.03376288               -0.03340165                0.11238419               -0.00076602                0.01704725                0.00153482
               2.04880206                9.98688990               37.03746732                0.99999998               -0.03540622               -0.03501297                0.11789286               -0.00075605                0.01687270               -0.00298032
               3.04843976                9.98277260               37.03619722                0.41605584               -0.72313017               -0.03676606                0.12337893                0.80360208                0.15898135               -0.00493518
               4.03433946                9.99475144               37.03784894                0.01005975               -1.13464436                0.32671306                0.13109158                0.66414427                0.30120597                0.00830643
               5.02574687               10.00088337               37.04027831                0.01003596               -0.74736651                0.22483217                0.13852551                0.22221834                0.36076758                0.02844223
               6.01939213               10.00450829               37.04361934                0.01000001               -0.58931743                0.19108393                0.14364977                0.08024133                0.43900665                0.05172270
               7.01396052               10.00581324               37.04796321                0.01000000               -0.58679489                0.17424228                0.15827744               -0.01881985                0.59947779                0.06846570
               8.00765623               10.00535488               37.05492036                0.01000002               -0.66078241                0.23710995                0.16280914               -0.29301165                0.79950929                0.17587564
               9.00074487                9.99981389               37.06350766                0.99999999               -0.37158644               -0.05198654                0.17327534               -0.24766578                0.42978325                0.00033385
              10.00022450                9.99922472               37.06350596                1.00000000               -0.05203757               -0.05211145                0.17364701               -0.00005106                0.00037183               -0.00037129
              -0.00197325                0.00395126               38.03119052                1.00000000               -0.02378815               -0.02212306                0.07363673                0.00191763               -0.00341340                0.00393500
               0.99778887                0.00219638               38.03191125                0.99999999               -0.02543992               -0.02563779                0.08487853                0.00179241               -0.00366086               -0.00130230
               1.99751795                0.00044533               38.03262415                0.01659269               -0.01357748               -0.02914291                0.09610855                0.03279394                0.04578969               -0.00153919
               2.99751732               -0.00068155               38.03433539                0.01000001               -0.05517784                0.01996087                0.06848501                0.06334070                0.09040623               -0.01533477
               3.99641440                0.00146618               38.03575115                0.01000000               -0.17733539                0.06034232                0.10763916                0.17073569                0.09050093                0.00108048
               4.99397061                0.00751401               38.03767347                0.01000000               -0.44933271                0.08403069                0.09841048                0.46054708                0.11952205               -0.00326737
               5.98742774                0.01952227               38.04000650                0.10794248               -0.34142516               -0.02744420                0.08906258                0.50612755                0.07420365               -0.00132805
               6.98714211                0.02144844               38.04157654                0.99669876               -0.02970189               -0.02958234                0.09838791                0.00244470                0.02092954               -0.00472986
               7.98683371                0.02335585               38.04284727                1.00000000               -0.03213828               -0.03229667                0.10711332                0.00130031                0.00800286               -0.00050585
               8.98649934                0.02526532               38.04415534                1.00000000               -0.03473021               -0.03490953                0.11587147                0.00130429                0.00794391                0.00096500
               9.98613910                0.02717912               38.04542385                1.00000000               -0.03602437               -0.03761160                0.12455508                0.00119522                0.00592323                0.00540148
              -0.00019919                1.00373003               38.03108487                1.00000000               -0.02410516               -0.02224341                0.07469036                0.00021958                0.00144290                0.00450514
               0.99955976                1.00194000               38.03180283                0.07825355               -0.02579767               -0.02588536                0.08596866                0.00011035                0.00353612               -0.00326371
               1.99928486                1.00015390               38.03256171                0.01000000               -0.09597292               -0.02815095                0.09733503                0.05975394                0.05027351                0.02685346
               2.99764030                0.99951806               38.03421852                0.01000001               -0.26304420                0.01621407                0.08505836                0.13087267                0.10773605                0.01493600
               3.99402397                1.00206961               38.03571460                0.01000000               -0.40461298                0.04685557                0.10837724                0.36561095                0.07016582                0.01674962
               4.98954804                1.00835432               38.03734619                0.01000000               -0.42510853                0.02561511                0.10090175                0.71461888                0.06675371                0.01042116
               5.98552180                1.01924783               38.03923271                0.01000001               -0.21491364               -0.25679109                0.09027919                0.66777679                0.04216873                0.00020617
               6.98524977                1.02115262               38.04071374                0.99384296               -0.02917675               -0.02974181                0.09946397                0.00137051                0.01151154               -0.00461201
               7.98493827                1.02303288               38.04197898                1.00000000               -0.03245074               -0.03244963                0.10815337               -0.00003542                0.00127932               -0.00041766
               8.98460075                1.02491623               38.04325347                0.99999999               -0.03505050               -0.03505664                0.11685897               -0.00002969                0.00120996                0.00065150
               9.98423726                1.02680300               38.04451743                0.99999998               -0.03634958               -0.03775477                0.12553372               -0.00016248                0.00058810                0.00671231
               0.00161120                2.00350639               38.03098639                0.01000001               -0.02439978               -0.01179462                0.07581137               -0.00068760                0.00195893                0.10932937
               1.00136720                2.00167867               38.03165576                0.01000000               -0.02381143               -0.09051666                0.08699848                0.00294150                0.03928920                0.09545531
               2.00113497                1.99988231               38.03307249                0.01000001               -0.15740688               -0.09091802                0.08394723                0.06837127                0.08015268                0.08770254
               2.99821907                1.99964273               38.03457708                0.01000000               -0.31223088               -0.03755483                0.10066948                0.30763059                0.05945464                0.04815084
               3.99489036                2.00240330               38.03585778                0.01000000               -0.35671487               -0.02742933                0.10602069                0.65008405                0.04495363                0.03957790
               4.99108477                2.00802631               38.03716211                0.01000001               -0.34526894               -0.10801486                0.10502102                0.90161036                0.03211649                0.03352367
               5.98798498                2.01438645               38.03848593                0.01000000               -0.38501514               -0.35477618                0.10368552                0.96539681                0.02257593                0.02068738
               6.98338447                2.02085361               38.03984944                0.01000000               -0.24577949               -0.20227073                0.10056253                0.57135008                0.00084595                0.02552806
               7.98306939                2.02270686               38.04111073                0.13331950               -0.03279176               -0.03275144                0.10920661                0.00019551               -0.00556832               -0.00013066
               8.98272863                2.02456419               38.04234574                0.99999999               -0.03535430               -0.03527890                0.11781918                0.00005535               -0.00401129               -0.00162527
               9.98236230                2.02642402               38.04363952                1.00000000               -0.03663299               -0.03806771                0.12649756               -0.00011566               -0.00121604                0.00664967
               0.00344250                3.00349413               38.03297465                0.01001460               -0.01998325                0.00629198                0.07807932                0.01083443                0.00544633                0.21960197
               1.00324267                3.00012966               38.03352434                0.01000001               -0.03771395               -0.18375962                0.08587883                0.10087767                0.01370574                0.17765772
               2.00268822                2.99833554               38.03425874                0.01000000               -0.09853707               -0.20141512                0.09256431                0.28821738                0.02998407                0.11118935
               3.00127193                2.99876696               38.03517436                0.01000000               -0.20230750               -0.14960268                0.10275145                0.59297942                0.03952765                0.06724470
               3.99864207                3.00152102               38.03619285                0.01003521               -0.28374160               -0.14031187                0.10835213                0.85523480                0.03819968                0.05578599
               4.99559709                3.00619402               38.03728983                0.01000000               -0.33198131               -0.19537743                0.11011796                1.06411122                0.03500056                0.06108019
               5.99200245                3.01215231               38.03846055                0.01000001               -0.36203662               -0.25004179                0.11079162                1.08752428                0.02232369                0.07650889
               6.98835636                3.01710720               38.03958740                0.01000001               -0.53854262               -0.31001455                0.11168801                1.13411596               -0.01697760                0.08479023
               7.98123159                3.02237785               38.04024795                0.01000001               -0.37358338               -0.23020029                0.10593819                0.91733414               -0.04411598                0.09716309
               8.98088469                3.02421065               38.04139988                0.01000000               -0.03581573               -0.28032455                0.11873932                0.70135716               -0.01072433                0.09359961
               9.98051528                3.02604165               38.04273523                0.70251532               -0.03694161               -0.61097180                0.12747186                0.81840606               -0.00174768                0.07707515
               0.00855683                4.00363223               38.03494280                0.01003757               -0.00134783               -0.04373389                0.08241891                0.17058464               -0.00466861                0.23001580
               1.00854335                3.99800348               38.03512188                0.01000000               -0.01474024               -0.26780865                0.09091379                0.36193584                0.00152738                0.16036743
               2.00826203                3.99585401               38.03541095                0.01000000               -0.08250892               -0.27141469                0.09908471                0.65795187                0.01741806                0.10548288
               3.00689317                3.99665068               38.03594250                0.01003154               -0.18470166               -0.23060139                0.10578102                0.85649969                0.03617535                0.07202928
               4.00456799                3.99959706               38.03673280                0.01000000               -0.25787324               -0.21958770                0.11112524                1.04402553                0.05158006                0.06834114
               5.00173571                4.00411876               38.03776437                0.01000001               -0.28728570               -0.22997915                0.11497775                1.16630185                0.06043673                0.08680649
               5.99882228                4.00938561               38.03896056                0.01000001               -0.29472359               -0.28324948                0.11785585                1.24408967                0.05768629                0.11661234
               6.99584124                4.01465331               38.04016269                0.01001954               -0.22548272               -0.31690608                0.12001206                1.23473213                0.04476274                0.15308417
               7.99431262                4.01810285               38.04132911                0.01001727               -0.13746284               -0.44413381                0.12345300                1.31846830                0.03263483                0.20104434
               8.99309198                4.01895770               38.04239919                0.01000000                0.03779005               -0.53499331                0.12832939                0.94456419                0.01232378                0.20486580
               9.99506842                4.01420459               38.04327020                0.01008759                0.19764446               -0.85584438                0.13557053                0.72002715                0.01165721                0.14945713
               0.01811170                5.00261946               38.03706478                0.01000000                0.01479068               -0.36551931                0.08752066                0.48751784               -0.01050593                0.26465544
               1.01825961                4.99477349               38.03676684                0.01000000               -0.04558199               -0.29203257                0.09508148                0.77183215               -0.00402176                0.17637639
               2.01720006                4.99290725               38.03656245                0.01000001               -0.18003680               -0.24970098                0.10245288                0.91543591                0.01417207                0.08670942
               3.01465887                4.99415493               38.03672286                0.01000000               -0.25727824               -0.26848304                0.10902746                1.05668485                0.04741397                0.06346409
               4.01205449                4.99712927               38.03740880                0.01000001               -0.27621466               -0.24802593                0.11477344                1.15083704                0.08383571                0.07013916
               5.00913458                5.00159444               38.03852277                0.01000001               -0.28524032               -0.24884630                0.11987001                1.21169387                0.10696721                0.10089783
               6.00634969                5.00648732               38.03990838                0.01000562               -0.24004047               -0.28575166                0.12442496                1.18082903                0.11566575                0.14579142
               7.00433377                5.01076908               38.04141372                0.01000000               -0.15265568               -0.37601086                0.12863702                1.09965097                0.11138805                0.19777050
               8.00329657                5.01349518               38.04286511                0.01000001               -0.03297621               -0.45270904                0.13312882                0.91068371                0.09123040                0.24166467
               9.00367424                5.01351078               38.04404515                0.01000000                0.05627359               -0.49315452                0.13812552                0.61373410                0.05510615                0.25834953
              10.00442205                5.00892476               38.04471544                0.01000001                0.07478031               -0.37005311                0.14470195                0.29875907                0.03520796                0.22187003
               0.03399912                5.99632184               38.03975415                0.22774374               -0.03069115               -0.32785007                0.09503318                0.58704798               -0.00343739                0.16241873
               1.03369221                5.99216282               38.03884568                0.01000001               -0.34049069               -0.14542469                0.10086851                0.70716383               -0.02581609                0.11056573
               2.02718930                5.99085999               38.03747699                0.01000000               -0.49436780               -0.26156482                0.10611181                0.97300335               -0.01193315                0.06143958
               3.02380485                5.99128101               38.03741473                0.01000001               -0.35220372               -0.27477297                0.11182906                1.05362822                0.07538476                0.03754278
               4.02014523                5.99463654               38.03809880                0.01000001               -0.35966561               -0.24817493                0.11826123                1.19823430                0.12871829                0.05565910
               5.01661154                5.99914184               38.03941315                0.01000632               -0.34405078               -0.20282112                0.12465030                1.15083586                0.16834009                0.10139197
               6.01326421                6.00367058               38.04116897                0.01000000               -0.28925714               -0.23429178                0.13055022                1.00153239                0.18922743                0.16013317
               7.01082639                6.00713310               38.04314356                0.01000001               -0.17398083               -0.31768272                0.13609074                0.78510067                0.18901463                0.22924597
               8.00978460                6.00904867               38.04506038                0.01000000               -0.04446574               -0.40590422                0.14141990                0.56018329                0.16300276                0.29534428
               9.00993708                6.00909461               38.04656826                0.01008968                0.02155275               -0.39545866                0.14682033                0.30433006                0.10065819                0.33631878
              10.01021565                6.00680353               38.04719211                0.01000000                0.02785719               -0.14690025                0.15277823                0.14556850                0.06014961                0.32187716
               0.03817069                6.99606245               38.04038843                0.99894814               -0.03059581               -0.02793607                0.09901582               -0.00058817               -0.01117376                0.03811479
               1.03786474                6.99186500               38.03928520                1.00000000               -0.03143795               -0.03080500                0.10477447               -0.00054791               -0.01090450                0.01565315
               2.03754193                6.98767595               38.03817617                0.01000000               -0.29549271               -0.17605491                0.11065445                0.56705151                0.02527363                0.01644140
               3.03195488                6.98865947               38.03778837                0.01000001               -0.46917888               -0.40747230                0.11403325                1.10340096                0.09775693               -0.03641894
               4.02815836                6.99216577               38.03858649                0.01001979               -0.44188146               -0.16346520                0.12094043                1.16237646                0.18728354                0.03173549
               5.02311725                6.99753801               38.04030579                0.01000000               -0.48846411               -0.09521659                0.12903846                1.03578860                0.24286788                0.09163309
               6.01838908                7.00180148               38.04257529                0.01000001               -0.42297813               -0.10660362                0.13623540                0.74162591                0.27616486                0.15800789
               7.01465769                7.00441543               38.04527057                0.01000000               -0.29251736               -0.18719983                0.14312911                0.41794201                0.28734643                0.24276268
               8.01253873                7.00537709               38.04799815                0.01000002               -0.13258503               -0.30395514                0.14966114                0.13430479                0.25408599                0.36425245
               9.01200599                7.00560161               38.05013725                0.01000002               -0.03115724               -0.33828023                0.15488375               -0.00302564                0.15364431                0.45740455
              10.01191558                7.00598676               38.05085270                0.01000001               -0.00904060               -0.09194736                0.15971853               -0.03333782                0.08428857                0.50444273
               0.04238227                7.99576312               38.04057327                1.00000000               -0.03145155               -0.03038219                0.10174278                0.00047831               -0.00106515                0.02045912
               1.04206775                7.99154672               38.03945117                0.99999999               -0.03232050               -0.03226919                0.10764899                0.00004611               -0.00086516                0.00332169
               2.04173586                7.98733889               38.03832779                0.27090185               -0.03423516               -0.03413297                0.11352002               -0.00038765               -0.00577282               -0.01384426
               3.04138305                7.98313157               38.03710514                0.01000001               -0.36108207               -0.29411595                0.11400358                0.88324814                0.13973956               -0.07090128
               4.03451422                7.99136724               38.03889666                0.01002560               -0.68457263               -0.03724627                0.12438683                1.18547766                0.28469380                0.01656868
               5.02769160                7.99723751               38.04107255                0.01000001               -0.66474495                0.06257878                0.13287087                0.81134934                0.31485680                0.07339525
               6.02121932                8.00153851               38.04390481                0.01000000               -0.60409877                0.05178997                0.14177030                0.46863159                0.36326344                0.13422824
               7.01560962                8.00338910               38.04745733                0.01000001               -0.49674041               -0.00383901                0.14911549                0.08314415                0.42617637                0.21756344
               8.01128451                8.00296957               38.05184517                0.01000002               -0.31713583               -0.10978663                0.15739323               -0.28701795                0.40973581                0.36607881
               9.00926690                8.00232900               38.05533357                0.01000000               -0.12529528               -0.26536978                0.16636491               -0.49291910                0.27259165                0.75829847
              10.00877860                8.00496458               38.05706106                0.01000000               -0.04883010               -0.31441155                0.17257982               -0.35064242                0.18586613                0.72512576
               0.04661305                8.99545481               38.04084545                1.00000000               -0.03231642               -0.03129562                0.10471848                0.00048657                0.00251376                0.01999743
               1.04628989                8.99121961               38.03963789                0.99999998               -0.03318578               -0.03316942                0.11062725                0.00004372                0.00190808                0.00309717
               2.04594934                8.98699329               38.03841837                0.99999996               -0.03491953               -0.03497602                0.11656143                0.00009086               -0.00340666               -0.00979620
               3.04559150                8.98277715               38.03710802                0.01000000               -0.40936818               -0.03636060                0.12254058                0.64283692                0.15636415               -0.02096688
               4.03776197                8.99142084               38.03909075                0.01000000               -0.82092656                0.17090515                0.12892073                0.83941478                0.32324387                0.00576561
               5.02917297                8.99878959               38.04159121                0.01000000               -0.80759312                0.19332134                0.13693744                0.50935435                0.36383507                0.04519079
               6.02161011                9.00283728               38.04485710                0.01000002               -0.71417270                0.16461346                0.14350335                0.21425231                0.43437681                0.08136405
               7.01488951                9.00433865               38.04915443                0.01000002               -0.68758232                0.13597721                0.15594936               -0.05012843                0.53748560                0.13197213
               8.00785846                9.00318136               38.05497163                0.01000000               -0.73684580                0.13203647                0.16035282               -0.36432773                0.82383511                0.25113665
               9.00015260                9.00029421               38.06519864                0.99999997               -0.41134388               -0.12775073                0.17357285               -0.60008517                0.51093272                0.49153971
               9.99963159                8.99969853               38.06519963                0.99999999               -0.05210096               -0.28934067                0.17372960               -0.48709658               -0.00040907                0.40443313
               0.05086239                9.99513721               38.04101728                1.00000000               -0.03322460               -0.03176024                0.10762119               -0.00045316                0.01371608                0.01492032
               1.05053015                9.99088334               38.03979875                1.00000000               -0.03411295               -0.03362776                0.11355300               -0.00086604                0.01714241                0.00157430
               2.05018013                9.98663937               38.03865434                0.99999997               -0.03589567               -0.03539204                0.11953447               -0.00086921                0.01698807               -0.00291748
               3.04981223                9.98240436               38.03744110                0.46163856               -0.74450294               -0.03727969                0.12547110                0.82937211                0.16012480               -0.00497987
               4.03529008                9.99478534               38.03917078                0.01000001               -1.16749941                0.33644961                0.13313650                0.68778899                0.30440043                0.00979412
               5.02646225               10.00110393               38.04167953                0.01000001               -0.76673852                0.23143427                0.14018415                0.23119986                0.36501020                0.02945856
               6.01995531               10.00483078               38.04505191                0.01000001               -0.60996377                0.19934973                0.14458679                0.08475507                0.45503155                0.05075024
               7.01426297               10.00610864               38.04958259                0.01000000               -0.59564593                0.17699974                0.16196441               -0.02367818                0.60537923                0.07336303
               8.00804239               10.00561030               38.05649777                0.01000002               -0.67574668                0.24289359                0.16160826               -0.29834053                0.81392748                0.17532634
               9.00074804                9.99977399               38.06524036                0.99999999               -0.39071679               -0.05202251                0.17326586               -0.26208259                0.43741520                0.00033475
              10.00022805                9.99917776               38.06524134                1.00000000               -0.05199861               -0.05207606                0.17342256                0.00002387                0.00037358               -0.00037332
              -0.00278473                0.00409119               39.03192282                1.00000000               -0.02363786               -0.02192711                0.07277461                0.00210495               -0.00350110                0.00385569
               0.99697889                0.00228628               39.03275973                0.99999999               -0.02539735               -0.02566940                0.08475514                0.00191852               -0.00374630               -0.00141596
               1.99670732                0.00048667               39.03358857                0.01000000               -0.02842008               -0.02940895                0.09672396                0.03006788                0.00684647               -0.00148344
               2.99641049               -0.00074417               39.03463842                0.01000001               -0.06539444                0.02357600                0.09844727                0.07520334                0.04965923                0.04254274
               3.99539943                0.00156577               39.03693773                0.01000000               -0.17275949                0.05818097                0.10472421                0.18303733                0.08855622                0.00112900
               4.99295530                0.00780153               39.03864898                0.01000000               -0.46118171                0.08956551                0.09373463                0.47875156                0.09191801               -0.00208752
               5.98617580                0.02027614               39.04089237                0.09956826               -0.35337411               -0.02724329                0.08813413                0.52690751                0.06588849               -0.00149212
               6.98588781                0.02225882               39.04255636                0.99500935               -0.02973719               -0.02939840                0.09768801                0.00295947                0.02132717               -0.00463520
               7.98558105                0.02421404               39.04391630                1.00000000               -0.03203417               -0.03221756                0.10676387                0.00132777                0.00813204               -0.00044745
               8.98524713                0.02617188               39.04531397                1.00000000               -0.03473151               -0.03493220                0.11586962                0.00133513                0.00801570                0.00095925
               9.98488642                0.02813463               39.04667081                1.00000000               -0.03607083               -0.03772214                0.12483209                0.00120749                0.00593381                0.00539536
              -0.00095877                1.00387192               39.03182865                0.99654991               -0.02408949               -0.02211009                0.07426747                0.00029366                0.00155109                0.00444619
               0.99880033                1.00202959               39.03266345                0.09557027               -0.02590025               -0.02598675                0.08630435                0.00012123                0.00363910               -0.00344065
               1.99852322                1.00019258               39.03354050                0.01000000               -0.10886819               -0.02899163                0.09843668                0.05855381                0.03554547                0.02210721
               2.99662297                0.99949159               39.03501815                0.01000001               -0.27831354                0.01805150                0.10862918                0.14886224                0.03386950                0.04186476
               3.99295695                1.00214758               39.03685932                0.01000000               -0.41176713                0.04683858                0.10687058                0.38784367                0.05163278                0.00463741
               4.98838763                1.00869718               39.03835260                0.01000000               -0.43703640                0.02846106                0.09854148                0.74612655                0.04294232                0.01134442
               5.98421622                1.02000370               39.04013210                0.01000001               -0.22195858               -0.26530421                0.08961421                0.69543209                0.03264354                0.00625707
               6.98394846                1.02196484               39.04170580                0.99274927               -0.02892118               -0.02960720                0.09903209                0.00187153                0.01177834               -0.00455562
               7.98363780                1.02389187               39.04305963                1.00000000               -0.03241345               -0.03240879                0.10802466               -0.00006661                0.00132183               -0.00038104
               8.98330019                1.02582256               39.04442289                0.99999999               -0.03510296               -0.03510664                0.11702877               -0.00005086                0.00122461                0.00062487
               9.98293574                1.02775741               39.04577505                0.99999998               -0.03644445               -0.03789139                0.12598237               -0.00019596                0.00057792                0.00670332
               0.00090581                2.00364899               39.03174268                0.01000000               -0.02451586               -0.00840362                0.07584954                0.00434497                0.00202663                0.10984620
               1.00066065                2.00176655               39.03252739                0.01000000               -0.02447091               -0.09331132                0.08776540                0.00727246                0.03467762                0.09441632
               2.00041639                1.99990684               39.03396952                0.01000001               -0.16139599               -0.09495884                0.09202282                0.07246037                0.07726437                0.08507979
               2.99743273                1.99961686               39.03562857                0.01000000               -0.32328428               -0.03798968                0.10582553                0.33066207                0.06624218                0.05281544
               3.99395071                2.00250254               39.03691084                0.01000000               -0.37055159               -0.02642172                0.10667227                0.68567833                0.02995011                0.02735642
               4.99002170                2.00837075               39.03821871                0.01000001               -0.35669614               -0.11063558                0.10452512                0.94196974                0.01938330                0.03520250
               5.98681678                2.01497005               39.03952185                0.01000000               -0.39923097               -0.36668054                0.10315583                1.00552738                0.01044367                0.02937049
               6.98203708                2.02166668               39.04085409                0.01000000               -0.25473920               -0.20869650                0.10041535                0.59471346               -0.00517599                0.03056968
               7.98172200                2.02356587               39.04220325                0.13628826               -0.03282563               -0.03282792                0.10931155                0.00024106               -0.00565856               -0.00139784
               8.98138057                2.02546975               39.04352567                0.99999999               -0.03546043               -0.03538304                0.11816399                0.00004233               -0.00408255               -0.00168580
               9.98101279                2.02737680               39.04490766                1.00000000               -0.03677769               -0.03825803                0.12711761               -0.00014900               -0.00124541                0.00664972
               0.00289302                3.00370385               39.03375650                0.01000467               -0.02050848                0.01126459                0.07785290                0.01474731                0.00325850                0.22042345
               1.00268794                3.00016336               39.03439276                0.01000001               -0.03854514               -0.18958084                0.08732561                0.11033975                0.01138564                0.17785044
               2.00212212                2.99829340               39.03520422                0.01000000               -0.10237137               -0.20851945                0.09569030                0.30654272                0.02898566                0.11539351
               3.00064051                2.99873179               39.03619914                0.01000000               -0.21027454               -0.15192721                0.10370599                0.62217953                0.03600520                0.06311055
               3.99791663                3.00161914               39.03728206                0.01003709               -0.29404995               -0.14244127                0.10871332                0.89641835                0.03263452                0.05454329
               4.99475951                3.00648447               39.03839299                0.01000000               -0.34428907               -0.20070564                0.11038596                1.11059960                0.02585299                0.06259300
               5.99103085                3.01267009               39.03956931                0.01000001               -0.37562993               -0.25761336                0.11087708                1.13238908                0.01386094                0.08191473
               6.98724691                3.01779091               39.04070445                0.01000001               -0.55956458               -0.32019227                0.11195669                1.17961964               -0.02764672                0.09331550
               7.97983955                3.02323531               39.04132624                0.01000001               -0.38784078               -0.23858782                0.10892703                0.95398724               -0.04950346                0.10338768
               8.97949010                3.02511490               39.04258991                0.01005740               -0.03604558               -0.28815793                0.11926590                0.72804121               -0.00958418                0.09799325
               9.97911864                3.02699225               39.04401402                0.72733555               -0.03714530               -0.63238642                0.12826356                0.84980128               -0.00175834                0.08012256
               0.00828174                4.00387428               39.03575272                0.01000222               -0.00038448               -0.04308788                0.08025853                0.17897327               -0.00539276                0.23183887
               1.00827789                3.99797493               39.03602578                0.01000000               -0.01514625               -0.27525895                0.09005659                0.38046808                0.00030975                0.16270981
               2.00797881                3.99573645               39.03639287                0.01000000               -0.08636548               -0.27840241                0.09842041                0.69045698                0.01604342                0.10589602
               3.00655058                3.99657831               39.03700199                0.01003315               -0.19262079               -0.23479456                0.10598445                0.89744079                0.03408125                0.07150713
               4.00412640                3.99965372               39.03784589                0.01000000               -0.26839197               -0.22434305                0.11158579                1.09084705                0.04726566                0.06779500
               5.00118274                4.00435664               39.03891818                0.01000001               -0.29841325               -0.23585796                0.11561693                1.21605386                0.05523270                0.08913410
               5.99815813                4.00981779               39.04014256                0.01000001               -0.30592423               -0.29189083                0.11853692                1.29496297                0.05175760                0.12170056
               6.99506426                4.01526283               39.04136619                0.01002716               -0.23401873               -0.32714561                0.12076880                1.28312969                0.03945894                0.16027394
               7.99347776                4.01879411               39.04256778                0.01000001               -0.14399037               -0.46005222                0.12460189                1.37296640                0.02882985                0.21254383
               8.99218445                4.01970659               39.04368879                0.01000000                0.03881750               -0.55558751                0.13022856                0.98536159                0.00913726                0.21427312
               9.99425411                4.01472908               39.04462030                0.01000000                0.20696554               -0.89111060                0.13792955                0.74979234                0.00940816                0.15614714
               0.01827120                5.00284209               39.03793101                0.01000000                0.01639351               -0.38020699                0.08620012                0.50970087               -0.00908061                0.26675516
               1.01843513                4.99465818               39.03771003                0.01000000               -0.04716622               -0.29899113                0.09387044                0.80742525               -0.00322668                0.17758285
               2.01732787                4.99272536               39.03758399                0.01000001               -0.18815367               -0.25425299                0.10178117                0.95764919                0.01413918                0.08709839
               3.01467206                4.99403590               39.03781102                0.01000000               -0.26863137               -0.27374381                0.10891669                1.10361404                0.04625817                0.06293589
               4.01195524                4.99713228               39.03855933                0.01000001               -0.28777710               -0.25318149                0.11533631                1.20028207                0.08199748                0.07057339
               5.00891652                5.00176731               39.03972630                0.01000001               -0.29656669               -0.25513804                0.12084521                1.26224051                0.10437179                0.10340168
               6.00602391                5.00683228               39.04115879                0.01001183               -0.24916680               -0.29432273                0.12568701                1.22907285                0.11270370                0.15044072
               7.00393318                5.01124799               39.04270621                0.01000000               -0.15843920               -0.38862274                0.12994490                1.14378699                0.10844140                0.20457264
               8.00285513                5.01403426               39.04420301                0.01000001               -0.03354094               -0.46832852                0.13439655                0.94728920                0.08926722                0.24850253
               9.00326236                5.01400314               39.04543618                0.01000000                0.06071911               -0.51539781                0.14042123                0.63969890                0.05412738                0.26558993
              10.00406951                5.00917004               39.04617338                0.01000001                0.08071477               -0.38962259                0.14697804                0.31215823                0.03474702                0.22838090
               0.03484358                5.99627014               39.04069037                0.20326683               -0.03004442               -0.34111865                0.09220664                0.61557592               -0.00352363                0.16485027
               1.03454313                5.99199511               39.03984300                0.01000001               -0.35447520               -0.14768718                0.09864162                0.73891123               -0.02596481                0.11212476
               2.02775407                5.99065139               39.03853429                0.01000000               -0.51635985               -0.26624124                0.10545788                1.01469489               -0.01227810                0.06203599
               3.02421594                5.99110344               39.03853573                0.01000001               -0.36767228               -0.28005275                0.11223225                1.09825234                0.07523995                0.03674968
               4.02040063                5.99459009               39.03928482                0.01000001               -0.37441881               -0.25321414                0.11906802                1.24711227                0.12871857                0.05600562
               5.01672756                5.99925388               39.04066600                0.01001157               -0.35708607               -0.20754788                0.12598824                1.19747505                0.16808988                0.10379804
               6.01325891                6.00393133               39.04248199                0.01000000               -0.29947744               -0.24124362                0.13208092                1.04265783                0.18855660                0.16450956
               7.01073801                6.00749038               39.04451278                0.01000001               -0.17952581               -0.32828499                0.13779907                0.81778055                0.18810733                0.23514867
               8.00966839                6.00942754               39.04648331                0.01000000               -0.04476779               -0.42078639                0.14333483                0.58348519                0.16150827                0.30211776
               9.00984266                6.00939863               39.04804154                0.01011827                0.02475471               -0.41113678                0.14742207                0.31688673                0.09902535                0.34240921
              10.01016349                6.00693662               39.04872394                0.01000003                0.03208291               -0.15444667                0.15230085                0.15104892                0.05920394                0.32538623
               0.03913279                6.99601972               39.04136835                0.99693565               -0.03006807               -0.02727448                0.09704605               -0.00049367               -0.01129501                0.03858549
               1.03883211                6.99170444               39.04032523                0.99985776               -0.03096764               -0.03029703                0.10327209               -0.00050584               -0.01098016                0.01616172
               2.03851344                6.98740053               39.03927763                0.01000000               -0.30668506               -0.17931891                0.10962728                0.58989321                0.02457868                0.01702974
               3.03269841                6.98843485               39.03893849                0.01000001               -0.48831933               -0.41789313                0.11551347                1.14601868                0.09757348               -0.03801366
               4.02874705                6.99206800               39.03980586                0.01002801               -0.45868186               -0.16616125                0.12262913                1.20664539                0.18905092                0.03211908
               5.02352477                6.99761636               39.04160272                0.01000000               -0.50532419               -0.09647374                0.13053180                1.07603087                0.24508292                0.09388516
               6.01864057                7.00200740               39.04394606                0.01000001               -0.43660945               -0.10973245                0.13805755                0.77197883                0.27759430                0.16217592
               7.01479258                7.00468229               39.04671060                0.01000000               -0.30119950               -0.19385869                0.14497033                0.43754251                0.28884577                0.24820720
               8.01261658                7.00561854               39.04950569                0.01000001               -0.13507854               -0.31418459                0.15152977                0.14293770                0.25436031                0.37096548
               9.01209101                7.00578041               39.05169280                0.01000002               -0.03010394               -0.35179896                0.15760710               -0.00210847                0.15310634                0.46372568
              10.01201450                7.00608110               39.05245200                0.01000001               -0.00765131               -0.09428766                0.16240256               -0.03421472                0.08361694                0.50914681
               0.04346427                7.99572465               39.04158519                1.00000000               -0.03120639               -0.03007196                0.10067532                0.00062676               -0.00106175                0.02043894
               1.04315220                7.99138917               39.04052463                0.99999999               -0.03213707               -0.03210618                0.10706955                0.00006410               -0.00088446                0.00338448
               2.04282153                7.98706501               39.03946265                0.27893369               -0.03416817               -0.03414837                0.11346744               -0.00031682               -0.00773000               -0.01376075
               3.04246884                7.98274558               39.03826343                0.01000001               -0.37347491               -0.30249447                0.11700487                0.91464234                0.13989312               -0.07040956
               4.03535203                7.99126686               39.04015471                0.01000001               -0.70800336               -0.03712496                0.12683356                1.22834298                0.28814904                0.01771997
               5.02830877                7.99732440               39.04241277                0.01000001               -0.68597423                0.06577668                0.13488289                0.84292616                0.31761472                0.07554541
               6.02163254                8.00173668               39.04533097                0.01000000               -0.62155220                0.05351176                0.14347388                0.49135972                0.36639064                0.13684130
               7.01587773                8.00361320               39.04895892                0.01000001               -0.51017570               -0.00486442                0.15130360                0.09108878                0.42837323                0.22160184
               8.01142903                8.00314385               39.05342152                0.01000002               -0.32699059               -0.11323117                0.15881047               -0.29239862                0.41624116                0.37130595
               9.00933792                8.00236265               39.05702515                0.01011244               -0.12756153               -0.27613265                0.16815149               -0.50184397                0.27679305                0.76379988
              10.00887780                8.00505087               39.05881131                0.01000000               -0.04601187               -0.32134405                0.17358114               -0.35061831                0.18705686                0.72296300
               0.04781630                8.99541828               39.04189145                1.00000000               -0.03232691               -0.03122395                0.10448040                0.00062388                0.00253275                0.02003770
               1.04749303                8.99106231               39.04074567                0.99999998               -0.03328060               -0.03327299                0.11094613                0.00003746                0.00193613                0.00315280
               2.04715069                8.98671756               39.03958818                0.99999996               -0.03518143               -0.03526930                0.11743460                0.00002958               -0.00334943               -0.00970065
               3.04678941                8.98238496               39.03834030                0.01000205               -0.42078036               -0.03693726                0.12394529                0.66324524                0.15674880               -0.01891879
               4.03873508                8.99132550               39.04039176                0.01000000               -0.84379665                0.17602021                0.13083086                0.86919690                0.32821804                0.00564630
               5.02991347                8.99893189               39.04296756                0.01000000               -0.82780618                0.19857543                0.13882482                0.53046567                0.36627473                0.04619152
               6.02217896                9.00307764               39.04630108                0.01000002               -0.73531402                0.16984968                0.14659282                0.23051341                0.43790833                0.08219295
               7.01520719                9.00458501               39.05071240                0.01000002               -0.70799018                0.14054945                0.15668052               -0.04896040                0.54365741                0.13584414
               8.00801916                9.00335391               39.05659816                0.01000001               -0.75300416                0.13326410                0.16591281               -0.37396392                0.82226058                0.25103386
               9.00014711                9.00025776               39.06693553                0.99999997               -0.41967329               -0.13127517                0.17380958               -0.61440004                0.51642446                0.49402151
               9.99962569                8.99965422               39.06693697                0.99999999               -0.05214180               -0.29585157                0.17373818               -0.49274208               -0.00041329                0.40399710
               0.05218868                9.99510018               39.04209674                1.00000000               -0.03350094               -0.03181052                0.10825356               -0.00040944                0.01374574                0.01493028
               1.05185367                9.99072371               39.04094016                1.00000000               -0.03446027               -0.03386085                0.11471705               -0.00096397                0.01719855                0.00159309
               2.05149947                9.98635963               39.03985801                0.99999997               -0.03639305               -0.03579389                0.12120348               -0.00096555                0.01703512               -0.00288171
               3.05112581                9.98200683               39.03870664                0.49475765               -0.76552184               -0.03781290                0.12766048                0.85502225                0.16080405               -0.00499743
               4.03618904                9.99478727               39.04051167                0.01000003               -1.19799297                0.34617635                0.13435813                0.70984927                0.30765019                0.00945808
               5.02716595               10.00129591               39.04308200                0.01000000               -0.77996708                0.23640213                0.14170813                0.24256818                0.36603273                0.03014221
               6.02058970               10.00513368               39.04651108                0.01000001               -0.62718501                0.20560363                0.14907081                0.09748754                0.45910583                0.04989547
               7.01462225               10.00642419               39.05120249                0.01000000               -0.61563465                0.18391855                0.16169896               -0.02472164                0.61513180                0.07872731
               8.00827700               10.00580913               39.05815253                0.01000002               -0.69363211                0.24552171                0.16977891               -0.30856770                0.80721996                0.17361030
               9.00074961                9.99973715               39.06697298                0.99999999               -0.40234896               -0.05206087                0.17325935               -0.27351476                0.44128559                0.00033547
              10.00023002                9.99913384               39.06697442                1.00000000               -0.05195838               -0.05203838                0.17318794                0.00010242                0.00037554               -0.00037523
              -0.00371709                0.00421671               40.03264601                1.00000000               -0.02347072               -0.02176200                0.07186750                0.00232353               -0.00357096                0.00385614
               0.99604820                0.00236062               40.03360636                0.99999999               -0.02533518               -0.02570888                0.08454913                0.00200448               -0.00380735               -0.00145439
               1.99577620                0.00051180               40.03455863                0.01000001               -0.04434258               -0.02967083                0.09724636                0.03894766                0.03542293               -0.00146241
               2.99516135               -0.00059017               40.03630434                0.01000001               -0.08006197               -0.00446307                0.17429448                0.04044074                0.08271364                0.01012295
               3.99417496                0.00164558               40.03784564                0.01000000               -0.16535075                0.05436703                0.09415289                0.18748007                0.06641375               -0.00439279
               4.99185433                0.00806501               40.03954816                0.01000000               -0.46684175                0.09464664                0.08902266                0.49634765                0.08868567               -0.00033315
               5.98483813                0.02101297               40.04176918                0.09165517               -0.36548041               -0.02694746                0.08703951                0.54792843                0.06088023               -0.00169841
               6.98454472                0.02305687               40.04353030                0.99177752               -0.02996935               -0.02930883                0.09731544                0.00367155                0.02178513               -0.00448598
               7.98423874                0.02506024               40.04498254                1.00000000               -0.03197854               -0.03219231                0.10660075                0.00137770                0.00829956               -0.00036607
               8.98390515                0.02706667               40.04647274                1.00000000               -0.03473222               -0.03496467                0.11589271                0.00138210                0.00809838                0.00094681
               9.98354410                0.02907854               40.04792050                1.00000000               -0.03610566               -0.03783230                0.12510715                0.00122516                0.00593890                0.00538986
              -0.00183777                1.00399909               40.03257022                0.99228653               -0.02415350               -0.02206186                0.07411144                0.00041491                0.00162689                0.00445861
               0.99792070                1.00210353               40.03352892                0.11359278               -0.02605807               -0.02614654                0.08682798                0.00008639                0.00370168               -0.00351779
               1.99764107                1.00021509               40.03453045                0.01000000               -0.14609149               -0.02958070                0.09958343                0.05322802                0.04854133                0.01881241
               2.99499887                0.99936520               40.03639111                0.01000001               -0.29594464                0.00541070                0.14843659                0.17077000                0.07702031                0.00491793
               3.99172218                1.00218925               40.03785201                0.01000000               -0.39323781                0.04410532                0.09873373                0.41852607                0.04154624                0.00985561
               4.98713411                1.00901147               40.03931702                0.01000000               -0.44503485                0.03124825                0.09618224                0.77806737                0.03336406                0.01548032
               5.98282148                1.02074350               40.04102500                0.01000001               -0.22881534               -0.27381606                0.08879826                0.72363266                0.02473713                0.01202432
               6.98255780                1.02276378               40.04269438                0.99227793               -0.02869325               -0.02952600                0.09874965                0.00248225                0.01206079               -0.00444580
               7.98224761                1.02473832               40.04413947                1.00000000               -0.03239893               -0.03239755                0.10797940               -0.00004288                0.00136203               -0.00032124
               8.98190982                1.02671703               40.04559405                0.99999999               -0.03515666               -0.03516127                0.11721038               -0.00003455                0.00123729                0.00059524
               9.98154448                1.02870022               40.04703708                0.99999998               -0.03653430               -0.03802457                0.12641489               -0.00021577                0.00056897                0.00669220
               0.00008232                2.00377547               40.03250338                0.01000000               -0.02484015               -0.00532591                0.07641738                0.00986687                0.00209439                0.10958399
               0.99983392                2.00183769               40.03341106                0.01000000               -0.02516177               -0.09576223                0.08906820                0.01233397                0.03147935                0.09305760
               1.99957909                1.99992019               40.03491294                0.01000001               -0.16156640               -0.09975181                0.09599748                0.07504240                0.07412992                0.08234034
               2.99660259                1.99951805               40.03669359                0.01000000               -0.33399362               -0.03547281                0.10885216                0.37614059                0.05998200                0.02959185
               3.99289921                2.00252768               40.03799123                0.01000000               -0.38705823               -0.02562052                0.10884986                0.72753274                0.02349465                0.03177534
               4.98886143                2.00868997               40.03925261                0.01000001               -0.36703712               -0.11325346                0.10331082                0.98508835                0.01010718                0.04069140
               5.98555847                2.01553665               40.04054905                0.01000000               -0.41309410               -0.37868039                0.10277109                1.04615547                0.00064664                0.03874787
               6.98059955                2.02246635               40.04185774                0.01000000               -0.26369177               -0.21511855                0.10021552                0.61821663               -0.01098015                0.03586494
               7.98028464                2.02441229               40.04329696                0.13936413               -0.03284909               -0.03286215                0.10937934                0.00027708               -0.00578794               -0.00169384
               8.97994256                2.02636345               40.04470902                0.99999997               -0.03556174               -0.03548159                0.11851000                0.00005805               -0.00416824               -0.00173634
               9.97957340                2.02831805               40.04618187                1.00000000               -0.03691624               -0.03843759                0.12770849               -0.00016965               -0.00126803                0.00664220
               0.00223514                3.00389257               40.03453171                0.01000001               -0.02124782                0.01595129                0.07774179                0.02059784                0.00245635                0.22083747
               1.00202266                3.00018828               40.03527085                0.01000001               -0.03867906               -0.19486429                0.08808791                0.12014788                0.00971695                0.17721805
               2.00146156                2.99822006               40.03617254                0.01000000               -0.10542381               -0.21640140                0.09743219                0.32475308                0.02733751                0.11488275
               2.99991418                2.99865575               40.03724848                0.01000000               -0.21803236               -0.15245540                0.10511805                0.64879848                0.03290063                0.05863241
               3.99710091                3.00167684               40.03836712                0.01003820               -0.30436367               -0.14259942                0.10875692                0.93942755                0.02560601                0.05313325
               4.99382691                3.00674640               40.03949755                0.01000000               -0.35663487               -0.20609179                0.11075409                1.15876599                0.01832747                0.06702891
               5.98996821                3.01316989               40.04067810                0.01000001               -0.38902070               -0.26532528                0.11116648                1.17829791                0.00595897                0.08835265
               6.98604650                3.01846141               40.04182654                0.01000001               -0.58060768               -0.33046586                0.11265634                1.22584174               -0.03700894                0.10245126
               7.97835606                3.02408108               40.04242649                0.01000001               -0.40206330               -0.24676646                0.11037625                0.99139867               -0.05502870                0.11012365
               8.97800523                3.02600739               40.04378520                0.01000000               -0.03620840               -0.29832744                0.11978375                0.75650148               -0.00940635                0.10332447
               9.97763189                3.02793146               40.04530050                0.75262191               -0.03733396               -0.65749377                0.12900920                0.88341507               -0.00176923                0.08561495
               0.00790285                4.00409450               40.03654797                0.01000000                0.00065404               -0.04378310                0.08005429                0.19143501               -0.00503257                0.23467182
               1.00790939                3.99794040               40.03692301                0.01000000               -0.01480829               -0.28401785                0.08980096                0.40085472                0.00014412                0.16371189
               2.00760669                3.99559216               40.03737936                0.01000000               -0.08938041               -0.28561318                0.09879987                0.72244203                0.01529306                0.10516321
               3.00612178                3.99646894               40.03806219                0.01003494               -0.20047880               -0.23879192                0.10640612                0.93890208                0.03185709                0.06997798
               4.00359711                3.99967569               40.03896452                0.01000000               -0.27890440               -0.22875175                0.11220734                1.13887223                0.04346843                0.06806187
               5.00054369                4.00456813               40.04007671                0.01000001               -0.30938427               -0.24158724                0.11628318                1.26750461                0.05002553                0.09205958
               5.99740942                4.01023014               40.04133129                0.01000001               -0.31692504               -0.30065942                0.11939047                1.34722715                0.04588614                0.12757319
               6.99420519                4.01585703               40.04257806                0.01003592               -0.24213994               -0.33737315                0.12173783                1.33293488                0.03409066                0.16772252
               7.99256663                4.01947696               40.04382114                0.01000001               -0.14914942               -0.47656876                0.12611499                1.42678801                0.02556700                0.22507816
               8.99122221                4.02039690               40.04500376                0.01000000                0.04134699               -0.57687802                0.13168933                1.02361991                0.01191713                0.21893548
               9.99339356                4.01516817               40.04602879                0.01000001                0.21713591               -0.92713611                0.13939424                0.77766147                0.01440934                0.15888998
               0.01837203                5.00301691               40.03878878                0.01000000                0.01700616               -0.39564964                0.08479252                0.53512836               -0.00891141                0.26924251
               1.01854209                4.99450793               40.03864425                0.01000000               -0.04950861               -0.30751362                0.09309181                0.84552392               -0.00278803                0.17807351
               2.01738186                4.99250779               40.03859807                0.01000001               -0.19667007               -0.25925463                0.10138858                1.00081546                0.01430160                0.08669944
               3.01460869                4.99387991               40.03890119                0.01000000               -0.28013493               -0.27901995                0.10925541                1.15156720                0.04558181                0.06231371
               4.01177916                4.99710180               40.03971552                0.01000001               -0.29930691               -0.25827871                0.11611875                1.25134870                0.08033410                0.07104897
               5.00862255                5.00191466               40.04093967                0.01000001               -0.30776503               -0.26133761                0.12191979                1.31436875                0.10201309                0.10619576
               6.00562386                5.00715670               40.04242212                0.01001766               -0.25820875               -0.30283211                0.12697925                1.27892131                0.10992397                0.15548593
               7.00345838                5.01171395               40.04401261                0.01000000               -0.16359534               -0.40126756                0.13138959                1.18875132                0.10606683                0.21085227
               8.00235195                5.01454970               40.04555304                0.01000001               -0.03359795               -0.48443106                0.13578597                0.98376343                0.08844917                0.25670369
               9.00278642                5.01446983               40.04685358                0.01000000                0.06453112               -0.53553648                0.14195386                0.66468966                0.05397293                0.27152756
              10.00364257                5.00938874               40.04765500                0.01000001                0.08561562               -0.40677699                0.14860430                0.32395892                0.03320791                0.23172350
               0.03562338                5.99618150               40.04159828                0.18038845               -0.02943958               -0.35387823                0.08948416                0.64381307               -0.00358572                0.16597994
               1.03532898                5.99179013               40.04081851                0.01000001               -0.36861838               -0.15006623                0.09648351                0.77096631               -0.02560414                0.11258552
               2.02825101                5.99040707               40.03958615                0.01000000               -0.53849327               -0.27098006                0.10493426                1.05684015               -0.01186655                0.06203516
               3.02455912                5.99088854               40.03965937                0.01000001               -0.38308396               -0.28542052                0.11256028                1.14362403                0.07539639                0.03627512
               4.02058933                5.99451012               40.04048016                0.01000001               -0.38914743               -0.25817709                0.12005959                1.29744133                0.12904183                0.05619633
               5.01677617                5.99934138               40.04193292                0.01001786               -0.37003858               -0.21228561                0.12744604                1.24597723                0.16806268                0.10630360
               6.01318856                6.00417350               40.04381059                0.01000000               -0.30944749               -0.24803407                0.13362732                1.08497611                0.18796067                0.16890274
               7.01058722                6.00783168               40.04589954                0.01000001               -0.18512778               -0.33902599                0.13944669                0.85157162                0.18747821                0.24114149
               8.00948601                6.00978834               40.04792708                0.01000000               -0.04551315               -0.43457524                0.14501615                0.60731354                0.15976475                0.30943335
               9.00967696                6.00968617               40.04951670                0.01000002                0.02744610               -0.42886606                0.14881667                0.32898430                0.09646270                0.35199173
              10.01003493                6.00703263               40.05023812                0.01000285                0.03579705               -0.16532116                0.15383361                0.15599372                0.05632547                0.33449586
               0.04003104                6.99593934               40.04232936                0.99498881               -0.02951876               -0.02663533                0.09501159               -0.00033549               -0.01152728                0.03911326
               1.03973585                6.99150660               40.04135064                0.99722323               -0.03053973               -0.02980816                0.10194964               -0.00037639               -0.01120633                0.01665814
               2.03942025                6.98708819               40.04036871                0.01000000               -0.31788687               -0.18269708                0.10904861                0.61281706                0.02445612                0.01702280
               3.03337812                6.98817150               40.04009864                0.01000001               -0.50725521               -0.42834891                0.11608384                1.18898960                0.09816392               -0.03930254
               4.02927514                6.99193826               40.04103907                0.01003687               -0.47497018               -0.16871901                0.12387037                1.25179876                0.19040522                0.03250445
               5.02387871                6.99766895               40.04291643                0.01000000               -0.52210304               -0.09789051                0.13237448                1.11746135                0.24606684                0.09631951
               6.01883308                7.00219602               40.04533644                0.01000001               -0.45018714               -0.11265949                0.13997780                0.80384459                0.27897610                0.16594387
               7.01487497                7.00493343               40.04816998                0.01000000               -0.30946745               -0.20061726                0.14687036                0.45807468                0.29023664                0.25365331
               8.01264373                7.00585820               40.05102874                0.01000001               -0.13765796               -0.32425589                0.15310755                0.15080952                0.25650560                0.37836003
               9.01212181                7.00589251               40.05328939                0.01000002               -0.02871056               -0.36619486                0.16028571               -0.00199320                0.15541542                0.47243695
              10.01206952                7.00608232               40.05410075                0.01000001               -0.00522893               -0.10468845                0.16750197               -0.03539519                0.08447635                0.51902824
               0.04448215                7.99564880               40.04258678                1.00000000               -0.03095446               -0.02976640                0.09959950                0.00072785               -0.00113234                0.02039189
               1.04417261                7.99119396               40.04159256                0.99999999               -0.03198473               -0.03197286                0.10659419                0.00001797               -0.00097246                0.00349155
               2.04384246                7.98675312               40.04059714                0.28527382               -0.03418820               -0.03421375                0.11363639               -0.00024639               -0.00884046               -0.01359407
               3.04348884                7.98232156               40.03944524                0.01000001               -0.38572985               -0.31079667                0.11906443                0.94636956                0.14019675               -0.07027097
               4.03612786                7.99113574               40.04143333                0.01000000               -0.73106032               -0.03807239                0.12875806                1.27429715                0.29192513                0.01791063
               5.02886764                7.99738357               40.04377021                0.01000001               -0.70634438                0.06876224                0.13697537                0.87474990                0.32084807                0.07701030
               6.02200097                8.00192031               40.04677429                0.01000000               -0.63905499                0.05525040                0.14549791                0.51130592                0.37006605                0.13979029
               7.01608654                8.00381934               40.05048340                0.01000001               -0.52289313               -0.00607323                0.15369481                0.09867615                0.43118404                0.22586156
               8.01154311                8.00330322               40.05502138                0.01000002               -0.33367834               -0.11935853                0.16062623               -0.30101244                0.42101997                0.37765193
               9.00941297                8.00236227               40.05869660                0.01000006               -0.12978485               -0.28328509                0.16741189               -0.51719497                0.28235988                0.77521757
              10.00894741                8.00493886               40.06053268                0.01000000               -0.04655575               -0.32334778                0.17053379               -0.36479540                0.19191751                0.73114233
               0.04895526                8.99534402               40.04293506                1.00000000               -0.03233773               -0.03117802                0.10427980                0.00072928                0.00257192                0.02003696
               1.04863189                8.99086715               40.04185682                0.99999998               -0.03337707               -0.03338647                0.11129088                0.00000733                0.00198202                0.00320442
               2.04828772                8.98640392               40.04076706                0.99992206               -0.03544960               -0.03555235                0.11835287                0.00001553               -0.00329154               -0.00959032
               3.04792289                8.98195556               40.03958692                0.01002542               -0.42943228               -0.03749198                0.12545902                0.68293502                0.15688036               -0.01770404
               4.03969908                8.99117681               40.04170737                0.01000000               -0.86668777                0.17994671                0.13318296                0.90142463                0.32868710                0.00570469
               5.03058914                8.99904419               40.04436771                0.01000000               -0.85378190                0.20471654                0.14170531                0.55200358                0.36825899                0.04666932
               6.02262344                9.00330103               40.04778895                0.01000002               -0.75617773                0.17441894                0.15060296                0.23918620                0.43811586                0.08405147
               7.01546558                9.00481196               40.05228804                0.01000002               -0.72714451                0.14418354                0.15941876               -0.04961914                0.54799408                0.13830352
               8.00808055                9.00347102               40.05828988                0.01013379               -0.76616562                0.13352704                0.16968871               -0.38559816                0.82203144                0.25476309
               9.00014227                9.00022681               40.06867484                0.99999997               -0.42300579               -0.13282378                0.17405698               -0.62583847                0.51889494                0.49775409
               9.99962043                8.99961536               40.06867439                0.99999999               -0.05218393               -0.29217420                0.17374361               -0.49688080               -0.00041754                0.40513191
               0.05345048                9.99502524               40.04318235                1.00000000               -0.03376256               -0.03187787                0.10882562               -0.00037855                0.01374995                0.01492957
               1.05311285                9.99052624               40.04209310                1.00000000               -0.03480650               -0.03409096                0.11584089               -0.00106120                0.01722207                0.00158607
               2.05275435                9.98604208               40.04107841                0.99999998               -0.03691015               -0.03618388                0.12288692               -0.00106291                0.01703178               -0.00289050
               3.05237465                9.98157172               40.03999431                0.54121247               -0.78433107               -0.03838417                0.12989025                0.87980542                0.16033072               -0.00499457
               4.03706773                9.99473467               40.04185794                0.01000001               -1.22955783                0.35578624                0.13778751                0.73217417                0.30747830                0.00890959
               5.02778349               10.00147790               40.04451369                0.01000003               -0.80254007                0.24337128                0.14547840                0.25313640                0.36622107                0.03043277
               6.02101693               10.00540869               40.04803332                0.01000001               -0.64296681                0.21076642                0.15452636                0.10060394                0.45536462                0.05060745
               7.01492416               10.00670301               40.05281657                0.01001629               -0.63003138                0.18910441                0.16306054               -0.02588905                0.61908640                0.08022707
               8.00841630               10.00597376               40.05989334                0.01000002               -0.70861466                0.25027383                0.17406272               -0.31628541                0.80103912                0.17597698
               9.00075186                9.99970580               40.06870555                0.99999999               -0.40918022               -0.05210144                0.17325603               -0.28295994                0.44096847                0.00033615
              10.00023269                9.99909538               40.06870510                1.00000000               -0.05191697               -0.05199836                0.17294266                0.00018447                0.00037750               -0.00037717
              -0.00477684                0.00431990               41.03336017                0.99973009               -0.02330392               -0.02161688                0.07102240                0.00253823               -0.00357291                0.00389467
               0.99499012                0.00241207               41.03445072                0.99999999               -0.02526846               -0.02575441                0.08435037                0.00209663               -0.00383060               -0.00143552
               1.99471779                0.00051379               41.03553350                0.01734518               -0.01061861               -0.02992729                0.09771815                0.03504107                0.07114504               -0.00146915
               2.99477775               -0.00071525               41.03812431                0.01000001               -0.06169564               -0.00840542                0.15068988                0.05397518                0.09302465               -0.03741939
               3.99348388                0.00146517               41.03882079                0.01000000               -0.19861434                0.07339336                0.10690579                0.18642858                0.04754823               -0.02439769
               4.99080546                0.00825715               41.04042943                0.01000002               -0.50363053                0.10451907                0.09204336                0.52091437                0.08619967                0.00105101
               5.98341127                0.02173054               41.04263316                0.08393155               -0.38476542               -0.02662159                0.08592181                0.57142311                0.05642997               -0.00179213
               6.98311016                0.02384094               41.04450267                0.98884774               -0.03033338               -0.02924632                0.09707655                0.00462073                0.02258293               -0.00452160
               7.98280460                0.02589287               41.04604832                1.00000000               -0.03195053               -0.03218440                0.10652246                0.00143950                0.00833866               -0.00037936
               8.98247114                0.02794819               41.04763182                1.00000000               -0.03474609               -0.03500093                0.11594556                0.00143791                0.00812292                0.00095187
               9.98210968                0.03000927               41.04917295                0.99999999               -0.03614647               -0.03793873                0.12538807                0.00124655                0.00595473                0.00538647
              -0.00284363                1.00410373               41.03331088                0.98803401               -0.02422320               -0.02203548                0.07405254                0.00053787                0.00167400                0.00447909
               0.99691414                1.00215452               41.03440001                0.13221122               -0.02622570               -0.02631495                0.08738970                0.00006708                0.00373826               -0.00352772
               1.99663186                1.00021452               41.03553217                0.01000000               -0.10361651               -0.03011211                0.10075315                0.04724239                0.07174984                0.01621526
               2.99484181                0.99920070               41.03798688                0.01000001               -0.28849482                0.00332856                0.15126325                0.13804625                0.16353964               -0.05110315
               3.99086196                1.00219910               41.03883400                0.01000000               -0.44799457                0.05788865                0.10497004                0.42396734                0.03097173                0.01111707
               4.98588192                1.00930234               41.04027625                0.01000000               -0.47641774                0.03734462                0.09820666                0.80628909                0.02720334                0.01971910
               5.98133361                1.02146433               41.04190807                0.01000001               -0.24033613               -0.28193149                0.08801755                0.75297210                0.01663462                0.01810955
               6.98107520                1.02354847               41.04368079                0.99163269               -0.02841196               -0.02945588                0.09851746                0.00330554                0.01257682               -0.00446694
               7.98076537                1.02557103               41.04521922                1.00000000               -0.03239371               -0.03239501                0.10796499                0.00000362                0.00137534               -0.00032759
               8.98042732                1.02759818               41.04676709                0.99999999               -0.03521523               -0.03521587                0.11740148                0.00000024                0.00124129                0.00059110
               9.98006107                1.02962988               41.04830335                0.99997482               -0.03662587               -0.03815220                0.12683500               -0.00022749                0.00056807                0.00668288
              -0.00086767                2.00387919               41.03327103                0.01000000               -0.02516552               -0.00138586                0.07712979                0.01603257                0.00210879                0.10885920
               0.99888068                2.00188577               41.03430875                0.01000000               -0.02579327               -0.09793762                0.09043544                0.01798274                0.02894508                0.09100505
               1.99861647                1.99991155               41.03588947                0.01000001               -0.16632931               -0.10449374                0.09901854                0.07624654                0.07199842                0.07872130
               2.99555409                1.99935132               41.03780561                0.01000000               -0.33774431               -0.03324297                0.10871460                0.34867660                0.04906882               -0.00364201
               3.99186158                2.00262294               41.03908784                0.01000000               -0.39440336               -0.02452910                0.11002645                0.74852170                0.01698375                0.03986501
               4.98766602                2.00900405               41.04028493                0.01000001               -0.38184979               -0.11506951                0.10450743                1.02010635                0.00106005                0.04717300
               5.98422458                2.01609191               41.04157727                0.01000000               -0.42982281               -0.39047123                0.10361830                1.08676017               -0.00907560                0.04887288
               6.97906957                2.02325182               41.04285840                0.01000000               -0.27348081               -0.22144292                0.09997700                0.64180982               -0.01703971                0.04165396
               7.97875497                2.02524497               41.04439083                0.14237462               -0.03286361               -0.03287133                0.10941740                0.00035009               -0.00581956               -0.00173149
               8.97841229                2.02724387               41.04589587                0.99997123               -0.03566204               -0.03557707                0.11886069                0.00009436               -0.00419746               -0.00175824
               9.97804173                2.02924622               41.04746183                1.00000000               -0.03705675               -0.03861277                0.12828602               -0.00018561               -0.00128590                0.00663147
               0.00146387                3.00407601               41.03531133                0.01000001               -0.02224283                0.02157273                0.07816869                0.02690902                0.00134558                0.22101220
               1.00124144                3.00019577               41.03615452                0.01000001               -0.03863146               -0.20050003                0.08882138                0.13086685                0.00825497                0.17441798
               2.00069124                2.99812464               41.03715286                0.01000000               -0.10687437               -0.22486805                0.09840900                0.34345482                0.02487701                0.11283671
               2.99910395                2.99853584               41.03830150                0.01000000               -0.22557807               -0.15130799                0.10559078                0.68161799                0.02910191                0.05258512
               3.99617967                3.00170852               41.03945720                0.01004014               -0.31444357               -0.14781989                0.10958386                0.97923953                0.01823573                0.05206503
               4.99281508                3.00700095               41.04060808                0.01000000               -0.36793168               -0.21241702                0.11173203                1.20484167                0.01113608                0.07238595
               5.98882104                3.01365490               41.04179264                0.01000001               -0.40283706               -0.27333434                0.11216307                1.22342872               -0.00177926                0.09520126
               6.98475834                3.01911961               41.04295757                0.01000001               -0.60203611               -0.34103077                0.11363049                1.27226773               -0.04636961                0.11224576
               7.97678032                3.02491360               41.04353377                0.01000001               -0.41651903               -0.25379234                0.11133287                1.02877251               -0.06090985                0.11747628
               8.97642796                3.02688664               41.04498559                0.01000002               -0.03638359               -0.31134771                0.12032057                0.78734379               -0.00942219                0.10853673
               9.97605265                3.02885763               41.04659421                0.77841105               -0.03753096               -0.68469250                0.12973604                0.91962421               -0.00177437                0.08920916
               0.00743099                4.00431064               41.03735380                0.01000000                0.00183888               -0.04496928                0.08019379                0.20242142               -0.00533349                0.23576576
               1.00744938                3.99787577               41.03782180                0.01000000               -0.01427495               -0.29358099                0.08998616                0.42160957                0.00002836                0.16222558
               2.00714549                3.99541419               41.03836887                0.01000000               -0.09234057               -0.29360440                0.09924023                0.75575603                0.01451148                0.10340323
               3.00560257                3.99632516               41.03913011                0.01003572               -0.20821204               -0.24254191                0.10715052                0.98073249                0.02940166                0.06866376
               4.00298125                3.99966654               41.04009004                0.01000000               -0.28930476               -0.23354528                0.11314432                1.18871550                0.03944409                0.06880817
               4.99981648                4.00475571               41.04124385                0.01000001               -0.32033774               -0.24829700                0.11745146                1.31968919                0.04469847                0.09525167
               5.99657450                4.01062523               41.04253037                0.01000001               -0.32801261               -0.30960987                0.12066265                1.40019528                0.03986540                0.13371530
               6.99325622                4.01643120               41.04380095                0.01000001               -0.25055523               -0.34880261                0.12305344                1.38545780                0.02861330                0.17566251
               7.99156339                4.02016912               41.04509008                0.01000910               -0.15205399               -0.49255980                0.12712633                1.47942723                0.02120105                0.23799193
               8.99021514                4.02101692               41.04632257                0.01000000                0.04644207               -0.59829398                0.13217634                1.05975761                0.00949145                0.22772106
               9.99249224                4.01555237               41.04740818                0.01000000                0.22770918               -0.96312236                0.13924945                0.80745392                0.01246312                0.16759095
               0.01838204                5.00317663               41.03962686                0.01000206                0.01880402               -0.41307352                0.08288073                0.55977296               -0.00940562                0.27084666
               1.01857008                4.99432415               41.03957187                0.01000000               -0.05125414               -0.31676716                0.09235079                0.88348649               -0.00246759                0.17710312
               2.01735696                4.99225255               41.03961176                0.01000001               -0.20519211               -0.26463666                0.10156000                1.04456206                0.01440581                0.08564535
               3.01446624                4.99368500               41.03999613                0.01000000               -0.29167595               -0.28468380                0.11022319                1.20061720                0.04496072                0.06156855
               4.01152344                4.99703762               41.04088170                0.01000001               -0.31080300               -0.26380379                0.11739603                1.30383396                0.07859737                0.07163080
               5.00825018                5.00203501               41.04216470                0.01000001               -0.31869958               -0.26762542                0.12328388                1.36835024                0.09933155                0.10907989
               6.00514945                5.00746270               41.04369838                0.01002544               -0.26632930               -0.31150793                0.12825547                1.32927744                0.10684356                0.16070105
               7.00292360                5.01214356               41.04533400                0.01000000               -0.16831504               -0.41376811                0.13270346                1.23572798                0.10370060                0.21702766
               8.00178315                5.01506240               41.04691873                0.01000001               -0.03418690               -0.50143091                0.13723241                1.02301625                0.08555186                0.26643013
               9.00223986                5.01492076               41.04827525                0.01000000                0.06738308               -0.55071348                0.14233680                0.68892481                0.05219957                0.27931722
              10.00313081                5.00959518               41.04914547                0.01000001                0.08909534               -0.41857892                0.14925217                0.33518787                0.03221621                0.23869990
               0.03633140                5.99604917               41.04248005                0.15900316               -0.02882194               -0.36815673                0.08683851                0.67300692               -0.00383779                0.16639477
               1.03604318                5.99154042               41.04177267                0.01000001               -0.38277584               -0.15302967                0.09435060                0.80354127               -0.02482137                0.11209581
               2.02867589                5.99012145               41.04063298                0.01000000               -0.56066649               -0.27612767                0.10471348                1.09943292               -0.01065110                0.06137030
               3.02482985                5.99063149               41.04078694                0.01000001               -0.39839842               -0.29110334                0.11316042                1.18970521                0.07590759                0.03479192
               4.02070792                5.99439047               41.04168602                0.01000001               -0.40357310               -0.26363479                0.12156514                1.34928211                0.12940077                0.05610608
               5.01675839                5.99940320               41.04321492                0.01002561               -0.38282088               -0.21647776                0.12896922                1.29515759                0.16799502                0.10883782
               6.01305150                6.00439507               41.04515453                0.01000000               -0.31936539               -0.25500627                0.13528172                1.12848633                0.18705557                0.17333541
               7.01037108                6.00815584               41.04730171                0.01000001               -0.19024885               -0.34860318                0.14085512                0.88634269                0.18620582                0.24748711
               8.00924652                6.01014050               41.04938363                0.01000000               -0.04551096               -0.44854821                0.14626946                0.63454671                0.15847685                0.31779050
               9.00946086                6.01000265               41.05101787                0.01000002                0.03003146               -0.44357527                0.15138263                0.34638740                0.09594134                0.36072671
              10.00984715                6.00718080               41.05180061                0.01000001                0.03862876               -0.17140337                0.15762409                0.16533992                0.05616949                0.34352292
               0.04085968                6.99581349               41.04326858                0.98945185               -0.02910500               -0.02611933                0.09339338               -0.00006044               -0.01138085                0.03971333
               1.04056863                6.99126356               41.04236422                0.99486657               -0.03025608               -0.02938022                0.10098788               -0.00021397               -0.01116903                0.01728263
               2.04025456                6.98673000               41.04145860                0.01000000               -0.32886486               -0.18633377                0.10879020                0.63577647                0.02430645                0.01661903
               3.03399133                6.98786293               41.04126016                0.01000001               -0.52585915               -0.43898047                0.11564755                1.23208235                0.09910346               -0.04078365
               4.02973737                6.99176492               41.04228327                0.01000001               -0.49212974               -0.17168489                0.12482910                1.30000857                0.19310333                0.03230155
               5.02414874                6.99770546               41.04425021                0.01000000               -0.53854196               -0.09949352                0.13434175                1.16120234                0.24682407                0.09916527
               6.01896653                7.00236258               41.04674562                0.01000001               -0.46218621               -0.11575452                0.14178357                0.83676037                0.28047267                0.16965061
               7.01490501                7.00517150               41.04964801                0.01000000               -0.31696286               -0.20717337                0.14871712                0.48060502                0.29145536                0.25991219
               8.01262728                7.00609144               41.05256785                0.01000001               -0.13888486               -0.33523789                0.15458038                0.16337325                0.25823170                0.38563557
               9.01212731                7.00604925               41.05489851                0.01000002               -0.02729823               -0.37605435                0.16129101                0.00443089                0.15865389                0.48316165
              10.01208131                7.00616711               41.05580204                0.01000001               -0.00460020               -0.10403598                0.16840526               -0.02837269                0.08998131                0.52598863
               0.04543006                7.99552679               41.04357718                1.00000000               -0.03076675               -0.02950198                0.09876992                0.00083131               -0.00106539                0.02054548
               1.04512239                7.99095282               41.04265652                0.99999999               -0.03190112               -0.03188462                0.10630338                0.00000195               -0.00098537                0.00361490
               2.04479204                7.98639478               41.04173537                0.29174958               -0.03429063               -0.03427546                0.11391697               -0.00003714               -0.00950013               -0.01361810
               3.04443658                7.98185188               41.04064472                0.01000001               -0.39632386               -0.31905644                0.11907843                0.97786843                0.14107040               -0.07068939
               4.03686556                7.99095677               41.04272988                0.01001797               -0.75259013               -0.03749672                0.12938589                1.31760590                0.29633655                0.01850405
               5.02938478                7.99741333               41.04515228                0.01000001               -0.72724470                0.07081658                0.13919338                0.90857699                0.32601171                0.07846092
               6.02232067                8.00207998               41.04824093                0.01000000               -0.65652277                0.05685286                0.14810713                0.53267265                0.37410768                0.14315235
               7.01625432                8.00401237               41.05203282                0.01000001               -0.53422174               -0.00767932                0.15563665                0.10584507                0.43527555                0.23213825
               8.01163623                8.00343575               41.05663404                0.01000002               -0.33902568               -0.12571151                0.16243420               -0.30425486                0.42415311                0.38603034
               9.00947381                8.00248156               41.06037338                0.01015194               -0.12961261               -0.29226830                0.16696426               -0.51612421                0.28429065                0.78118532
              10.00904398                8.00510008               41.06222199                0.01000000               -0.04298286               -0.32913308                0.17018158               -0.36130266                0.19133692                0.73206837
               0.05002424                8.99522345               41.04397705                1.00000000               -0.03235612               -0.03112931                0.10410574                0.00084721                0.00257051                0.02006994
               1.04970067                8.99062586               41.04297149                0.99999998               -0.03347399               -0.03349760                0.11165713                0.00003487                0.00200679                0.00324434
               2.04935476                8.98604449               41.04195524                0.99999998               -0.03569840               -0.03578235                0.11927839                0.00013972               -0.00317636               -0.00953530
               3.04898671                8.98148180               41.04084948                0.01000000               -0.44133569               -0.03798585                0.12694950                0.70433982                0.15765562               -0.01691406
               4.04052804                8.99101499               41.04305542                0.01000000               -0.88948178                0.18537692                0.13521281                0.92968238                0.32745051                0.00881180
               5.03119707                8.99912179               41.04580167                0.01000000               -0.87535500                0.20996352                0.14484899                0.57074313                0.37112203                0.04737285
               6.02302094                9.00349964               41.04931314                0.01000001               -0.77654640                0.17885538                0.15394934                0.24847812                0.44294610                0.08650199
               7.01566614                9.00501791               41.05390078                0.01000002               -0.74739746                0.14796549                0.16248266               -0.05163969                0.55555679                0.14238839
               8.00807299                9.00357721               41.05999193                0.01002410               -0.77628208                0.13430026                0.16707492               -0.40207284                0.83499262                0.26322789
               9.00014050                9.00020389               41.07041667                0.99999997               -0.42273825               -0.13995594                0.17431533               -0.63546724                0.52110010                0.50147352
               9.99961823                8.99958445               41.07041185                0.99999999               -0.05222732               -0.30175934                0.17374579               -0.50221868               -0.00042178                0.40799934
               0.05464218                9.99490420               41.04427325                1.00000000               -0.03401279               -0.03192526                0.10927775               -0.00033868                0.01378073                0.01488174
               1.05430205                9.99028287               41.04325697                1.00000000               -0.03516426               -0.03429972                0.11689871               -0.00111562                0.01729929                0.00156357
               2.05393889                9.98567913               41.04231574                0.99996156               -0.03745837               -0.03653605                0.12458507               -0.00112143                0.01706702               -0.00286511
               3.05355288                9.98109216               41.04130445                0.59132144               -0.80598357               -0.03896435                0.13213323                0.90587677                0.16159787               -0.00497960
               4.03781922                9.99466431               41.04326742                0.01000688               -1.26189466                0.36493245                0.14047163                0.75514001                0.30754347                0.01183999
               5.02831499               10.00161260               41.04599156                0.01000317               -0.82125565                0.24908067                0.15029816                0.26143079                0.36668197                0.03014587
               6.02139411               10.00565708               41.04960161                0.01000001               -0.65855171                0.21574481                0.15861743                0.10527109                0.45922055                0.05180427
               7.01514396               10.00697168               41.05446370                0.01000000               -0.64926540                0.19537709                0.16654185               -0.02898512                0.62563068                0.08092002
               8.00840880               10.00612175               41.06163378                0.01000002               -0.71933664                0.25445433                0.16898118               -0.33088112                0.81206198                0.18192158
               9.00075722                9.99968244               41.07043810                0.99999999               -0.40851599               -0.05214452                0.17325599               -0.29117077                0.44079355                0.00033676
              10.00023848                9.99906489               41.07043327                1.00000000               -0.05187421               -0.05195600                0.17268644                0.00027027                0.00037936               -0.00037909
              -0.00596964                0.00439318               42.03406646                0.99787971               -0.02320944               -0.02153709                0.07044716                0.00272256               -0.00351756                0.00398535
               0.99379826                0.00243331               42.03529336                0.99999999               -0.02524213               -0.02583774                0.08428667                0.00218626               -0.00380242               -0.00138170
               1.99352551                0.00048508               42.03651299                0.03164538               -0.00318564               -0.03016522                0.09815667                0.02151738                0.07505466               -0.00148966
               2.99373455               -0.00106371               42.03931814                0.01000001               -0.03523549               -0.02744551                0.09905721                0.15563417                0.04251478               -0.02461880
               3.99282080                0.00113120               42.03998375                0.01000000               -0.19842997                0.10133384                0.11409715                0.19594910                0.01210759               -0.03165151
               4.98976595                0.00839239               42.04138903                0.01000000               -0.54636593                0.11579687                0.09856631                0.54862198                0.05879477                0.00466395
               5.98189349                0.02242732               42.04348762                0.07635387               -0.40923618               -0.02657392                0.08519939                0.59650503                0.04795360               -0.00196540
               6.98158123                0.02461020               42.04547183                0.98600417               -0.03085618               -0.02914847                0.09675252                0.00587232                0.02353164               -0.00455838
               7.98127636                0.02671085               42.04711299                1.00000000               -0.03191250               -0.03215981                0.10640154                0.00149409                0.00832902               -0.00040929
               8.98094298                0.02881517               42.04879165                1.00000000               -0.03477153               -0.03503650                0.11601338                0.00148553                0.00810760                0.00095614
               9.98058093                0.03092547               42.05042826                0.99999999               -0.03620450               -0.03804784                0.12568052                0.00126998                0.00595582                0.00538052
              -0.00398255                1.00417781               42.03405127                0.98382622               -0.02432718               -0.02204874                0.07412803                0.00064752                0.00173521                0.00452788
               0.99577418                1.00217494               42.03527671                0.15145243               -0.02641253               -0.02650167                0.08799332                0.00008685                0.00378360               -0.00349296
               1.99548920                1.00018342               42.03654551                0.01000000               -0.04031739               -0.03055786                0.10186017                0.02417950                0.08579351                0.01404747
               2.99496783                0.99866184               42.03941637                0.01000001               -0.27184756                0.00971475                0.11608958                0.13060846                0.12314789               -0.06744030
               3.99005225                1.00214454               42.03995141                0.01000000               -0.51818599                0.07852882                0.11344315                0.44136445               -0.00845726                0.00161523
               4.98460411                1.00955036               42.04128115                0.01000000               -0.51513080                0.04546065                0.10194438                0.83221453                0.00185538                0.02339925
               5.97974963                1.02216158               42.04278535                0.01000001               -0.25529620               -0.28988937                0.08780307                0.78391794                0.00583893                0.02500628
               6.97949819                1.02431871               42.04466473                0.99098202               -0.02804063               -0.02937777                0.09826286                0.00458146                0.01313227               -0.00449745
               7.97918882                1.02638925               42.04629877                1.00000000               -0.03238324               -0.03238676                0.10793381                0.00002517                0.00137826               -0.00034262
               8.97885052                1.02846480               42.04794208                0.99999999               -0.03527447               -0.03526901                0.11759184                0.00001907                0.00124267                0.00061083
               9.97848333                1.03054499               42.04957378                0.99992605               -0.03671918               -0.03828257                0.12725938               -0.00024002                0.00057118                0.00668006
              -0.00195095                2.00395221               42.03404598                0.01000000               -0.02546684                0.00261163                0.07784319                0.02301862                0.00211618                0.10762814
               0.99779438                2.00190328               42.03521977                0.01000000               -0.02634254               -0.10056687                0.09170291                0.02468828                0.02680777                0.08843036
               1.99752220                1.99987392               42.03689331                0.01000001               -0.17043903               -0.10930171                0.10127840                0.07751124                0.06610161                0.07419485
               2.99438560                1.99913059               42.03886788                0.01000000               -0.33813148               -0.01394459                0.10493972                0.30259538                0.04611852               -0.02388743
               3.99075957                2.00270178               42.04019176                0.01000000               -0.39962032               -0.02143013                0.10910816                0.76389088                0.00481614                0.03397710
               4.98639320                2.00930160               42.04134276                0.01000001               -0.39780424               -0.11575799                0.10689005                1.05189216               -0.01228486                0.05029384
               5.98280349                2.01662953               42.04262141                0.01000000               -0.44740056               -0.40203834                0.10519107                1.12772697               -0.02202449                0.05880551
               6.97744519                2.02402264               42.04385728                0.01000000               -0.28363558               -0.22774703                0.09979437                0.66566852               -0.02408751                0.04802475
               7.97713078                2.02606311               42.04548531                0.14590097               -0.03287853               -0.03289477                0.10947241                0.00040864               -0.00580291               -0.00124676
               8.97678762                2.02810979               42.04708623                0.99999995               -0.03575117               -0.03566908                0.11920031                0.00012654               -0.00416696               -0.00170945
               9.97641575                2.03015982               42.04874759                1.00000000               -0.03718628               -0.03878485                0.12884332               -0.00020517               -0.00127052                0.00663078
               0.00057567                3.00423004               42.03609508                0.01000001               -0.02294421                0.02710411                0.07855152                0.03391256                0.00033368                0.21937602
               1.00034623                3.00016360               42.03704728                0.01000001               -0.03817781               -0.20678589                0.08965362                0.14339273                0.00678279                0.16999949
               1.99981211                2.99799739               42.03814072                0.01000000               -0.10771750               -0.23362960                0.09900771                0.36428742                0.02200898                0.10888724
               2.99819188                2.99838295               42.03936030                0.01000000               -0.23265324               -0.14914992                0.10572612                0.71607968                0.02353451                0.05041554
               3.99515905                3.00171594               42.04055879                0.01004218               -0.32388418               -0.15372101                0.11064048                1.01824667                0.01167491                0.05098944
               4.99171420                3.00723520               42.04173219                0.01000000               -0.37879606               -0.21925294                0.11316308                1.25045077                0.00249259                0.07547917
               5.98758313                3.01412081               42.04292136                0.01000001               -0.41681099               -0.28154097                0.11365646                1.26873602               -0.01064447                0.10129102
               6.98337798                3.01976377               42.04409915                0.01000001               -0.62366410               -0.35143945                0.11470838                1.31915512               -0.05650562                0.12250511
               7.97510985                3.02573136               42.04465315                0.01000001               -0.43108151               -0.26056376                0.11238330                1.06629460               -0.06720379                0.12494067
               8.97475635                3.02775142               42.04619161                0.01000000               -0.03653420               -0.32240667                0.12085689                0.81721272               -0.00984002                0.11375813
               9.97437916                3.02976930               42.04789522                0.80483720               -0.03771827               -0.70955447                0.13041924                0.95458011               -0.00177113                0.09367529
               0.00686019                4.00449429               42.03815184                0.01000003                0.00347011               -0.04612251                0.07925450                0.21323835               -0.00554178                0.23456752
               1.00689489                3.99776756               42.03872274                0.01000000               -0.01357936               -0.30322411                0.09004502                0.44343236               -0.00019110                0.15957238
               2.00658860                3.99520133               42.03936417                0.01000000               -0.09531200               -0.30203991                0.09994105                0.79068142                0.01313821                0.10125794
               3.00498865                3.99614759               42.04020520                0.01003787               -0.21581747               -0.24642457                0.10822830                1.02360538                0.02670209                0.06785893
               4.00227225                3.99962736               42.04122740                0.01000000               -0.29956586               -0.23887491                0.11458298                1.23962184                0.03502625                0.06958472
               4.99899733                4.00491654               42.04242574                0.01000001               -0.33113105               -0.25550057                0.11914813                1.37248370                0.03896524                0.09803391
               5.99564963                4.01099871               42.04374455                0.01000001               -0.33897930               -0.31871303                0.12225966                1.45428058                0.03331253                0.13913833
               6.99221775                4.01699386               42.04503913                0.01000001               -0.25903062               -0.36050200                0.12465794                1.43935920                0.02266820                0.18386678
               7.99046902                4.02085184               42.04636367                0.01000002               -0.15619090               -0.50733023                0.12813627                1.53398444                0.01684314                0.24903661
               8.98909393                4.02166165               42.04764729                0.01000000                0.05012938               -0.61952694                0.13308779                1.09821078                0.00610037                0.23845695
               9.99147161                4.01596873               42.04881378                0.01003146                0.23776779               -0.99994906                0.14085822                0.83907276                0.01005512                0.17782612
               0.01829389                5.00330759               42.04044640                0.01000003                0.02139487               -0.43133070                0.08110662                0.58421230               -0.00923128                0.27021087
               1.01850784                4.99409912               42.04049126                0.01000000               -0.05240860               -0.32639332                0.09167093                0.92168694               -0.00178605                0.17435296
               2.01724572                4.99195659               42.04062927                0.01000001               -0.21349398               -0.27068483                0.10217068                1.08952311                0.01499781                0.08414190
               3.01423796                4.99345446               42.04110565                0.01000000               -0.30315916               -0.29136235                0.11168239                1.25087152                0.04413566                0.06099510
               4.01118253                4.99693844               42.04206344                0.01000001               -0.32227229               -0.26983401                0.11937236                1.35739227                0.07602574                0.07254906
               5.00779251                5.00212519               42.04340535                0.01000001               -0.32955518               -0.27419568                0.12510795                1.42391672                0.09566790                0.11152949
               6.00459143                5.00774655               42.04498723                0.01003319               -0.27402381               -0.32028723                0.12970438                1.38108958                0.10234634                0.16527428
               7.00231204                5.01255373               42.04666668                0.01000000               -0.17348467               -0.42632191                0.13411656                1.28513445                0.09823331                0.22555303
               8.00112174                5.01558475               42.04829769                0.01000000               -0.03541829               -0.51784029                0.13848459                1.06387584                0.08030101                0.27620205
               9.00160367                5.01536088               42.04970031                0.01000000                0.07123658               -0.56921063                0.14329077                0.71352199                0.04873466                0.28803612
              10.00254647                5.00977031               42.05064005                0.01000001                0.09427979               -0.43611056                0.15050583                0.34700463                0.03096294                0.24517718
               0.03696139                5.99586767               42.04333505                0.13890368               -0.02817562               -0.38355550                0.08411378                0.70311540               -0.00397998                0.16653572
               1.03667963                5.99123970               42.04270553                0.01000001               -0.39688299               -0.15653527                0.09230446                0.83672873               -0.02322058                0.11098227
               2.02902373                5.98978763               42.04168042                0.01000000               -0.58276976               -0.28192070                0.10537350                1.14226807               -0.00878091                0.06010268
               3.02502424                5.99032034               42.04192258                0.01000001               -0.41371800               -0.29782071                0.11595227                1.23703024                0.07644825                0.03296727
               4.02074937                5.99423068               42.04291147                0.01000001               -0.41783416               -0.26990041                0.12380528                1.40384593                0.12945018                0.05564821
               5.01666755                5.99943263               42.04451230                0.01003529               -0.39532447               -0.22051466                0.13084620                1.34613152                0.16660247                0.11070766
               6.01284288                6.00459297               42.04651622                0.01000000               -0.32926559               -0.26219576                0.13727882                1.17440481                0.18513206                0.17732171
               7.01008224                6.00846742               42.04871664                0.01000001               -0.19517447               -0.35765856                0.14238158                0.92359379                0.18429522                0.25443264
               8.00893939                6.01049503               42.05085247                0.01000000               -0.04517169               -0.46321269                0.14751879                0.66230744                0.15719257                0.32626048
               9.00917881                6.01027744               42.05254436                0.01000002                0.03267252               -0.45803267                0.15320614                0.36042565                0.09509561                0.36773093
              10.00959284                6.00724652               42.05339061                0.01000001                0.04140320               -0.17948005                0.15946663                0.17268921                0.05578619                0.34705353
               0.04161215                6.99563648               42.04419722                0.98177301               -0.02896962               -0.02582169                0.09276534                0.00023243               -0.01134122                0.04076065
               1.04132245                6.99096841               42.04337040                0.99295372               -0.03008601               -0.02903536                0.10039428               -0.00016138               -0.01120351                0.01831106
               2.04101043                6.98631818               42.04254452                0.01000000               -0.33934693               -0.19017513                0.10823294                0.65850766                0.02363553                0.01579066
               3.03453552                6.98749804               42.04241159                0.01000001               -0.54316334               -0.45009434                0.11437382                1.27568838                0.10107027               -0.04810076
               4.03014716                6.99154043               42.04353565                0.01000001               -0.50913339               -0.17485019                0.12683963                1.35072614                0.19633085                0.03176606
               5.02435285                6.99771489               42.04560326                0.01000000               -0.55512125               -0.10156483                0.13672505                1.20857392                0.25044635                0.09917365
               6.01904474                7.00250264               42.04817211                0.01000001               -0.47355002               -0.11885676                0.14389470                0.87226861                0.28165578                0.17359061
               7.01488185                7.00540056               42.05114432                0.01000000               -0.32434399               -0.21290433                0.15016842                0.50672760                0.29238157                0.26599832
               8.01255786                7.00632050               42.05412035                0.01000001               -0.14105760               -0.34476458                0.15584200                0.17729440                0.25989574                0.39389484
               9.01206070                7.00620023               42.05651521                0.01000002               -0.02478807               -0.39048096                0.16178047                0.00961239                0.15931425                0.49069450
              10.01206210                7.00618071               42.05746885                0.01000001                0.00014018               -0.11380483                0.16698681               -0.02774616                0.08943184                0.52902581
               0.04630218                7.99535124               42.04456218                1.00000000               -0.03074692               -0.02935700                0.09839685                0.00105660               -0.00112605                0.02053293
               1.04599471                7.99065899               42.04371863                0.99999999               -0.03189629               -0.03184189                0.10623750                0.00021336               -0.00111706                0.00369934
               2.04566425                7.98598413               42.04287548                0.30179161               -0.03394782               -0.03426687                0.11401698               -0.00023796               -0.01155829               -0.01360195
               3.04531575                7.98131846               42.04182681                0.01000001               -0.40586070               -0.32702435                0.10859788                1.00949260                0.13935636               -0.06962373
               4.03754704                7.99073367               42.04402105                0.01000001               -0.77194647               -0.03624646                0.12810125                1.36158075                0.30484118                0.01888859
               5.02987682                7.99740133               42.04655407                0.01000000               -0.74722279                0.07187320                0.14303166                0.94415846                0.33098519                0.07905476
               6.02260258                8.00221583               42.04973643                0.01000000               -0.67389435                0.05838734                0.15029960                0.55732541                0.37771886                0.14670302
               7.01639893                8.00420933               42.05359614                0.01000001               -0.54584859               -0.00858580                0.15694639                0.11999928                0.43931438                0.23858375
               8.01168561                8.00359974               42.05827006                0.01000002               -0.34440481               -0.12923291                0.16353274               -0.30174298                0.42639506                0.39104123
               9.00951084                8.00246782               42.06203588                0.01000000               -0.13043302               -0.30043328                0.16614586               -0.52728273                0.28888115                0.78983072
              10.00907695                8.00497042               42.06393631                0.01000000               -0.04338895               -0.33083230                0.16905508               -0.37176288                0.19614748                0.73464042
               0.05101778                8.99504934               42.04501718                1.00000000               -0.03239506               -0.03103895                0.10385882                0.00104695                0.00260129                0.01996528
               1.05069383                8.99033157               42.04408996                0.99999998               -0.03357902               -0.03362225                0.11209666                0.00025690                0.00205063                0.00325721
               2.05034620                8.98563284               42.04315263                1.00000000               -0.03590054               -0.03601857                0.12024514                0.00049714               -0.00314744               -0.00945063
               3.04997582                8.98095755               42.04212591                0.01003469               -0.45251514               -0.03781298                0.12820506                0.72609198                0.15784393               -0.01483637
               4.04129590                8.99081550               42.04441163                0.01000000               -0.91109841                0.19068960                0.13687479                0.95896245                0.32976256                0.00950901
               5.03175386                8.99915236               42.04726469                0.01000000               -0.89563254                0.21498456                0.14810073                0.58805060                0.37500341                0.04862482
               6.02338325                9.00367039               42.05086794                0.01000001               -0.79279643                0.18260053                0.15654821                0.26015529                0.44741786                0.08845230
               7.01589793                9.00522885               42.05553770                0.01000002               -0.75593719                0.14931101                0.16311239               -0.04644437                0.56051128                0.14740674
               8.00826451                9.00373584               42.06163138                0.01001878               -0.78767834                0.13643765                0.16465428               -0.40198757                0.84811789                0.26600402
               9.00014436                9.00019156               42.07216114                0.99999997               -0.43214329               -0.13990782                0.17458491               -0.64571796                0.52669918                0.50617068
               9.99962164                8.99956407               42.07214931                0.99999999               -0.05227190               -0.29627342                0.17374480               -0.50409973               -0.00042621                0.40974682
               0.05575865                9.99473046               42.04536790                0.99999999               -0.03423053               -0.03188809                0.10948518               -0.00030496                0.01392655                0.01482865
               1.05541635                9.98998654               42.04443107                0.99999998               -0.03552196               -0.03450296                0.11783377               -0.00108396                0.01756684                0.00154345
               2.05504821                9.98526376               42.04357011                0.99999999               -0.03807085               -0.03690838                0.12634941               -0.00101650                0.01729039               -0.00283788
               3.05465493                9.98056220               42.04263697                0.63915959               -0.82583658               -0.03953573                0.13472455                0.93209606                0.16110173               -0.00506595
               4.03853148                9.99454746               42.04466738                0.01001800               -1.29359910                0.37319640                0.14488741                0.78049940                0.31012286                0.01069577
               5.02878295               10.00170102               42.04751965                0.01000000               -0.84011418                0.25486669                0.15441481                0.26892829                0.36991899                0.03114415
               6.02172920               10.00586784               42.05120567                0.01000000               -0.66891772                0.21974593                0.16195227                0.10932097                0.46220592                0.05225155
               7.01540459               10.00719555               42.05614740                0.01000004               -0.65230287                0.19667034                0.16765997               -0.02630086                0.62856149                0.08203361
               8.00868314               10.00632849               42.06327297                0.01000002               -0.73181716                0.25926552                0.16597177               -0.33443083                0.82638626                0.18307059
               9.00076825                9.99966967               42.07217067                0.99999999               -0.42165962               -0.05218977                0.17325929               -0.30178795                0.44581388                0.00033717
              10.00024995                9.99904495               42.07215882                1.00000000               -0.05183026               -0.05191132                0.17241892                0.00035944                0.00038144               -0.00038076
              -0.00730099                0.00442998               43.03476912                0.99616043               -0.02314653               -0.02152074                0.07010463                0.00289481               -0.00354186                0.00401816
               0.99246754                0.00241773               43.03613645                0.99999999               -0.02524482               -0.02594799                0.08432729                0.00225282               -0.00387046               -0.00135334
               1.99219411                0.00041896               43.03749663                0.04617119               -0.01551283               -0.03038179                0.09855206                0.01030454                0.05819418               -0.00149750
               2.99215729               -0.00140409               43.04010545                0.01000001               -0.02694870               -0.02937574                0.08110776                0.19805141                0.02141778               -0.01099974
               3.99165514                0.00089682               43.04110273                0.01000000               -0.18398961                0.11265814                0.10489927                0.21580427               -0.01643377               -0.02023367
               4.98847749                0.00856619               43.04240076                0.01008533               -0.56837953                0.12504140                0.10111123                0.57070742                0.02352306                0.00767453
               5.98028755                0.02309578               43.04433715                0.06920246               -0.42610395               -0.02651199                0.08452038                0.61781564                0.03685311               -0.00234281
               6.97995541                0.02536397               43.04643772                0.98334502               -0.03180930               -0.02908997                0.09646467                0.00776855                0.02444024               -0.00464659
               7.97965136                0.02751313               43.04817635                1.00000000               -0.03186914               -0.03212734                0.10625730                0.00154645                0.00822646               -0.00043122
               8.97931803                0.02966645               43.04995209                1.00000000               -0.03478921               -0.03506371                0.11604733                0.00154927                0.00804840                0.00096779
               9.97895558                0.03182584               43.05168656                0.99999999               -0.03624552               -0.03816907                0.12600137                0.00129076                0.00590106                0.00535716
              -0.00525980                1.00421477               43.03479344                0.97973086               -0.02446229               -0.02210182                0.07432195                0.00075083                0.00176270                0.00451962
               0.99449558                1.00215825               43.03615988                0.17103008               -0.02660653               -0.02669609                0.08860413                0.00011618                0.00382307               -0.00347664
               1.99420807                1.00011515               43.03756937                0.01000000               -0.02983546               -0.03093667                0.10290888                0.01200860                0.07222597                0.01191258
               2.99389887                0.99830215               43.04030867                0.01000001               -0.26900164                0.01668732                0.08760164                0.14644967                0.05352415               -0.04130313
               3.98882804                1.00202341               43.04110286                0.01000000               -0.54068888                0.08991391                0.10885146                0.46711712               -0.03725993               -0.00330724
               4.98308509                1.00981660               43.04231514                0.01000000               -0.53806117                0.04963476                0.10359366                0.86602116               -0.03126624                0.02494012
               5.97806681                1.02283066               43.04366413                0.01000001               -0.26303346               -0.29818817                0.08791147                0.81192426               -0.00691396                0.03223518
               6.97782442                1.02507307               43.04564605                0.99034172               -0.02756154               -0.02930356                0.09801910                0.00648543                0.01335981               -0.00455975
               7.97751558                1.02719186               43.04737790                0.99999999               -0.03236263               -0.03237376                0.10788155                0.00006729                0.00137445               -0.00037195
               8.97717717                1.02931581               43.04911893                0.99999999               -0.03532453               -0.03531480                0.11776173                0.00004663                0.00125073                0.00066359
               9.97680909                1.03144415               43.05084854                0.99998141               -0.03680768               -0.03842228                0.12770620               -0.00026517                0.00057970                0.00665163
              -0.00317294                2.00398794               43.03482790                0.01000000               -0.02575681                0.00714457                0.07852898                0.03088429                0.00211508                0.10587553
               0.99656949                2.00188381               43.03614281                0.01000000               -0.02683357               -0.10327294                0.09283895                0.03240789                0.02474417                0.08533403
               1.99629039                1.99980023               43.03791504                0.01000001               -0.16957367               -0.11418051                0.10252885                0.08280827                0.05783026                0.06863263
               2.99317802                1.99892965               43.03990440                0.01000000               -0.34036824               -0.00476611                0.10174043                0.30762876                0.03849268               -0.01472617
               3.98948302                2.00269510               43.04127000                0.01000000               -0.40936764               -0.01653713                0.10686093                0.79212353               -0.01003687                0.02557015
               4.98499067                2.00955888               43.04242273                0.01000001               -0.41067279               -0.11945207                0.10811687                1.09270922               -0.02712123                0.05075710
               5.98126957                2.01713201               43.04368109                0.01000000               -0.46333721               -0.41365337                0.10626016                1.16966976               -0.03783688                0.06840261
               6.97572392                2.02477790               43.04485428                0.01000000               -0.29298038               -0.23425985                0.09957579                0.69028274               -0.03214472                0.05489670
               7.97540996                2.02686566               43.04658028                0.15011226               -0.03286246               -0.03289033                0.10946127                0.00052274               -0.00572270               -0.00038821
               8.97506667                2.02896015               43.04827987                0.99999999               -0.03581813               -0.03575356                0.11953251                0.00018250               -0.00407163               -0.00158760
               9.97469360                2.03105739               43.05003870                1.00000000               -0.03730744               -0.03896051                0.12939585               -0.00023074               -0.00123235                0.00658194
              -0.00043385                3.00435766               43.03688236                0.01000000               -0.02347003                0.03313653                0.07833317                0.04107864               -0.00098097                0.21623044
               0.99933145                3.00009280               43.03794759                0.01000001               -0.03738767               -0.21302922                0.09021608                0.15688089                0.00464729                0.16462486
               1.99881840                2.99783154               43.03913302                0.01000000               -0.10874388               -0.24247160                0.09945222                0.38747165                0.01758666                0.10443449
               2.99715657                2.99820683               43.04041602                0.01000000               -0.23885602               -0.14963343                0.10612721                0.74782426                0.01729885                0.05080296
               3.99404128                3.00169266               43.04167001                0.01004361               -0.33271029               -0.15707579                0.11154528                1.05994796                0.00500994                0.05116676
               4.99050237                3.00742756               43.04287134                0.01000000               -0.39000384               -0.22578299                0.11464323                1.29764470               -0.00742414                0.07701439
               5.98624120                3.01455759               43.04406577                0.01000001               -0.43029657               -0.28949470                0.11509207                1.31590463               -0.02094018                0.10644231
               6.98189643                3.02038787               43.04525174                0.01000001               -0.64487092               -0.36184477                0.11571131                1.36715023               -0.06764508                0.13317082
               7.97334378                3.02653405               43.04578143                0.01000001               -0.44536765               -0.26801714                0.11342806                1.10475030               -0.07385691                0.13315925
               8.97298908                3.02860074               43.04740273                0.01000000               -0.03668925               -0.33414003                0.12143150                0.84756264               -0.01048114                0.11933872
               9.97261000                3.03066494               43.04920259                0.83197807               -0.03790859               -0.73466611                0.13108939                0.98975761               -0.00176522                0.09800497
               0.00617837                4.00465067               43.03893889                0.01000003                0.00548681               -0.04800159                0.07803712                0.22433246               -0.00575433                0.23171712
               1.00623324                3.99762323               43.03962270                0.01000000               -0.01262893               -0.31321876                0.09006841                0.46600829               -0.00064678                0.15618343
               2.00592579                3.99495080               43.04036769                0.01000000               -0.09799310               -0.31061998                0.10101805                0.82689427                0.01144900                0.09911755
               3.00427338                3.99593698               43.04129468                0.01003994               -0.22322720               -0.25096500                0.10987438                1.06804995                0.02337958                0.06771699
               4.00146125                3.99955359               43.04238170                0.01000000               -0.30973708               -0.24440656                0.11661081                1.29046120                0.02980061                0.07053990
               4.99807863                4.00504322               43.04362681                0.01000001               -0.34169471               -0.26242630                0.12118135                1.42629604                0.03228328                0.10022390
               5.99462735                4.01134212               43.04497556                0.01000001               -0.34940851               -0.32805363                0.12404339                1.50958107                0.02575200                0.14379500
               6.99109046                4.01754100               43.04629411                0.01000000               -0.26676288               -0.37053794                0.12607775                1.49222808                0.01600951                0.19160826
               7.98929210                4.02150531               43.04765280                0.01000001               -0.16017134               -0.52182024                0.12945373                1.58740570                0.01191778                0.25985317
               8.98788704                4.02227735               43.04898433                0.01000000                0.05341292               -0.64081621                0.13424152                1.13709358                0.00347310                0.24734188
               9.99036035                4.01636407               43.05022535                0.01000004                0.24733166               -1.03715197                0.14154147                0.87170217                0.00862211                0.18598439
               0.01810769                5.00339763               43.04124899                0.01000003                0.02437992               -0.45108057                0.07946714                0.60970328               -0.00840578                0.26775336
               1.01835149                4.99382842               43.04140529                0.01000000               -0.05325828               -0.33711462                0.09141781                0.96108355               -0.00053488                0.17008464
               2.01704253                4.99161914               43.04165517                0.01000001               -0.22183544               -0.27712673                0.10334954                1.13582644                0.01563914                0.08266186
               3.01391478                4.99318753               43.04222978                0.01000000               -0.31491339               -0.29760455                0.11394340                1.30198972                0.04294507                0.06188723
               4.01074426                4.99680453               43.04326915                0.01000001               -0.33375136               -0.27611794                0.12177929                1.41187302                0.07272969                0.07352804
               5.00723975                5.00217904               43.04466686                0.01000001               -0.34046064               -0.28118910                0.12747427                1.47995180                0.09057996                0.11349124
               6.00393505                5.00799652               43.04629246                0.01000001               -0.28309762               -0.32927500                0.13148134                1.43602620                0.09690955                0.16938938
               7.00157780                5.01297711               43.04801633                0.01000000               -0.17897517               -0.43870728                0.13551424                1.33657033                0.09169225                0.23384654
               8.00035554                5.01609765               43.04968842                0.01000000               -0.03528042               -0.53311303                0.13947935                1.10389355                0.07513499                0.28434801
               9.00087219                5.01578442               43.05114107                0.01000000                0.07575286               -0.58674941                0.14454210                0.73809268                0.04584204                0.29613945
              10.00187060                5.00992190               43.05215558                0.01000001                0.09984055               -0.45355068                0.15198134                0.35924934                0.02967051                0.25199357
               0.03751086                5.99562906               43.04416233                0.11963976               -0.02774541               -0.39980246                0.08150649                0.73412800               -0.00390017                0.16698243
               1.03723340                5.99088094               43.04361876                0.01000001               -0.41138222               -0.16058702                0.09076639                0.87124879               -0.02040206                0.10941537
               2.02928321                5.98940826               43.04274045                0.01000000               -0.60528153               -0.28841893                0.10696058                1.18737503               -0.00431796                0.05821078
               3.02512777                5.98998489               43.04310598                0.01000001               -0.42880084               -0.30954163                0.11803202                1.28648920                0.07693977                0.03081362
               4.02070720                5.99403123               43.04416212                0.01000001               -0.43210439               -0.27569385                0.12718648                1.45813083                0.12628431                0.05645099
               5.01648569                5.99941944               43.04583184                0.01000001               -0.40786977               -0.22659364                0.13301357                1.40034185                0.16413409                0.11216405
               6.01254980                6.00475662               43.04790011                0.01000000               -0.33824728               -0.26911688                0.13896595                1.22354764                0.18238356                0.18112485
               7.00972074                6.00876685               43.05014935                0.01000001               -0.19935707               -0.36825697                0.14392534                0.96565171                0.18182955                0.26033975
               8.00856266                6.01084305               43.05233401                0.01000000               -0.04480513               -0.47729520                0.14871763                0.69371349                0.15554962                0.33356596
               9.00882464                6.01054236               43.05408199                0.01000001                0.03538570               -0.47064011                0.15426055                0.37714545                0.09403530                0.37532828
              10.00927038                6.00729306               43.05498994                0.01000000                0.04457367               -0.18599904                0.16044942                0.17967278                0.05496707                0.35260107
               0.04228651                6.99540158               43.04512389                0.97548223               -0.02892406               -0.02557864                0.09228290                0.00069891               -0.01193800                0.04255197
               1.04199727                6.99061668               43.04437210                0.98406131               -0.03002182               -0.02868451                0.10040626                0.00012606               -0.01171456                0.02011571
               2.04168607                6.98585076               43.04362326                0.01000000               -0.34878321               -0.19468202                0.10874616                0.67747467                0.02175801                0.01431252
               3.03502160                6.98699669               43.04354764                0.01000001               -0.56068728               -0.46199031                0.12656929                1.31951299                0.09945696               -0.05761691
               4.03047232                6.99129066               43.04482006                0.01000000               -0.52502003               -0.17863310                0.12844648                1.40891951                0.19984717                0.02837383
               5.02452120                6.99764716               43.04698471                0.01000000               -0.57068685               -0.10432228                0.13981910                1.25634697                0.25191081                0.10033380
               6.01905859                7.00261418               43.04962351                0.01000001               -0.48583989               -0.12192050                0.14575443                0.91239947                0.28123761                0.17617739
               7.01480440                7.00561197               43.05265137                0.01000000               -0.33021427               -0.21880889                0.15122188                0.53619027                0.29269151                0.27070391
               8.01245430                7.00655174               43.05568469                0.01000001               -0.14196533               -0.35487559                0.15680092                0.19606842                0.26110114                0.40058196
               9.01196510                7.00637161               43.05813412                0.01000002               -0.02458177               -0.39550591                0.16193365                0.02053588                0.16082645                0.49650184
              10.01196267                7.00620192               43.05914178                0.01000001               -0.00024302               -0.10903132                0.16674001               -0.02218483                0.08958535                0.53112350
               0.04709464                7.99511749               43.04554512                1.00000000               -0.03078916               -0.02922750                0.09794776                0.00118515               -0.00150046                0.02011655
               1.04678675                7.99030724               43.04478127                0.99999999               -0.03209743               -0.03190574                0.10655575                0.00030504               -0.00154614                0.00387649
               2.04645269                7.98551462               43.04401571                0.31390639               -0.03543077               -0.03449535                0.11470214                0.00038125               -0.02350294               -0.01313217
               3.04607814                7.98074509               43.04281668                0.01000001               -0.41087882               -0.33108930                0.05771383                1.04034653                0.15572104               -0.07574969
               4.03823512                7.99045857               43.04529190                0.01000000               -0.78945169               -0.03659076                0.14185642                1.40500528                0.31575637                0.02025964
               5.03028910                7.99733300               43.04801291                0.01000000               -0.77010673                0.07407723                0.14536043                0.97896341                0.33394722                0.07887455
               6.02283298                8.00231821               43.05124692                0.01000000               -0.68910598                0.05926315                0.15205026                0.58476907                0.37752772                0.14862167
               7.01650698                8.00439068               43.05517175                0.01000001               -0.55542984               -0.00985968                0.15790765                0.13679267                0.44134065                0.24129321
               8.01172439                8.00374554               43.05990470                0.01000002               -0.34609016               -0.13286797                0.16346201               -0.29004141                0.42895292                0.39471033
               9.00958518                8.00263225               43.06369630                0.01002422               -0.12791584               -0.30895500                0.16676850               -0.52208226                0.28848407                0.79857953
              10.00916607                8.00511243               43.06560309                0.01000000               -0.04191098               -0.33225211                0.16915391               -0.36844610                0.19492122                0.74036377
               0.05193070                8.99481703               43.04605422                1.00000000               -0.03244659               -0.03090828                0.10342894                0.00113978                0.00273299                0.01964298
               1.05160623                8.98997856               43.04521343                0.99999998               -0.03374226               -0.03378653                0.11264176                0.00041246                0.00213393                0.00324372
               2.05125585                8.98516085               43.04436014                1.00000000               -0.03608218               -0.03636008                0.12144196                0.00112225               -0.00339997               -0.00922304
               3.05088459                8.98037491               43.04341358                0.01000348               -0.46356676               -0.03881855                0.12972605                0.74987516                0.15762625               -0.00357977
               4.04198452                8.99055884               43.04579291                0.01000000               -0.93218816                0.19540794                0.14020463                0.98288424                0.32956621                0.01466402
               5.03224083                8.99912871               43.04876368                0.01000000               -0.91441145                0.21962746                0.15170903                0.60632875                0.37641831                0.04698519
               6.02369629                9.00379944               43.05244411                0.01000001               -0.80639505                0.18542203                0.15834074                0.27317820                0.44787239                0.08950674
               7.01611292                9.00541478               43.05716302                0.01000002               -0.76421929                0.15011302                0.16291310               -0.03820748                0.55967080                0.14844565
               8.00841190                9.00389438               43.06328502                0.01000005               -0.79781826                0.13772274                0.16778004               -0.40166940                0.84658067                0.26551606
               9.00015656                9.00019251               43.07390837                0.99999997               -0.43892657               -0.14810584                0.17486585               -0.65675207                0.53186391                0.51124302
               9.99963337                8.99955688               43.07388674                0.99999995               -0.05231873               -0.30370954                0.17373971               -0.50837717               -0.00042972                0.41400665
               0.05679437                9.99449932               43.04646296                0.99999999               -0.03431911               -0.03177083                0.10928061               -0.00041348                0.01415878                0.01476230
               1.05645118                9.98963151               43.04561365                0.99999998               -0.03577884               -0.03470507                0.11853783               -0.00110013                0.01807460                0.00145149
               2.05607880                9.98478742               43.04484273                0.99991374               -0.03867667               -0.03734287                0.12808832               -0.00084561                0.01804291               -0.00279990
               3.05567765                9.97996871               43.04399894                0.69031199               -0.84698975               -0.04061922                0.13772106                0.95827118                0.16426145               -0.00497942
               4.03913900                9.99436672               43.04616517                0.01000002               -1.32512869                0.38078848                0.14991693                0.80328996                0.31064361                0.01503344
               5.02917508               10.00172555               43.04907986                0.01006575               -0.85642625                0.25968387                0.15853518                0.27642120                0.36870416                0.02982500
               6.02201048               10.00602665               43.05284065                0.01000000               -0.67635918                0.22272077                0.16477547                0.11478829                0.46102970                0.05223869
               7.01564789               10.00739294               43.05781690                0.01000001               -0.65486076                0.19781588                0.16768089               -0.02283601                0.62508066                0.08285583
               8.00891326               10.00650000               43.06495322                0.01000002               -0.74301235                0.26056122                0.17150123               -0.33600454                0.82008772                0.18117812
               9.00078765                9.99967013               43.07390329                0.99985107               -0.43217297               -0.05223851                0.17326495               -0.30997917                0.44892279                0.00033860
              10.00026980                9.99903824               43.07388165                1.00000000               -0.05178424               -0.05186350                0.17214128                0.00045422                0.00038217               -0.00038375
              -0.00877515                0.00442489               44.03546855                0.99450761               -0.02315097               -0.02154667                0.06981829                0.00294804               -0.00382794                0.00410379
               0.99099334                0.00235939               44.03697991                0.99999999               -0.02522254               -0.02603468                0.08423232                0.00237502               -0.00390210               -0.00134938
               1.99072040                0.00030964               44.03848403                0.06185532               -0.02182667               -0.03063771                0.09901666                0.00397570                0.04317019               -0.00149360
               2.99055681               -0.00169015               44.04094029                0.01000001               -0.02617870               -0.02730276                0.08081968                0.21563273                0.01400990               -0.00676048
               3.99019682                0.00072626               44.04208174                0.01000000               -0.17774070                0.11848598                0.09451520                0.23073988               -0.02835044               -0.01075273
               4.98700199                0.00871712               44.04341126                0.01002795               -0.58016207                0.13100690                0.09737558                0.59156495                0.00416062                0.00488716
               5.97859358                0.02372651               44.04517803                0.06239074               -0.43855795               -0.02641641                0.08396605                0.63786059                0.02626647               -0.00327620
               6.97823083                0.02610062               44.04740112                0.98095081               -0.03335300               -0.02896609                0.09628405                0.01070888                0.02547874               -0.00460295
               7.97792652                0.02829913               44.04923814                1.00000000               -0.03185511               -0.03212494                0.10603934                0.00170153                0.00823573               -0.00054255
               8.97759373                0.03050084               44.05111259                1.00000000               -0.03482572               -0.03505522                0.11612193                0.00159304                0.00781240                0.00109652
               9.97723001                0.03270866               44.05294829                1.00000000               -0.03637224               -0.03827740                0.12627018                0.00135168                0.00570903                0.00518287
              -0.00668017                1.00420942               44.03553771                0.97637047               -0.02451178               -0.02220454                0.07457645                0.00079562                0.00189136                0.00448562
               0.99307471                1.00209904               44.03704879                0.19070736               -0.02674526               -0.02685699                0.08916889                0.00013166                0.00389620               -0.00345655
               1.99278492                1.00000327               44.03860369                0.01000000               -0.02849442               -0.03133588                0.10399205                0.00673010                0.05636502                0.00928849
               2.99250482                0.99803682               44.04116841                0.01000001               -0.27421680                0.02094319                0.08372539                0.15757745                0.02656515               -0.02643750
               3.98730059                1.00191112               44.04212844                0.01000000               -0.55436520                0.09598811                0.09961220                0.49170274               -0.04950881                0.00025281
               4.98141752                1.01002719               44.04335303                0.01000000               -0.55100735                0.05217106                0.10171349                0.89944564               -0.04775108                0.02066657
               5.97628044                1.02346235               44.04454358                0.01000001               -0.26829531               -0.30652830                0.08755543                0.84026875               -0.02031746                0.03911448
               6.97605161                1.02581096               44.04662511                0.98978306               -0.02685083               -0.02928665                0.09798141                0.00938999                0.01343323               -0.00492923
               7.97574342                1.02797788               44.04845640                0.99999999               -0.03233594               -0.03236576                0.10779361                0.00017742                0.00133878               -0.00037018
               8.97540489                1.03015029               44.05029731                0.99999999               -0.03538585               -0.03533017                0.11792548                0.00010226                0.00122394                0.00084600
               9.97503571                1.03232589               44.05212790                0.99999719               -0.03691867               -0.03856290                0.12815167               -0.00026805                0.00059877                0.00652013
              -0.00453848                2.00398080               44.03561655                0.01000000               -0.02593944                0.01171159                0.07909344                0.03943319                0.00212692                0.10316759
               0.99520213                2.00182225               44.03707655                0.01000000               -0.02721512               -0.10614159                0.09369010                0.04079701                0.02224776                0.08168257
               1.99491722                1.99968293               44.03894389                0.01000001               -0.17008145               -0.11849207                0.10150760                0.09084798                0.04715034                0.06234728
               2.99180050                1.99872871               44.04090269                0.01000000               -0.34383531               -0.00140462                0.09965609                0.32295681                0.02542655               -0.00421429
               3.98804051                2.00264603               44.04232897                0.01000000               -0.41804070               -0.01417751                0.10543462                0.82675882               -0.02100518                0.02567969
               4.98343968                2.00976054               44.04350510                0.01000001               -0.42126600               -0.12278945                0.10793951                1.13511779               -0.04122533                0.05095990
               5.97961519                2.01759594               44.04474662                0.01000000               -0.47682917               -0.42535779                0.10675642                1.21289113               -0.05405167                0.07845651
               6.97390310                2.02551488               44.04584880                0.01000000               -0.30122287               -0.24117936                0.09896216                0.71568332               -0.04078371                0.06242819
               7.97359073                2.02765181               44.04767453                0.15555962               -0.03276669               -0.03279305                0.10925852                0.00088288               -0.00554662                0.00114354
               8.97324777                2.02979424               44.04947688                0.99998156               -0.03586399               -0.03582763                0.11989423                0.00031310               -0.00381562               -0.00129108
               9.97287345                2.03193740               44.05133551                1.00000000               -0.03743112               -0.03915712                0.12997931               -0.00026274               -0.00112965                0.00645184
              -0.00157441                3.00444365               44.03766174                0.01000253               -0.02370686                0.03906034                0.07758941                0.04905425               -0.00219074                0.21072876
               0.99818852                2.99997621               44.03885160                0.01000001               -0.03650868               -0.21943563                0.09062858                0.17204022                0.00188249                0.15885658
               1.99769542                2.99763343               44.04012977                0.01000000               -0.10938316               -0.25107025                0.10013197                0.41304545                0.01206197                0.10100370
               2.99600086                2.99800873               44.04148284                0.01000000               -0.24457402               -0.15202678                0.10766592                0.78179455                0.01036712                0.05335270
               3.99280394                3.00162757               44.04278970                0.01004672               -0.34154505               -0.16035058                0.11297490                1.10291452               -0.00329325                0.05277841
               4.98916996                3.00757140               44.04402506                0.01000000               -0.40100071               -0.23175212                0.11627295                1.34685343               -0.01802526                0.07892324
               5.98478392                3.01495519               44.04522320                0.01000001               -0.44302738               -0.29740122                0.11642450                1.36490765               -0.03245110                0.11147503
               6.98030941                3.02098737               44.04641337                0.01000001               -0.66510988               -0.37267269                0.11660620                1.41622109               -0.07923903                0.14421358
               7.97148172                3.02732202               44.04692171                0.01000001               -0.45919229               -0.27549490                0.11462184                1.14363951               -0.08061626                0.14203876
               8.97112556                3.02943374               44.04862024                0.01000001               -0.03687996               -0.34620456                0.12216487                0.87819056               -0.01138739                0.12518792
               9.97074412                3.03154275               44.05051701                0.86011777               -0.03814388               -0.76009893                0.13184236                1.02532860               -0.00174609                0.10221230
               0.00537749                4.00476200               44.03971259                0.01000003                0.00756656               -0.05022142                0.07697607                0.23653226               -0.00541415                0.22699749
               1.00545316                3.99743354               44.04052411                0.01000000               -0.01159432               -0.32357306                0.09075530                0.49009762               -0.00107486                0.15167926
               2.00514561                3.99466152               44.04138453                0.01000000               -0.10054592               -0.31981772                0.10322353                0.86466195                0.00915729                0.09699262
               3.00344224                3.99568818               44.04240269                0.01004209               -0.23047369               -0.25639177                0.11259173                1.11297569                0.01889534                0.06785819
               4.00053613                3.99943902               44.04355962                0.01000000               -0.31965518               -0.24995003                0.11937665                1.34167138                0.02329721                0.07127796
               4.99704914                4.00512550               44.04484936                0.01000001               -0.35193772               -0.26907097                0.12364354                1.48098730                0.02410279                0.10190946
               5.99349738                4.01164792               44.04622542                0.01000001               -0.35942210               -0.33726994                0.12601208                1.56660782                0.01679933                0.14774129
               6.98986069                4.01806143               44.04756069                0.01000000               -0.27401121               -0.38059709                0.12742342                1.54672543                0.00816484                0.19827715
               7.98801715                4.02214191               44.04895274                0.01000802               -0.16349227               -0.53657544                0.13052383                1.64133471                0.00661428                0.27035854
               8.98659085                4.02287015               44.05033212                0.01000000                0.05724304               -0.66238647                0.13525527                1.17606465                0.00072120                0.25643256
               9.98916201                4.01673543               44.05164461                0.01000001                0.25711655               -1.07485768                0.14227287                0.90486360                0.00720749                0.19383914
               0.01781317                5.00343922               44.04203574                0.01000003                0.02777843               -0.47147908                0.07741451                0.63620370               -0.00747396                0.26401804
               1.01809096                4.99350475               44.04231962                0.01000000               -0.05395798               -0.34861735                0.09167666                1.00190788                0.00071549                0.16463202
               2.01673401                4.99123707               44.04269626                0.01000001               -0.23040388               -0.28388816                0.10540350                1.18403446                0.01593551                0.08076991
               3.01348288                4.99288090               44.04338452                0.01000000               -0.32669848               -0.30347142                0.11676070                1.35453114                0.04053792                0.06043015
               4.01020004                4.99662857               44.04449903                0.01000001               -0.34510396               -0.28151151                0.12472839                1.46610734                0.06775783                0.07408577
               5.00658080                5.00218998               44.04595484                0.01000001               -0.35099472               -0.28837199                0.13007438                1.53721631                0.08428130                0.11410250
               6.00318015                5.00820979               44.04761686                0.01000001               -0.29154381               -0.33817500                0.13359838                1.49305562                0.09045612                0.17196554
               7.00074992                5.01337543               44.04937697                0.01000000               -0.18402248               -0.45111306                0.13684757                1.39024794                0.08653163                0.23860685
               7.99949970                5.01659051               44.05108728                0.01000000               -0.03482886               -0.54859142                0.14038814                1.14555822                0.07071837                0.29156846
               9.00005335                5.01618601               44.05259115                0.01000000                0.08055731               -0.60395984                0.14547300                0.76339064                0.04356801                0.30352110
              10.00111084                5.01004559               44.05367967                0.01000001                0.10574989               -0.47115380                0.15275332                0.37167154                0.02886305                0.25835705
               0.03797052                5.99533242               44.04496518                0.10124970               -0.02770501               -0.41672463                0.07890952                0.76606601               -0.00449396                0.16807498
               1.03769347                5.99046119               44.04452085                0.01000001               -0.42601855               -0.16482635                0.08982742                0.90745865               -0.01724779                0.10769063
               2.02945015                5.98898376               44.04381963                0.01000000               -0.62760544               -0.29539539                0.10892760                1.23468023               -0.00082158                0.05622349
               3.02514136                5.98961875               44.04428322                0.01000001               -0.44504775               -0.31229447                0.12073677                1.33350000                0.07665449                0.03849483
               4.02054919                5.99380879               44.04545520                0.01000001               -0.44645576               -0.28252237                0.12973545                1.51231519                0.12339424                0.05479206
               5.01621224                5.99935806               44.04717258                0.01000001               -0.41880737               -0.23247392                0.13547018                1.45412257                0.15921757                0.11297654
               6.01217305                6.00488442               44.04929554                0.01000000               -0.34636546               -0.27652061                0.14033168                1.27518937                0.17902272                0.18287384
               7.00928494                6.00903917               44.05159515                0.01000000               -0.20276556               -0.37915946                0.14509741                1.01051232                0.17915884                0.26414039
               8.00811773                6.01117009               44.05382682                0.01000000               -0.04406787               -0.49145306                0.14981905                0.72746093                0.15389089                0.33939103
               9.00840358                6.01079095               44.05562957                0.01000001                0.03792734               -0.48350268                0.15520648                0.39545263                0.09330204                0.38150745
              10.00887628                6.00731235               44.05659959                0.01000000                0.04727030               -0.19277777                0.16122064                0.18852246                0.05440112                0.35638560
               0.04287696                6.99510473               44.04604288                0.96991241               -0.02881667               -0.02545938                0.09138612                0.00181665               -0.01238137                0.04525816
               1.04258879                6.99020822               44.04537852                0.96925708               -0.03034524               -0.02829957                0.10142555                0.00120757               -0.01231848                0.02262881
               2.04227005                6.98532916               44.04471944                0.01000000               -0.36304705               -0.19995767                0.11102123                0.70677084                0.03156739                0.01243292
               3.03532785                6.98663501               44.04494298                0.01000001               -0.57815088               -0.48406158                0.12746130                1.38307941                0.09907387               -0.10117142
               4.03070704                6.99097813               44.04610458                0.01000003               -0.53701175               -0.18213857                0.13458834                1.45111190                0.18800467                0.03886531
               5.02458762                6.99754050               44.04839964                0.01000000               -0.58521049               -0.10791033                0.14120146                1.30448782                0.25006008                0.10022564
               6.01900283                7.00267938               44.05108720                0.01000000               -0.49565570               -0.12583733                0.14664405                0.95364917                0.27943343                0.17685177
               7.01467450                7.00579224               44.05416876                0.01000000               -0.33528470               -0.22578120                0.15204052                0.56825515                0.29295095                0.27307900
               8.01229713                7.00676145               44.05725637                0.01000001               -0.14271836               -0.36382361                0.15751660                0.21730498                0.26183526                0.40498031
               9.01182014                7.00651596               44.05975389                0.01000002               -0.02293164               -0.40628917                0.16288367                0.03035692                0.16097509                0.50097543
              10.01183850                7.00619004               44.06080366                0.01000001                0.00183650               -0.11398096                0.16765593               -0.01831596                0.08925746                0.53368464
               0.04779987                7.99482323               44.04652113                1.00000000               -0.03066843               -0.02901847                0.09721011                0.00105040               -0.00182481                0.01978503
               1.04749319                7.98989520               44.04584974                0.99999999               -0.03205466               -0.03220786                0.10720006                0.00015884               -0.00212196                0.00405244
               2.04715878                7.98498461               44.04516952                0.15206914               -0.01696017               -0.03539016                0.11730482               -0.00748432               -0.07833198               -0.01278807
               3.04715398                7.97993752               44.04298108                0.01000001               -0.42464231               -0.34656553                0.12364223                1.07745650                0.14587479               -0.07520332
               4.03866593                7.99016601               44.04685818                0.01001753               -0.82766184               -0.03713077                0.14469924                1.45462126                0.35556457                0.02138898
               5.03060075                7.99719985               44.04946128                0.01000000               -0.78358193                0.07423028                0.14690326                1.01225359                0.32284687                0.07769782
               6.02299429                8.00236767               44.05277744                0.01000000               -0.70163892                0.05937035                0.15258064                0.61311100                0.37813881                0.14829742
               7.01656797                8.00452354               44.05675429                0.01000001               -0.56270901               -0.01198161                0.15840453                0.15509338                0.44260827                0.24165942
               8.01174011                8.00389361               44.06153930                0.01000002               -0.34929215               -0.13819057                0.16404641               -0.28523659                0.43190900                0.39868968
               9.00958213                8.00266517               44.06537125                0.01000004               -0.12891566               -0.31532588                0.16756343               -0.52505521                0.29018614                0.80325583
              10.00916180                8.00503273               44.06731939                0.01000000               -0.04203257               -0.33121977                0.17072275               -0.37235411                0.19548653                0.73900330
               0.05275404                8.99452436               44.04708576                1.00000000               -0.03234434               -0.03074963                0.10284294                0.00099871                0.00292080                0.01932784
               1.05243060                8.98956406               44.04634279                0.99999998               -0.03379979               -0.03400353                0.11316832                0.00009360                0.00206304                0.00319906
               2.05207805                8.98462136               44.04558147                0.99999999               -0.03675130               -0.03710185                0.12356937                0.00023159               -0.00423740               -0.00865834
               3.05169557                8.97970370               44.04472043                0.01001952               -0.47704595               -0.03228122                0.13394703                0.75389437                0.15735748                0.05058393
               4.04253713                8.99023551               44.04721572                0.01000000               -0.95322716                0.19688028                0.14715235                1.01594565                0.32863257                0.00261865
               5.03263103                8.99902511               44.05029887                0.01000000               -0.92978859                0.22326562                0.15397864                0.62560379                0.37553793                0.04658091
               6.02394136                9.00386679               44.05403475                0.01000001               -0.81903004                0.18759259                0.15948283                0.28729754                0.44675227                0.08882025
               7.01625043                9.00555261               44.05879596                0.01000002               -0.77452896                0.15106816                0.16429216               -0.03217400                0.55958677                0.14759747
               8.00845078                9.00399764               44.06498698                0.01004175               -0.80352571                0.13610212                0.17024978               -0.40423852                0.84599987                0.26699852
               9.00017991                9.00020944               44.07565846                0.99999997               -0.43972405               -0.14892856                0.17515707               -0.65979213                0.53491075                0.51588061
               9.99965630                8.99956564               44.07562410                0.99999999               -0.05236189               -0.29926298                0.17373643               -0.50742617               -0.00043828                0.41592113
               0.05774044                9.99420824               44.04755351                1.00000000               -0.03423809               -0.03161205                0.10863492               -0.00067142                0.01420626                0.01464854
               1.05739806                9.98921513               44.04680183                0.99999138               -0.03583320               -0.03489375                0.11902228               -0.00153732                0.01840400                0.00133390
               2.05702378                9.98424257               44.04613187                0.99996640               -0.03901706               -0.03787920                0.12945429               -0.00158831                0.01883084               -0.00233654
               3.05661772                9.97929189               44.04539140                0.74479057               -0.86801733               -0.04118012                0.13992777                0.98526743                0.16563857               -0.00364676
               4.03966343                9.99410362               44.04766572                0.01000001               -1.35680863                0.38681087                0.15390229                0.83129409                0.31342187                0.01406145
               5.02948155               10.00166517               44.05069036                0.01000000               -0.87253418                0.26400567                0.16278804                0.28584718                0.36848843                0.02841654
               6.02221275               10.00611952               44.05450118                0.01000000               -0.68439546                0.22527386                0.16748983                0.12112643                0.45766190                0.05152009
               7.01579364               10.00754491               44.05950102                0.01000001               -0.66071194                0.19923025                0.17039618               -0.02087231                0.62157655                0.08259396
               8.00899851               10.00661566               44.06670299                0.01000002               -0.74876804                0.26180205                0.17513771               -0.33814211                0.81061042                0.18129399
               9.00081828                9.99968660               44.07563597                0.99999999               -0.43488187               -0.05228407                0.17327915               -0.31457285                0.44870107                0.00033407
              10.00030087                9.99904747               44.07560165                1.00000000               -0.05174060               -0.05181703                0.17184610                0.00054500                0.00038967               -0.00037987
              -0.01040026                0.00437374               45.03616548                0.99312839               -0.02257197               -0.02172543                0.06947152                0.00353607               -0.00195716                0.00305984
               0.98937402                0.00225297               45.03782110                0.99999999               -0.02513041               -0.02604935                0.08447755                0.00215319               -0.00424602               -0.00080245
               1.98909713                0.00014979               45.03947696                0.07681608               -0.02671202               -0.03087264                0.09940648               -0.00056221                0.02461002               -0.00195462
               2.98883978               -0.00199553               45.04172184                0.01000001               -0.02399833               -0.01934693                0.07164883                0.22849317               -0.00283636               -0.00576381
               3.98861716                0.00058837               45.04299303                0.01000002               -0.16876805                0.11928596                0.08836159                0.24240364               -0.03272413               -0.00427663
               4.98546442                0.00878039               45.04434827                0.01000000               -0.58970760                0.13557036                0.09213390                0.61059065               -0.00950462                0.00624760
               5.97682301                0.02429915               45.04601647                0.05588842               -0.45297705               -0.02547958                0.08322280                0.65871386                0.01906851               -0.00325757
               6.97640488                0.02682393               45.04836340                0.97897021               -0.03592059               -0.02971258                0.09624489                0.01586903                0.02974935               -0.00848039
               7.97610460                0.02906576               45.05029713                1.00000000               -0.03203718               -0.03176983                0.10655241                0.00130606                0.00778567                0.00063192
               8.97576413                0.03131894               45.05227453                1.00000000               -0.03531126               -0.03504967                0.11609312                0.00182684                0.00704925                0.00104560
               9.97539838                0.03357027               45.05421197                1.00000000               -0.03657579               -0.03829361                0.12628959                0.00128425                0.00498465                0.00482790
              -0.00824414                1.00415648               45.03628497                0.97045514               -0.02483365               -0.02232372                0.07470703                0.00109301                0.00129190                0.00464893
               0.99150753                1.00199248               45.03794326                0.21200219               -0.02700517               -0.02691564                0.08978375               -0.00011662                0.00388023               -0.00331184
               1.99121576                0.99984106               45.03964921                0.01000000               -0.03010538               -0.03143456                0.10494798                0.00643237                0.03759689                0.00414871
               2.99090542                0.99781100               45.04198318                0.01000001               -0.27812602                0.02632307                0.07511412                0.17009281                0.00314871               -0.01555196
               3.98565324                1.00178123               45.04309510                0.01000000               -0.55952435                0.09795352                0.09497693                0.50842221               -0.05327185                0.00482611
               4.97971493                1.01013610               45.04434940                0.01000000               -0.56324288                0.05628303                0.09829498                0.92736129               -0.06181612                0.02183489
               5.97438838                1.02404436               45.04541524                0.01000001               -0.27673342               -0.31388146                0.08623825                0.87062632               -0.03061151                0.04545320
               6.97418026                1.02652680               45.04760567                0.98884993               -0.02591139               -0.02928658                0.09716987                0.01395789                0.01283456               -0.00510591
               7.97387016                1.02874806               45.04953377                0.99999999               -0.03250582               -0.03212698                0.10772410                0.00039935                0.00074519                0.00005379
               8.97353015                1.03096844               45.05147744                0.99999999               -0.03551307               -0.03537670                0.11809775                0.00022616                0.00112613                0.00106200
               9.97315989                1.03318733               45.05341157                0.99999999               -0.03702543               -0.03864718                0.12847935               -0.00034257                0.00053393                0.00618455
              -0.00605039                2.00392726               45.03640976                0.01000000               -0.02624948                0.01598621                0.08004878                0.04807799                0.00249062                0.10003761
               0.99368711                2.00171466               45.03801662                0.01000000               -0.02711742               -0.10850539                0.09466184                0.04936891                0.01804705                0.07737874
               1.99340726                1.99952109               45.03994519                0.01000001               -0.16928221               -0.12150426                0.09003080                0.10144518                0.03444271                0.05552352
               2.99030147                1.99853093               45.04189752                0.01000000               -0.34733716               -0.00185616                0.10226990                0.34124543                0.01358414                0.00746765
               3.98646051                2.00254744               45.04337869                0.01000000               -0.42764756               -0.01318199                0.10482273                0.85775366               -0.03094047                0.02972193
               4.98174852                2.00990605               45.04458152                0.01000001               -0.43078415               -0.12371673                0.10790528                1.17337558               -0.05351612                0.05444644
               5.97784483                2.01802152               45.04581622                0.01000000               -0.48840922               -0.43680317                0.10739671                1.25738122               -0.07060836                0.08952717
               6.97198033                2.02623820               45.04683353                0.01000000               -0.30869428               -0.24832737                0.09818406                0.74172875               -0.04937752                0.07127877
               7.97167095                2.02842322               45.04876545                0.16269714               -0.03254724               -0.03257217                0.10896719                0.00138221               -0.00472574                0.00349551
               8.97132939                2.03061141               45.05067776                0.99988564               -0.03585959               -0.03595924                0.12036108                0.00049941               -0.00321826               -0.00080622
               9.97095375                2.03279732               45.05263828                1.00000000               -0.03756324               -0.03936246                0.13056900               -0.00032671               -0.00092068                0.00615565
              -0.00285737                3.00447621               45.03843415                0.01000000               -0.02415541                0.04446810                0.07763172                0.05948856               -0.00315435                0.20420734
               0.99690107                2.99982237               45.03976016                0.01000001               -0.03571177               -0.22629350                0.09164296                0.18937277               -0.00131285                0.15345074
               1.99642839                2.99741097               45.04113565                0.01000000               -0.10985450               -0.25984688                0.10385908                0.43872993                0.00590691                0.09865571
               2.99470398                2.99777388               45.04256934                0.01000000               -0.24976002               -0.15692335                0.11006245                0.81406689                0.00198423                0.05658683
               3.99143319                3.00151759               45.04392951                0.01004838               -0.34978119               -0.16388121                0.11569671                1.14539449               -0.01326218                0.05582601
               4.98770836                3.00766176               45.04519680                0.01000000               -0.41146652               -0.23772093                0.11853834                1.39685410               -0.02997044                0.08200599
               5.98320386                3.01530829               45.04639426                0.01000001               -0.45476085               -0.30591178                0.11819853                1.41528397               -0.04502044                0.11674244
               6.97861314                3.02156026               45.04758386                0.01000001               -0.68396368               -0.38476256                0.11770282                1.46672119               -0.09139215                0.15611627
               7.96952459                3.02809662               45.04807387                0.01000001               -0.47235557               -0.28381510                0.11584566                1.18355018               -0.08732788                0.15163404
               8.96916603                3.03024926               45.04984602                0.01000001               -0.03715298               -0.35881595                0.12314985                0.90918357               -0.01241137                0.13113654
               9.96878153                3.03240008               45.05183944                0.88916670               -0.03845027               -0.78595651                0.13275931                1.06137049               -0.00169070                0.10612174
               0.00444705                4.00481663               45.04047842                0.01000000                0.00927526               -0.05254070                0.07593103                0.24960806               -0.00530865                0.22093640
               1.00453980                3.99718879               45.04143781                0.01000000               -0.01083484               -0.33490306                0.09277571                0.51558686               -0.00182287                0.14685157
               2.00423035                3.99432416               45.04243216                0.01000000               -0.10318045               -0.33057734                0.10693628                0.90358070                0.00546385                0.09504112
               3.00247619                3.99539246               45.04354651                0.01004512               -0.23749148               -0.26291391                0.11697706                1.15822225                0.01182261                0.06731057
               3.99948052                3.99926981               45.04476923                0.01000000               -0.32906490               -0.25634588                0.12325904                1.39275373                0.01418955                0.07156348
               4.99589489                4.00515163               45.04609968                0.01000001               -0.36142525               -0.27619439                0.12685455                1.53663331                0.01382372                0.10262570
               5.99225202                4.01190329               45.04749580                0.01000001               -0.36842309               -0.34712946                0.12838343                1.62547431                0.00636553                0.15075349
               6.98852643                4.01854295               45.04884258                0.01001118               -0.27995356               -0.39227353                0.12921582                1.60342503               -0.00034506                0.20416065
               7.98665295                4.02274692               45.05026328                0.01004738               -0.16584190               -0.55208378                0.13175983                1.69616390                0.00147183                0.27953796
               8.98520959                4.02343509               45.05168944                0.01000000                0.06132888               -0.68459328                0.13636638                1.21582001               -0.00184417                0.26505983
               9.98787952                4.01707819               45.05307080                0.01000001                0.26699292               -1.11330106                0.14309587                0.93877489                0.00587483                0.20102572
               0.01739046                5.00342539               45.04279728                0.01000003                0.03148214               -0.49166011                0.07413429                0.66302136               -0.00663770                0.25906729
               1.01770528                4.99312431               45.04323882                0.01000000               -0.05470627               -0.36064731                0.09256676                1.04341170                0.00146550                0.15769464
               2.01629633                4.99079943               45.04376324                0.01000001               -0.23912540               -0.29072998                0.10928200                1.23326773                0.01405346                0.07741761
               3.01292277                4.99251560               45.04456499                0.01000000               -0.33836173               -0.30980672                0.12141339                1.40701766                0.03561584                0.05851127
               4.00952910                4.99639067               45.04576372                0.01000001               -0.35576090               -0.28741468                0.12872462                1.52137400                0.06051837                0.07124636
               5.00580755                5.00213787               45.04726835                0.01000001               -0.36035311               -0.29587323                0.13307585                1.59549167                0.07615638                0.11237078
               6.00232204                5.00836570               45.04896443                0.01000001               -0.29847698               -0.34797672                0.13599528                1.55162891                0.08285046                0.17196736
               6.99983801                5.01371478               45.05075328                0.01000000               -0.18831561               -0.46425379                0.13856617                1.44677212                0.08029757                0.24151059
               7.99855572                5.01705494               45.05249618                0.01000000               -0.03434290               -0.56425683                0.14162631                1.18978629                0.06612514                0.29735157
               8.99915116                5.01655739               45.05405053                0.01000000                0.08575477               -0.62126537                0.14655533                0.78937151                0.04159582                0.30984232
              10.00027082                5.01013406               45.05521065                0.01000001                0.11196633               -0.48907012                0.15353040                0.38460745                0.02833251                0.26363749
               0.03830964                5.99498342               45.04574052                0.08377505               -0.02756390               -0.43372975                0.07550797                0.79809905               -0.00545715                0.17042463
               1.03803400                5.98997584               45.04541531                0.01000001               -0.44026114               -0.16919706                0.08914554                0.94475963               -0.01486871                0.10644782
               2.02950442                5.98850956               45.04491900                0.01000000               -0.65043495               -0.30249498                0.11192760                1.28385560                0.00267235                0.05232290
               3.02502530                5.98919633               45.04552072                0.01000001               -0.46093444               -0.31200979                0.12358356                1.38535643                0.07316846                0.02814163
               4.02028573                5.99352152               45.04675683                0.01000001               -0.45978039               -0.28628464                0.13208333                1.56422473                0.11827229                0.05247558
               5.01582969                5.99923417               45.04854125                0.01000001               -0.42890227               -0.23874519                0.13790503                1.50772294                0.15406948                0.10892562
               6.01170768                6.00494375               45.05070674                0.01000000               -0.35285285               -0.28481933                0.14186375                1.32899006                0.17474671                0.18058873
               7.00877264                6.00925787               45.05305129                0.01000000               -0.20508107               -0.39001862                0.14620145                1.05871323                0.17652816                0.26488944
               8.00760606                6.01146178               45.05533039                0.01000000               -0.04273659               -0.50580362                0.15098835                0.76510339                0.15258491                0.34313825
               9.00791791                6.01100978               45.05718612                0.01000001                0.04061403               -0.49539791                0.15626990                0.41605832                0.09279825                0.38655646
              10.00841834                6.00729679               45.05821435                0.01000000                0.05004370               -0.19891229                0.16188462                0.19757374                0.05397774                0.36004776
               0.04336760                6.99475080               45.04695161                0.96363628               -0.02932581               -0.02565538                0.09083045                0.00352161               -0.01409030                0.04965442
               1.04307434                6.98974037               45.04640061                0.95699294               -0.03073186               -0.02759112                0.10228312                0.00303255               -0.01272244                0.02572601
               2.04275296                6.98474953               45.04584368                0.01000000               -0.37282004               -0.20563637                0.11347449                0.73926653                0.02743401                0.01129620
               3.03561794                6.98627540               45.04609687                0.01000001               -0.59886023               -0.48663817                0.12396493                1.40985607                0.10460448               -0.06079770
               4.03077575                6.99066498               45.04751183                0.01000956               -0.55390782               -0.18731573                0.14054197                1.48340231                0.19002419                0.03165519
               5.02453978                6.99736297               45.04980874                0.01000000               -0.59488089               -0.11232196                0.14104433                1.35007136                0.24515266                0.09625271
               6.01887814                7.00266932               45.05255639                0.01000000               -0.50227646               -0.13035743                0.14660879                0.99732566                0.27926801                0.17296413
               7.01449425                7.00591441               45.05569218                0.01000000               -0.33861278               -0.23306007                0.15244419                0.60470995                0.29397544                0.27223124
               8.01210588                7.00693887               45.05883502                0.01000001               -0.14284694               -0.37365293                0.15831202                0.24372817                0.26406176                0.40731435
               9.01163731                7.00664944               45.06139180                0.01000002               -0.02288018               -0.41084953                0.16414631                0.04539256                0.16268167                0.50431470
              10.01164828                7.00615581               45.06249489                0.01000001                0.00109645               -0.11123687                0.16943612               -0.01130323                0.08962409                0.53504362
               0.04840093                7.99447032               45.04748932                1.00000000               -0.03050066               -0.02897955                0.09672199                0.00074281               -0.00168955                0.01968369
               1.04809592                7.98942402               45.04692527                0.99999999               -0.03231078               -0.03249549                0.10800062                0.00019775               -0.00192608                0.00373811
               2.04775471                7.98439683               45.04636181                0.14926104               -0.03944747               -0.03620981                0.11989334                0.00400261               -0.02781782               -0.01208402
               3.04730697                7.97946357               45.04528952                0.01000001               -0.44442523               -0.36495663                0.21096085                1.10789640                0.12332160               -0.06187247
               4.03886621                7.98977521               45.04818589                0.01005387               -0.82400956               -0.04306497                0.13934097                1.48635718                0.30716424                0.01738367
               5.03082678                7.99698773               45.05095097                0.01000000               -0.78817282                0.07341410                0.14553397                1.04770830                0.32726620                0.07439808
               6.02310275                8.00233660               45.05429853                0.01000000               -0.71147489                0.05913933                0.15172522                0.64325227                0.37928150                0.14482230
               7.01659728                8.00459667               45.05833984                0.01000001               -0.56785758               -0.01472093                0.15790529                0.17551481                0.44717445                0.24095202
               8.01174560                8.00398872               45.06318562                0.01000002               -0.34942367               -0.14341023                0.16468761               -0.27201802                0.43515597                0.40026186
               9.00960881                8.00279279               45.06704757                0.01000001               -0.12830392               -0.32020120                0.16942312               -0.51681629                0.29261312                0.80977848
              10.00917952                8.00507205               45.06901754                0.01000000               -0.04292880               -0.32813855                0.17342622               -0.36982165                0.19517713                0.74344540
               0.05347504                8.99417121               45.04811108                1.00000000               -0.03232603               -0.03067676                0.10219529                0.00097248                0.00278924                0.01898596
               1.05315178                8.98909046               45.04747679                0.99999999               -0.03407864               -0.03419476                0.11371488               -0.00004480                0.00231598                0.00328631
               2.05279347                8.98402533               45.04683153                0.99999999               -0.03771447               -0.03784725                0.12592610               -0.00015292               -0.00336114               -0.00862269
               3.05239749                8.97897627               45.04609252                0.01000000               -0.49073655               -0.04548573                0.13871074                0.79639760                0.16005030                0.00093139
               4.04297874                8.98980368               45.04873596                0.01000000               -0.97324702                0.19863782                0.15432481                1.05486248                0.32789866                0.00824304
               5.03293255                8.99883125               45.05184325                0.01000000               -0.94222459                0.22615835                0.15392005                0.64655104                0.37377325                0.04438804
               6.02413424                9.00385210               45.05563376                0.01000001               -0.82900592                0.18937967                0.15906687                0.30195195                0.44897442                0.08712327
               7.01635243                9.00561999               45.06044887                0.01000002               -0.78324223                0.15190087                0.16465555               -0.02505557                0.56502322                0.14689336
               8.00846940                9.00407066               45.06669001                0.01000003               -0.80673873                0.13525690                0.16837526               -0.40648296                0.85749911                0.27016454
               9.00021766                9.00024541               45.07741151                0.99999997               -0.43880389               -0.15354995                0.17544768               -0.66117118                0.53815532                0.52068750
               9.99969332                8.99959304               45.07736147                1.00000000               -0.05243350               -0.29982518                0.17371908               -0.50690139               -0.00042002                0.41890944
               0.05858187                9.99385678               45.04863566                1.00000000               -0.03409706               -0.03144273                0.10777986               -0.00098194                0.01402750                0.01432674
               1.05824090                9.98874013               45.04799409                0.99996725               -0.03580146               -0.03503334                0.11936259               -0.00193240                0.01808433                0.00143665
               2.05786584                9.98363988               45.04743182                0.99999999               -0.03921621               -0.03854464                0.13074442               -0.00207597                0.01825784               -0.00264217
               3.05745658                9.97855385               45.04679750                0.80289916               -0.88786826               -0.04224187                0.14201042                1.01131277                0.16818270               -0.00497271
               4.04010848                9.99374796               45.04924322                0.01000001               -1.38736005                0.39442845                0.15909097                0.86082655                0.31676939                0.01242902
               5.02970938               10.00151090               45.05233562                0.01000000               -0.88777148                0.26796458                0.16663239                0.29649458                0.36857843                0.02819232
               6.02235305               10.00612420               45.05619045                0.01000000               -0.69158826                0.22720941                0.16955906                0.12807000                0.45752084                0.05038936
               7.01587761               10.00763469               45.06122483                0.01000001               -0.66812628                0.20146924                0.17288747               -0.01899873                0.62326076                0.08105530
               8.00899052               10.00669386               45.06845597                0.01000000               -0.75073022                0.26231959                0.17237304               -0.34353228                0.81693354                0.18419342
               9.00086301                9.99972179               45.07736887                1.00000000               -0.43221448               -0.05236204                0.17328496               -0.31638036                0.44850455                0.00036055
              10.00034623                9.99907555               45.07731857                1.00000000               -0.05167740               -0.05174937                0.17155387                0.00066697                0.00036453               -0.00040835
              -0.01212553                0.00424710               46.03685798                0.99364360               -0.02775367               -0.01889861                0.06907376                0.00065373               -0.00569914                0.00572353
               0.98759694                0.00209902               46.03866946                0.99999999               -0.02813109               -0.02617308                0.08471659                0.00306154               -0.00609797               -0.00124396
               1.98731185               -0.00007395               46.04047216                0.08059177               -0.03064645               -0.03080401                0.09947064               -0.00284735               -0.00158780               -0.00274791
               2.98698401               -0.00232810               46.04237327                0.01000000               -0.01979665               -0.01217948                0.06235967                0.23931641               -0.01884540               -0.00336741
               3.98691592                0.00043659               46.04384897                0.01000002               -0.15977727                0.11853990                0.08472847                0.25369585               -0.03141593                0.00067984
               4.98378846                0.00883980               46.04525393                0.01000003               -0.59780503                0.13908411                0.09106642                0.62862226               -0.02498654                0.01300984
               5.97495982                0.02486383               46.04684248                0.04969681               -0.46216536               -0.02921657                0.08229112                0.67554560                0.01175421               -0.00329610
               6.97454515                0.02744646               46.04932602                0.97747405               -0.03943541               -0.02077520                0.09601539                0.01319507                0.02573782               -0.00304727
               7.97417111                0.02983850               46.05136919                1.00000000               -0.03626353               -0.03278617                0.10691170                0.00501886                0.00496901               -0.00028167
               8.97381988                0.03211593               46.05343446                1.00000000               -0.03581416               -0.03476311                0.11566821                0.00134834                0.00497273                0.00108823
               9.97345483                0.03440601               46.05547408                1.00000000               -0.03650581               -0.03827491                0.12579485                0.00133704                0.00391923                0.00423773
              -0.00997090                1.00405812               46.03703185                0.97074349               -0.02410192               -0.02073654                0.07467003               -0.00092499                0.00150254                0.00635091
               0.98978808                1.00183729               46.03884447                0.19910079               -0.02660790               -0.02730504                0.09010190               -0.00046985                0.00379013               -0.00370134
               1.98949694                0.99961801               46.04070265                0.01000000               -0.03330861               -0.03095501                0.10537755                0.00630645                0.01157025               -0.01214267
               2.98912190                0.99755010               46.04267069                0.01000001               -0.28140048                0.03100040                0.06589679                0.18293230               -0.01557900               -0.00161820
               3.98386893                1.00162199               46.04402798                0.01000000               -0.56304192                0.09847346                0.09324866                0.52511632               -0.05249730                0.01154331
               4.97786107                1.01023064               46.04531893                0.01000000               -0.57284935                0.05811412                0.09811177                0.95465232               -0.08143007                0.02888624
               5.97241194                1.02457166               46.04626834                0.01000001               -0.28356475               -0.32281823                0.08521719                0.89996342               -0.04391284                0.05692256
               6.97218977                1.02723871               46.04856851                0.98264997               -0.02626889               -0.02420973                0.09663173                0.01800671                0.01376184               -0.00298950
               7.97188656                1.02951064               46.05061088                0.99999999               -0.03200787               -0.03284388                0.10788715                0.00052359                0.00106038               -0.00017177
               8.97154961                1.03176830               46.05265927                0.99999999               -0.03542205               -0.03532004                0.11818091                0.00016526                0.00082533                0.00118107
               9.97117812                1.03402326               46.05469749                1.00000000               -0.03714912               -0.03866798                0.12851621               -0.00054631                0.00034787                0.00567940
              -0.00770237                2.00383237               46.03721753                0.01000000               -0.02699904                0.02005167                0.08085088                0.05612352                0.00258979                0.09751408
               0.99202764                2.00155292               46.03896979                0.01000000               -0.02862345               -0.11066264                0.09553769                0.05736334                0.00369599                0.07326910
               1.99172516                1.99930695               46.04074451                0.01000001               -0.16944814               -0.12492233                0.09139132                0.11232145                0.02497818                0.04958965
               2.98863868                1.99829191               46.04294809                0.01000000               -0.34937263               -0.00293118                0.10414040                0.36119440                0.00938662                0.02353375
               3.98473771                2.00240606               46.04442543                0.01000000               -0.43534221               -0.01342160                0.10607976                0.88762423               -0.04406713                0.03747142
               4.97993183                2.01000208               46.04566320                0.01000001               -0.43933487               -0.12686416                0.10977295                1.21230703               -0.06519746                0.06121138
               5.97595101                2.01840746               46.04689455                0.01000000               -0.49827600               -0.44806042                0.10947294                1.30223465               -0.08779741                0.10222110
               6.96996631                2.02696227               46.04781248                0.01000000               -0.31495115               -0.25690324                0.09881223                0.76931713               -0.05823723                0.08234853
               7.96965199                2.02918162               46.04985388                0.17207436               -0.03278737               -0.03268842                0.10946612                0.00168551               -0.00298073                0.00678150
               8.96931057                2.03140953               46.05188410                1.00000000               -0.03590020               -0.03617550                0.12095458                0.00065908               -0.00213808               -0.00021280
               9.96893399                2.03363265               46.05394689                0.99999999               -0.03765813               -0.03952997                0.13110479               -0.00042056               -0.00067009                0.00571350
              -0.00428953                3.00445915               46.03921438                0.01000000               -0.02497146                0.04926162                0.07850074                0.06923375               -0.00451197                0.19670948
               0.99546076                2.99962403               46.04068446                0.01000001               -0.03530493               -0.23305036                0.09439031                0.20478648               -0.00263850                0.14757715
               1.99500438                2.99711957               46.04220695                0.01000000               -0.11070367               -0.26860984                0.10756956                0.46442301               -0.00193593                0.10738072
               2.99324669                2.99749148               46.04368409                0.01000000               -0.25465685               -0.16265813                0.11428819                0.84684681               -0.01017442                0.05925572
               3.98991124                3.00135356               46.04510363                0.01005217               -0.35704429               -0.16849914                0.11955612                1.18654585               -0.02520432                0.06071109
               4.98610580                3.00769336               46.04639582                0.01000000               -0.42073974               -0.24478081                0.12204033                1.44620502               -0.04365334                0.08585614
               5.98149644                3.01561045               46.04758717                0.01000001               -0.46519227               -0.31573234                0.12104119                1.46690367               -0.05900962                0.12188488
               6.97680196                3.02210065               46.04876743                0.01000001               -0.70117179               -0.39935219                0.11934872                1.51832065               -0.10446064                0.16861500
               7.96747301                3.02885687               46.04923862                0.01000001               -0.48450944               -0.29356305                0.11673617                1.22459431               -0.09405108                0.16188332
               8.96711177                3.03104479               46.05108324                0.01000001               -0.03747653               -0.37213462                0.12438419                0.94058324               -0.01340919                0.13705084
               9.96672348                3.03323266               46.05317220                0.92215884               -0.03882888               -0.81239605                0.13383701                1.09792599               -0.00157667                0.10971013
               0.00335254                4.00481760               46.04123121                0.01000000                0.01104149               -0.05503414                0.07404357                0.26177340               -0.00660647                0.21240215
               1.00346295                3.99689191               46.04237962                0.01000000               -0.01031807               -0.34714482                0.09634570                0.54053482               -0.00489335                0.14310339
               2.00314618                3.99393476               46.04352325                0.01000000               -0.10606637               -0.34104914                0.11312466                0.94156862               -0.00195053                0.09294363
               3.00134163                3.99503874               46.04474223                0.01004623               -0.24397121               -0.27072821                0.12308370                1.20246747                0.00072782                0.06866350
               3.99826675                3.99903608               46.04602480                0.01000000               -0.33712940               -0.26438285                0.12841703                1.44317664                0.00124559                0.07171316
               4.99459904                4.00510646               46.04738645                0.01000001               -0.36924787               -0.28487605                0.13095869                1.59270779                0.00071889                0.10225439
               5.99088179                4.01209282               46.04879308                0.01000001               -0.37563622               -0.35861293                0.13146900                1.68622693               -0.00588204                0.15227471
               6.98708631                4.01897522               46.05014500                0.01002635               -0.28410326               -0.40518633                0.13136434                1.66198550               -0.00994666                0.20903807
               7.98519973                4.02331036               46.05158794                0.01008555               -0.16699361               -0.56932180                0.13336733                1.75217815               -0.00421224                0.28821373
               8.98374644                4.02396684               46.05305945                0.01000000                0.06585204               -0.70793112                0.13781901                1.25666978               -0.00434223                0.27324460
               9.98651677                4.01738473               46.05450653                0.01000001                0.27703299               -1.15289337                0.14450755                0.97347736                0.00475941                0.20712065
               0.01679733                5.00335847               46.04351843                0.01000003                0.03569720               -0.51155103                0.06906187                0.69022992               -0.00715167                0.25280036
               1.01715430                4.99268114               46.04417095                0.01000000               -0.05542085               -0.37317788                0.09550563                1.08473884                0.00007910                0.14891177
               2.01568891                4.99029858               46.04488190                0.01000001               -0.24797930               -0.29924912                0.11643003                1.28238947                0.00897492                0.07400143
               3.01219472                4.99207692               46.04581279                0.01000000               -0.34909307               -0.31945188                0.12847947                1.45962952                0.02512062                0.05333143
               4.00870705                4.99606590               46.04707352                0.01000001               -0.36457506               -0.29629445                0.13423770                1.57731375                0.04817988                0.06642469
               5.00490322                5.00199583               46.04861635                0.01000001               -0.36774155               -0.30551418                0.13687846                1.65584893                0.06508100                0.10747072
               6.00135222                5.00843820               46.05033676                0.01000000               -0.30395468               -0.35942919                0.13882904                1.61386111                0.07365369                0.16888668
               6.99882412                5.01399692               46.05214829                0.01000000               -0.19136329               -0.47885848                0.14075122                1.50688894                0.07292660                0.24267354
               7.99752496                5.01747043               46.05391980                0.01000000               -0.03266639               -0.58081721                0.14335886                1.23620624                0.06162403                0.30117874
               8.99817079                5.01688617               46.05552226                0.01000000                0.09161469               -0.63930136                0.14824373                0.81667476                0.03995226                0.31481144
               9.99935725                5.01017479               46.05675028                0.01000000                0.11864553               -0.50778334                0.15481703                0.39799221                0.02810335                0.26748912
               0.03851179                5.99458658               46.04647534                0.06717951               -0.02941828               -0.45047237                0.06992990                0.82916757               -0.00825268                0.17654430
               1.03821761                5.98942835               46.04630377                0.01000001               -0.45568036               -0.17341766                0.08891378                0.98255799               -0.01253258                0.10198787
               2.02939819                5.98794977               46.04605819                0.01000000               -0.67253555               -0.30931531                0.11870937                1.33274621                0.00025842                0.04577866
               3.02476690                5.98864971               46.04675489                0.01000001               -0.47520389               -0.32133347                0.13088871                1.43587454                0.06545006                0.02067560
               4.01989411                5.99311019               46.04809686                0.01000001               -0.47115903               -0.29418628                0.13641322                1.62175340                0.11134049                0.04362034
               5.01534372                5.99899618               46.04993068                0.01000000               -0.43680891               -0.24700023                0.14031579                1.56684689                0.14714506                0.09907137
               6.01115793                6.00490423               46.05213281                0.01000000               -0.35759326               -0.29456607                0.14346313                1.38771981                0.17028241                0.17333678
               7.00819185                6.00939806               46.05451918                0.01000000               -0.20616635               -0.40243020                0.14783502                1.11205229                0.17453768                0.26197175
               8.00703460                6.01169402               46.05684659                0.01000000               -0.04081393               -0.52089673                0.15272545                0.80682794                0.15209963                0.34425705
               9.00737558                6.01118081               46.05875496                0.01000001                0.04323828               -0.50726846                0.15790581                0.43890716                0.09285264                0.38945353
              10.00789937                6.00722906               46.05983729                0.01000000                0.05237937               -0.20435363                0.16290335                0.20820169                0.05397325                0.36163082
               0.04369714                6.99434902               46.04785949                0.95499592               -0.02548735               -0.02645737                0.09115611                0.00549624               -0.01179175                0.05457736
               1.04344227                6.98921278               46.04742418                0.94512990               -0.02873305               -0.02672847                0.10293712                0.00639121               -0.01208691                0.02994226
               2.04312248                6.98411228               46.04698893                0.01000000               -0.38452378               -0.20973461                0.11510795                0.76387212                0.03099307                0.00899570
               3.03575180                6.98565025               46.04742228                0.01000001               -0.61634182               -0.49726475                0.12687853                1.45496687                0.10364468               -0.05601087
               4.03079565                6.99018217               46.04891542                0.01002323               -0.56528439               -0.19103156                0.14169403                1.53296201                0.18838960                0.01991712
               5.02444611                6.99705583               46.05122053                0.01000000               -0.60454526               -0.11714398                0.14081982                1.40272035                0.24330347                0.08193289
               6.01870474                7.00254687               46.05401938                0.01000000               -0.50853614               -0.13587426                0.14631910                1.04628068                0.28078707                0.16338371
               7.01427538                7.00594832               46.05721764                0.01000000               -0.34129928               -0.24060764                0.15272593                0.64690678                0.29731238                0.26662454
               8.01187876                7.00705250               46.06042261                0.01000001               -0.14307463               -0.38250811                0.15971054                0.27466916                0.26702539                0.40589150
               9.01141389                7.00674080               46.06303681                0.01000002               -0.02269846               -0.41698935                0.16531826                0.06310577                0.16498700                0.50529829
              10.01142479                7.00608772               46.06419238                0.01000001                0.00108948               -0.10970003                0.17008221               -0.00400660                0.09127425                0.53731599
               0.04889419                7.99405744               46.04845557                1.00000000               -0.03120124               -0.02956363                0.09672092                0.00269794               -0.00184039                0.01904890
               1.04858218                7.98889378               46.04800975                0.99999999               -0.03280108               -0.03259111                0.10872231                0.00059260               -0.00187497                0.00412830
               2.04823817                7.98375508               46.04756739                0.15309290               -0.03929172               -0.03666903                0.12140451                0.00416183                0.00164469               -0.01131297
               3.04779634                7.97870441               46.04720030                0.01000001               -0.45452002               -0.37179484                0.20381513                1.13874109                0.15684236               -0.09420763
               4.03914777                7.98928956               46.04964500                0.01009359               -0.83814577               -0.04195668                0.13614479                1.52488060                0.29404806                0.01523134
               5.03103343                7.99665330               46.05237196                0.01000000               -0.79783542                0.07361959                0.14292653                1.08298888                0.32884506                0.06377246
               6.02319106                8.00218675               46.05581194                0.01000000               -0.72045302                0.05852291                0.14905309                0.67715459                0.38697237                0.13540223
               7.01662437                8.00458590               46.05991239                0.01000001               -0.57277779               -0.01714157                0.15682721                0.20381807                0.45477240                0.23523857
               8.01173550                8.00404385               46.06483305                0.01000002               -0.35109482               -0.14609610                0.16443723               -0.24927578                0.44212953                0.39802323
               9.00960247                8.00284103               46.06875972                0.01000004               -0.13050517               -0.32194562                0.17430802               -0.50755605                0.29406230                0.80871151
              10.00912540                8.00503506               46.07078792                0.01000000               -0.04770706               -0.32224582                0.17995671               -0.36443739                0.19431057                0.74242501
               0.05407841                8.99375775               46.04912966                1.00000000               -0.03219336               -0.03059016                0.10158019                0.00081787                0.00280097                0.01839648
               1.05375648                8.98856096               46.04861709                0.99999999               -0.03416592               -0.03422643                0.11419480                0.00012803                0.00256142                0.00329761
               2.05339509                8.98337890               46.04809999                0.99999999               -0.03821662               -0.03829722                0.12761461                0.00003778               -0.00226993               -0.00801975
               3.05299214                8.97821435               46.04749465                0.01000001               -0.50253604               -0.04609572                0.14191391                0.81688893                0.16382671               -0.02599680
               4.04334437                8.98934304               46.05030222                0.01000000               -0.98917253                0.20240662                0.15424592                1.08133997                0.33073055                0.00811856
               5.03320869                8.99852822               46.05337727                0.01000000               -0.95145695                0.22954886                0.15104049                0.66233751                0.37436682                0.04258892
               6.02431523                9.00371733               46.05721609                0.01000001               -0.83570265                0.19135946                0.15529129                0.31800827                0.45660692                0.08071656
               7.01649464                9.00560548               46.06208907                0.01000002               -0.78385573                0.15140957                0.16224055               -0.01088961                0.57296101                0.14364384
               8.00863812                9.00413058               46.06835449                0.01000001               -0.81115378                0.13618766                0.16768461               -0.39229806                0.86800038                0.26738724
               9.00027156                9.00030189               46.07916741                1.00000000               -0.44450732               -0.15309705                0.17565010               -0.65822339                0.54368904                0.52407892
               9.99974797                8.99964280               46.07909848                0.99999998               -0.05235941               -0.29549761                0.17368836               -0.50174007               -0.00041923                0.41839602
               0.05930412                9.99344563               46.04970911                1.00000000               -0.03405292               -0.03121141                0.10687959               -0.00106733                0.01366622                0.01394522
               1.05896359                9.98820925               46.04918908                0.99999999               -0.03592899               -0.03517083                0.11966396               -0.00211377                0.01762362                0.00142042
               2.05858554                9.98298914               46.04874676                0.99999999               -0.03968039               -0.03897597                0.13224321               -0.00229347                0.01744393               -0.00262029
               3.05816998                9.97778250               46.04823160                0.86025087               -0.90624202               -0.04318529                0.14457621                1.03521093                0.16945746               -0.00464578
               4.04046069                9.99333769               46.05084753                0.01000001               -1.41320466                0.39946478                0.16623011                0.88472143                0.32510807                0.00644903
               5.02990588               10.00124428               46.05402300                0.01000002               -0.89933670                0.27160559                0.16963222                0.30353158                0.37201486                0.02910943
               6.02247396               10.00601394               46.05789236                0.01000000               -0.69562771                0.22966044                0.16904144                0.13436374                0.46127984                0.04727957
               7.01599333               10.00761409               46.06295877                0.01000001               -0.66404116                0.20086092                0.17217768               -0.01244749                0.62495789                0.07903496
               8.00919314               10.00676761               46.07015045                0.01000000               -0.75337779                0.26370307                0.17228570               -0.33624837                0.82062216                0.18215799
               9.00092577                9.99977909               46.07910167                0.99999998               -0.43921852               -0.05228032                0.17329362               -0.31670392                0.45138939                0.00038238
              10.00040877                9.99912511               46.07903273                1.00000000               -0.05170076               -0.05176953                0.17135714                0.00068198                0.00039653               -0.00039624
              -0.01413719                0.00414047               47.03754696                0.99228442               -0.02249254               -0.02165152                0.06930987                0.00354795               -0.00924071                0.00867205
               0.98563788                0.00187807               47.03951543                0.99999999               -0.02506200               -0.02599494                0.08431509                0.00213510               -0.00782717               -0.00148719
               1.98536157               -0.00036614               47.04146638                0.06873298               -0.02759078               -0.03079982                0.09925058               -0.00085127               -0.03047875               -0.00342463
               2.98508606               -0.00265772               47.04296904                0.01000000               -0.01266926               -0.01384662                0.06144267                0.24874876               -0.03205599                0.00004998
               3.98510818                0.00024395               47.04468760                0.01000002               -0.15574446                0.11916873                0.08577634                0.26310350               -0.02588735                0.00663599
               4.98197118                0.00891060               47.04616960                0.01000405               -0.60610835                0.13939485                0.09362138                0.64435732               -0.03859543                0.01866872
               5.97298601                0.02538151               47.04766229                0.04377258               -0.47891231               -0.02507723                0.08113509                0.69582324                0.00467525               -0.00503999
               6.97239293                0.02827800               47.05028371                0.97613853               -0.04452358               -0.02974554                0.09546270                0.03176442                0.02197268                0.00272312
               7.97209554                0.03057673               47.05243537                1.00000000               -0.03171155               -0.03168010                0.10548722                0.00115972                0.00228201               -0.00102293
               8.97175870                0.03289108               47.05458789                1.00000000               -0.03490110               -0.03486630                0.11478875                0.00170823                0.00297505                0.00108152
               9.97139752                0.03520820               47.05672786                1.00000000               -0.03611783               -0.03800911                0.12465398                0.00100084                0.00286373                0.00365736
              -0.01183932                1.00392396               47.03777837                0.98088680               -0.02481455               -0.02227256                0.07465850                0.00112097                0.00169956                0.00819201
               0.98791254                1.00161812               47.03974530                0.19031960               -0.02698669               -0.02690091                0.08962697               -0.00009590                0.00376467               -0.00378841
               1.98762095                0.99932586               47.04175676                0.01000000               -0.03220138               -0.03126385                0.10479306                0.00763250               -0.01722677               -0.01698103
               2.98726851                0.99720382               47.04330112                0.01000001               -0.28329460                0.03229606                0.06464760                0.19159932               -0.03025132                0.01285518
               3.98195506                1.00143564               47.04496008                0.01000000               -0.57112703                0.09886321                0.09541116                0.54283059               -0.04641932                0.02030341
               4.97584597                1.01030455               47.04631164                0.01000000               -0.58472550                0.05713889                0.10254849                0.98496850               -0.09890241                0.03426046
               5.97026055                1.02513074               47.04711958                0.01000001               -0.28665032               -0.33171963                0.08848468                0.93147936               -0.05798985                0.06756606
               6.97011296                1.02798055               47.04953831                0.97794448               -0.02299726               -0.02958794                0.09810689                0.02962633                0.01510273               -0.00053672
               7.96980060                1.03025993               47.05169151                0.99999999               -0.03264564               -0.03228130                0.10820746                0.00030179                0.00124046               -0.00024313
               8.96946005                1.03254242               47.05384106                0.99999999               -0.03550942               -0.03539487                0.11812319                0.00015453                0.00048485                0.00125282
               9.96909041                1.03482811               47.05598190                1.00000000               -0.03696362               -0.03856572                0.12817629               -0.00056800                0.00020133                0.00516137
              -0.00950311                2.00369502               47.03802678                0.01000000               -0.02628317                0.02363829                0.07996973                0.06208126                0.00278115                0.09542361
               0.99023405                2.00134006               47.03992737                0.01000000               -0.02841822               -0.11270205                0.09467383                0.06283808                0.00069655                0.07122306
               1.98992852                1.99900858               47.04177302                0.01000001               -0.17128883               -0.12730098                0.10061959                0.12086225                0.01611564                0.04475377
               2.98680828                1.99798821               47.04398033                0.01000000               -0.35322320               -0.00194859                0.10482362                0.37739670               -0.00372344                0.04523048
               3.98286406                2.00222121               47.04550029                0.01000000               -0.44164173               -0.01515985                0.10966067                0.91637459               -0.05494712                0.04692800
               4.97797544                2.01005338               47.04677698                0.01000001               -0.44622269               -0.13244605                0.11470215                1.25158472               -0.07721234                0.06719741
               5.97393960                2.01874712               47.04800568                0.01000000               -0.50595913               -0.46416401                0.11414497                1.35121921               -0.10609087                0.11422838
               6.96785626                2.02768625               47.04880977                0.01000000               -0.31999479               -0.26902578                0.10076101                0.79717534               -0.06801414                0.09339690
               7.96753971                2.02993111               47.05095477                0.18364612               -0.03313228               -0.03298572                0.11095715                0.00120490               -0.00158730                0.00948242
               8.96719362                2.03218318               47.05309685                0.99996464               -0.03624620               -0.03637442                0.12170650                0.00050004               -0.00121696                0.00036296
               9.96681478                2.03443688               47.05526038                0.99999999               -0.03788308               -0.03967332                0.13157493               -0.00054704               -0.00038612                0.00524250
              -0.00588777                3.00439672               47.04000417                0.01007847               -0.02565006                0.05327997                0.07904811                0.07279651               -0.00618537                0.18583636
               0.99385573                2.99936408               47.04164797                0.01000001               -0.03610954               -0.23878476                0.09882409                0.21494777               -0.00750018                0.14597520
               1.99339004                2.99677984               47.04328705                0.01000000               -0.11259595               -0.27502535                0.11167435                0.48504842               -0.01246848                0.11265680
               2.99160381                2.99716485               47.04485511                0.01000000               -0.25863357               -0.16755861                0.11928157                0.87667593               -0.02333303                0.06779310
               3.98821737                3.00113244               47.04632063                0.01005527               -0.36260281               -0.17435129                0.12424819                1.22439702               -0.03961814                0.06681859
               4.98435176                3.00765563               47.04763760                0.01000000               -0.42826525               -0.25385958                0.12691171                1.49402808               -0.05883679                0.08889176
               5.97965207                3.01584746               47.04881508                0.01000001               -0.47396398               -0.32739650                0.12517960                1.51903121               -0.07497708                0.12505007
               6.97487248                3.02260003               47.04997084                0.01000001               -0.71621530               -0.41717016                0.12191571                1.57145704               -0.11945966                0.17994088
               7.96532776                3.02960022               47.05040859                0.01000001               -0.49541019               -0.30505491                0.11675540                1.26647206               -0.10081751                0.17170358
               8.96496427                3.03181493               47.05233371                0.01000001               -0.03778433               -0.38611147                0.12582783                0.97224835               -0.01393234                0.14277916
               9.96457207                3.03403464               47.05451618                0.95488092               -0.03922002               -0.83971820                0.13508336                1.13525927               -0.00149005                0.11332291
               0.00201809                4.00476062               47.04195929                0.01000000                0.01317962               -0.05797292                0.07302770                0.27188119               -0.00944830                0.19801026
               1.00214989                3.99656436               47.04336472                0.01000000               -0.00946823               -0.35928415                0.10291430                0.56175565               -0.01218666                0.14264903
               2.00182873                3.99350808               47.04469466                0.01000000               -0.10803434               -0.35176604                0.12136985                0.97583133               -0.01607018                0.09890348
               2.99998920                3.99463703               47.04600819                0.01004834               -0.24837569               -0.27976388                0.13002120                1.24279304               -0.01715070                0.07307842
               3.99686121                3.99873419               47.04733757                0.01000000               -0.34241073               -0.27426693                0.13409403                1.49054586               -0.01621501                0.07280505
               4.99314099                4.00497619               47.04871886                0.01000001               -0.37426933               -0.29562837                0.13561820                1.64795889               -0.01531933                0.10045518
               5.98937583                4.01219919               47.05012518                0.01000001               -0.38041728               -0.37218760                0.13520729                1.74888796               -0.02031164                0.15175683
               6.98553264                4.01934284               47.05146986                0.01000002               -0.28607868               -0.42029774                0.13381464                1.72359254               -0.02100133                0.21213693
               7.98365425                4.02383001               47.05293063                0.01012561               -0.16642402               -0.58901749                0.13457312                1.81022945               -0.01025944                0.29649972
               8.98220416                4.02446096               47.05444582                0.01000000                0.07131487               -0.73284114                0.13997261                1.29839793               -0.00600059                0.27977732
               9.98508055                4.01764252               47.05596096                0.01000001                0.28763898               -1.19407779                0.14784166                1.00839494                0.00349892                0.21327676
               0.01594237                5.00323726               47.04417852                0.01000003                0.04010146               -0.52936860                0.06253653                0.71759638               -0.01309862                0.24375891
               1.01634339                4.99217840               47.04514893                0.01000000               -0.05541883               -0.39009947                0.10286982                1.12789400               -0.00928163                0.13981439
               2.01483400                4.98974452               47.04609184                0.01000001               -0.25549115               -0.30949862                0.12802383                1.33104502               -0.00718003                0.07498271
               3.01123356                4.99156957               47.04713458                0.01000000               -0.35724325               -0.33183401                0.13753773                1.51045014                0.00488073                0.05420576
               4.00768913                4.99564710               47.04844847                0.01000001               -0.36938149               -0.30910779                0.14020293                1.63245182                0.02937430                0.06095388
               5.00384593                5.00174306               47.05000592                0.01000001               -0.37129792               -0.31823844                0.14099169                1.71761311                0.05006547                0.10000081
               6.00026317                5.00840371               47.05174101                0.01000161               -0.30662143               -0.37356567                0.14205141                1.68000084                0.06309886                0.16278420
               6.99771351                5.01419408               47.05356831                0.01000000               -0.19244679               -0.49574454                0.14388680                1.57165699                0.06601643                0.24032756
               7.99641424                5.01781987               47.05536336                0.01000000               -0.02968916               -0.59929487                0.14623503                1.28610216                0.05716200                0.30453784
               8.99711972                5.01715811               47.05701540                0.01000000                0.09813033               -0.65883280                0.15034242                0.84566568                0.03850765                0.31902955
               9.99837684                5.01015308               47.05830699                0.01000000                0.12571209               -0.52776048                0.15703633                0.41212831                0.02806296                0.26996495
               0.03848774                5.99417325               47.04713912                0.05135490               -0.02872355               -0.46875723                0.05833194                0.86191246               -0.01761294                0.19207126
               1.03820051                5.98876237               47.04719358                0.01000001               -0.47146423               -0.17725866                0.09328736                1.02523163               -0.01693198                0.09186151
               2.02905846                5.98731810               47.04729319                0.01000000               -0.69524410               -0.31621419                0.13190126                1.38893564               -0.00619596                0.03811822
               3.02429563                5.98800035               47.04813849                0.01000001               -0.48608523               -0.34298948                0.13990211                1.48823515                0.04662647                0.00692951
               4.01933675                5.99255203               47.04948509                0.01000001               -0.47794915               -0.30659590                0.14211435                1.68336167                0.09309818                0.03349364
               5.01473664                5.99861142               47.05134756                0.01000270               -0.44059629               -0.25913617                0.14251415                1.63159006                0.13623112                0.08411113
               6.01052483                6.00472787               47.05357601                0.01000000               -0.35935128               -0.30729214                0.14541747                1.45250601                0.16535574                0.16106185
               7.00754962                6.00942795               47.05600799                0.01000000               -0.20562806               -0.41701963                0.15017909                1.17199987                0.17372889                0.25479016
               8.00641227                6.01184411               47.05838490                0.01000000               -0.03826795               -0.53748186                0.15620534                0.85346654                0.15302491                0.34266548
               9.00678426                6.01128430               47.06034424                0.01000001                0.04604476               -0.52037290                0.16098675                0.46453803                0.09377650                0.39047843
              10.00733316                6.00708731               47.06147242                0.01000000                0.05489043               -0.21007910                0.16518648                0.21959052                0.05436669                0.36136597
               0.04400237                6.99386212               47.04877473                0.94818801               -0.02992105               -0.02960626                0.09160464                0.01551167               -0.00958773                0.06318231
               1.04370316                6.98863323               47.04845936                0.93279950               -0.03138229               -0.02243449                0.10424470                0.01521096               -0.01154560                0.03480287
               2.04337473                6.98342024               47.04814584                0.01000000               -0.39694108               -0.21292992                0.11685625                0.78075775                0.02772400                0.00373437
               3.03576434                6.98470978               47.04863444                0.01000001               -0.63147153               -0.52466538                0.14444596                1.50827636                0.10061549               -0.02303560
               4.03074530                6.98951518               47.05034571                0.01000002               -0.57312237               -0.19294977                0.13719337                1.60446575                0.18277820               -0.00274221
               5.02430189                6.99656034               47.05262514                0.01000000               -0.61242668               -0.12524907                0.14141905                1.46213891                0.23673108                0.06139702
               6.01849676                7.00225786               47.05548277                0.01000000               -0.51323141               -0.14399707                0.14617393                1.10351419                0.28416662                0.14487045
               7.01403727                7.00585369               47.05874670                0.01000000               -0.34347707               -0.24989680                0.15386479                0.69671861                0.30377645                0.25548590
               8.01162722                7.00707023               47.06202923                0.01000000               -0.14349895               -0.39134025                0.16193415                0.31127827                0.27242724                0.40060510
               9.01116729                7.00675065               47.06469816                0.01000002               -0.02322943               -0.42239393                0.16796570                0.08161028                0.16820652                0.50589186
              10.01116263                7.00595150               47.06589654                0.01000000               -0.00046535               -0.10364317                0.17126022                0.00389381                0.09334547                0.53857434
               0.04925576                7.99358112               47.04942374                1.00000000               -0.03091516               -0.02882602                0.09644014                0.00094739               -0.00244613                0.01800055
               1.04894661                7.98831368               47.04909971                1.00000000               -0.03293483               -0.03280701                0.10958671                0.00039497               -0.00168798                0.00432761
               2.04859706                7.98305951               47.04878990                0.36469221               -0.02901988               -0.03673382                0.12191686               -0.01554252                0.04276461               -0.00978473
               3.04836621                7.97750705               47.04936582                0.01000001               -0.45107770               -0.36423751                0.08534203                1.16704949                0.14891696               -0.07344261
               4.03957551                7.98869304               47.05090878                0.01013477               -0.85647343               -0.03758345                0.14303767                1.57824123                0.25268593               -0.00321404
               5.03123674                7.99610644               47.05380950                0.01000000               -0.81368704                0.07358225                0.13682023                1.11795066                0.34172530                0.03940540
               6.02330177                8.00184793               47.05727959                0.01000000               -0.72825599                0.05640750                0.14647261                0.71906972                0.39818319                0.11463861
               7.01667162                8.00443002               47.06147638                0.01000000               -0.57804486               -0.02035968                0.15635808                0.24026819                0.46759555                0.22219251
               8.01174087                8.00401731               47.06647437                0.01000002               -0.35682138               -0.14846115                0.16542480               -0.22348774                0.45497817                0.39327000
               9.00953519                8.00283642               47.07053373                0.01012298               -0.13657684               -0.31828056                0.17760406               -0.49113524                0.30018384                0.80560270
              10.00900933                8.00501445               47.07261668                0.01000001               -0.05258601               -0.31176751                0.18155037               -0.34918927                0.19604580                0.73748343
               0.05455620                8.99328560               47.05014269                1.00000000               -0.03235234               -0.03021672                0.10083804                0.00112418                0.00271267                0.01750607
               1.05423268                8.98797709               47.04976069                0.99999999               -0.03428441               -0.03445601                0.11474492                0.00045409                0.00293441                0.00336715
               2.05387051                8.98268556               47.04938382                1.00000000               -0.03804380               -0.03827829                0.12833971                0.00115384               -0.00082628               -0.00758204
               3.05347180                8.97742503               47.04893080                0.01000001               -0.50798930               -0.02600119                0.14197331                0.82283485                0.16250329               -0.06569334
               4.04371073                8.98876351               47.05182088                0.01000000               -0.99828957                0.20466344                0.14350597                1.09253447                0.32860920                0.01077098
               5.03350601                8.99803199               47.05486406                0.01000000               -0.95780724                0.23475855                0.13808776                0.67453029                0.38785052                0.02354151
               6.02455458                9.00338601               47.05873959                0.01000001               -0.84163777                0.19346567                0.14946255                0.33778093                0.47500435                0.06653034
               7.01667325                9.00544649               47.06369368                0.01000002               -0.79017595                0.15229810                0.16056346                0.00810280                0.58717188                0.13432936
               8.00875106                9.00410101               47.07004371                0.01000001               -0.81629059                0.13638919                0.16997814               -0.37711268                0.87451168                0.26341832
               9.00034744                9.00038504               47.08092451                1.00000000               -0.44641335               -0.14877462                0.17568662               -0.64557641                0.54811775                0.52448258
               9.99982280                8.99971615               47.08083524                0.99995973               -0.05246470               -0.29076551                0.17366775               -0.49275292               -0.00041852                0.41499627
               0.05989526                9.99297679               47.05077325                1.00000000               -0.03395390               -0.03088108                0.10582219               -0.00131631                0.01356249                0.01347290
               1.05955572                9.98762456               47.05038737                0.99993047               -0.03615334               -0.03525259                0.11984011               -0.00183762                0.01745364                0.00158864
               2.05917220                9.98229394               47.05007668                0.99999998               -0.04053845               -0.03916219                0.13413675               -0.00170855                0.01691502               -0.00299911
               3.05874496                9.97698702               47.04968902                0.91604024               -0.91764780               -0.04380073                0.14853591                1.05193362                0.17541516               -0.00708275
               4.04081924                9.99278630               47.05256782                0.01000001               -1.43200542                0.40227912                0.18160381                0.90158089                0.33847278                0.00135486
               5.03010485               10.00080161               47.05572827                0.01000227               -0.90881808                0.27696254                0.16271182                0.30643078                0.38551116                0.02047391
               6.02264288               10.00571725               47.05957128                0.01000000               -0.69930829                0.23312330                0.16653420                0.14254806                0.47224322                0.04038227
               7.01611868               10.00747598               47.06466838                0.01000001               -0.66914041                0.20294853                0.17195930               -0.00406506                0.63072354                0.07522136
               8.00926007               10.00674509               47.07190169                0.01000000               -0.75550799                0.26440825                0.17645344               -0.32985171                0.81436785                0.17973538
               9.00100852                9.99986093               47.08083474                0.99998025               -0.43840119               -0.05241104                0.17334053               -0.31118989                0.45152293                0.00040429
              10.00049205                9.99919914               47.08074571                1.00000000               -0.05164746               -0.05170164                0.17131917                0.00074591                0.00042860               -0.00038418
              -0.01624729                0.00395771               48.03824418                0.99158890               -0.02317397               -0.02155796                0.07004987                0.00283566               -0.00731801                0.00771282
               0.98352097                0.00160954               48.04035576                0.99999999               -0.02520230               -0.02599611                0.08423506                0.00235448               -0.00818252               -0.00094054
               1.98324867               -0.00072321               48.04245718                0.05005396               -0.01996567               -0.03050349                0.09875236                0.00475116               -0.05633434               -0.00390791
               2.98312166               -0.00299126               48.04360212                0.01000000               -0.00255271               -0.02128253                0.06399306                0.25656881               -0.04395608                0.00444447
               3.98319761                0.00002436               48.04556450                0.01000000               -0.15398984                0.11910136                0.09319576                0.26925770               -0.02141948                0.01598684
               4.98004186                0.00892908               48.04712636                0.01000000               -0.61292026                0.13793859                0.10022944                0.65937000               -0.05692071                0.02075227
               5.97093921                0.02584846               48.04846518                0.03807157               -0.49151657               -0.02688551                0.07825471                0.71175891                0.00180515               -0.00826702
               6.97021153                0.02899173               48.05123527                0.97511178               -0.05133207               -0.02898130                0.09489222                0.04370105                0.02781092               -0.00110839
               7.96991257                0.03130576               48.05347893                1.00000000               -0.03123203               -0.03193862                0.10402488                0.00158098                0.00193568                0.00019912
               8.96958689                0.03363123               48.05573023                1.00000000               -0.03402031               -0.03468314                0.11353094                0.00147013                0.00230189                0.00101274
               9.96923216                0.03597109               48.05796716                1.00000000               -0.03547310               -0.03771213                0.12305878                0.00081689                0.00218267                0.00328829
              -0.01387076                1.00374213               48.03852502                0.98941204               -0.02442605               -0.02213291                0.07442323                0.00071325                0.00100212                0.00831068
               0.98588498                1.00134958               48.04063701                0.17298802               -0.02663302               -0.02674180                0.08872640                0.00019936                0.00371818               -0.00363447
               1.98559658                0.99897175               48.04279851                0.01000000               -0.02857087               -0.03025207                0.10344391                0.00960895               -0.04331049               -0.02274517
               2.98531356                0.99679591               48.04396364                0.01000001               -0.28332807                0.03168947                0.06621223                0.19794503               -0.04711794                0.03341912
               3.97993002                1.00121537               48.04593620                0.01000000               -0.57950233                0.09798517                0.10406132                0.55785332               -0.03910925                0.02913152
               4.97372352                1.01030847               48.04736990                0.01000000               -0.59522719                0.05454918                0.11120339                1.01022808               -0.11420794                0.03506121
               5.96802547                1.02557960               48.04803804                0.01000001               -0.29018115               -0.34259638                0.09614917                0.96253182               -0.07123214                0.06882957
               6.96791989                1.02870191               48.05053064                0.97308539               -0.02084257               -0.02970251                0.09936207                0.04260851                0.01294564               -0.00068920
               7.96760862                1.03098637               48.05277503                0.99999999               -0.03254835               -0.03257838                0.10851596                0.00015444                0.00061365                0.00021639
               8.96726893                1.03328440               48.05502173                0.99999999               -0.03540751               -0.03535452                0.11799437                0.00006646                0.00038563                0.00144335
               9.96690047                1.03559397               48.05726101                0.99999999               -0.03684527               -0.03839375                0.12757566               -0.00069136                0.00014210                0.00480078
              -0.01144792                2.00351505               48.03881692                0.01000001               -0.02567434                0.02506213                0.07846124                0.06446102                0.00302995                0.09338467
               0.98829534                2.00107470               48.04086326                0.01000000               -0.02787848               -0.11216956                0.09275555                0.06497953               -0.00415307                0.07251340
               1.98799451                1.99867175               48.04275690                0.01000001               -0.17291992               -0.12603441                0.10084434                0.12595572                0.00825045                0.04535971
               2.98483694                1.99764253               48.04504456                0.01000000               -0.35761937                0.00117883                0.10678609                0.38725968               -0.01253883                0.07186027
               3.98084212                2.00198406               48.04661864                0.01000000               -0.44773711               -0.01813637                0.11565077                0.93919500               -0.06470444                0.05534018
               4.97588220                2.01002007               48.04795724                0.01000001               -0.45228632               -0.13895789                0.12239784                1.28617828               -0.08821942                0.06794549
               5.97179640                2.01899653               48.04917745                0.01000000               -0.51126322               -0.47938251                0.12096376                1.40079017               -0.12711993                0.11945112
               6.96565693                2.02839768               48.04982770                0.01000000               -0.32316155               -0.28312695                0.10305084                0.82785094               -0.07992782                0.10283155
               7.96533317                2.03065419               48.05207302                0.19536203               -0.03381561               -0.03356411                0.11269889                0.00058171               -0.00087130                0.01014614
               8.96498062                2.03292414               48.05431823                1.00000000               -0.03669835               -0.03664964                0.12260949                0.00028175               -0.00068905                0.00081977
               9.96459920                2.03520322               48.05657839                0.99999999               -0.03814211               -0.03977130                0.13203053               -0.00067989               -0.00018864                0.00493654
              -0.00770084                3.00424337               48.04079534                0.01000005               -0.02712808                0.05442033                0.08154703                0.07631262               -0.00556428                0.17802080
               0.99202788                2.99910619               48.04266094                0.01000001               -0.03756431               -0.24153886                0.10264978                0.21981018               -0.01287962                0.15655445
               1.99154787                2.99645106               48.04444044                0.01000000               -0.11407186               -0.27818577                0.11612757                0.49500485               -0.02690977                0.12897724
               2.98974644                2.99681949               48.04606972                0.01000000               -0.26057450               -0.17108433                0.12293569                0.89601698               -0.04005044                0.08084389
               3.98633638                3.00085265               48.04758860                0.01005769               -0.36559112               -0.18098631                0.12894489                1.25497389               -0.05420899                0.07315817
               4.98243462                3.00752931               48.04893406                0.01000000               -0.43363569               -0.26364057                0.13253998                1.53810726               -0.07462613                0.08815560
               5.97766367                3.01599195               48.05009076                0.01000001               -0.48076823               -0.33972517                0.13028958                1.57191115               -0.09256601                0.12384831
               6.97281925                3.02303938               48.05120574                0.01000001               -0.72849379               -0.43885907                0.12523329                1.62635217               -0.13752186                0.18919190
               7.96309379                3.03031509               48.05157373                0.01000001               -0.50468591               -0.31843002                0.11734166                1.30987274               -0.10808957                0.17971147
               8.96272553                3.03255141               48.05359979                0.01000001               -0.03825297               -0.40217262                0.12750482                1.00494672               -0.01334098                0.14848727
               9.96232873                3.03479854               48.05587386                0.98632317               -0.03968021               -0.86718819                0.13653699                1.17257668               -0.00143007                0.11828519
               0.00035271                4.00460346               48.04269176                0.01000000                0.01311450               -0.05947791                0.07872073                0.27881506               -0.01328481                0.18472459
               1.00048385                3.99624393               48.04443791                0.01000000               -0.00856991               -0.37288135                0.11246442                0.57660204               -0.02658628                0.15637766
               2.00018131                3.99310803               48.04595065                0.01000000               -0.10640762               -0.36256792                0.12860095                0.99943567               -0.04084228                0.11709890
               2.99835570                3.99422084               48.04734266                0.01005287               -0.24747626               -0.28943814                0.13510954                1.27227839               -0.04234680                0.08444135
               3.99523178                3.99836434               48.04870668                0.01000000               -0.34253297               -0.28575966                0.13856251                1.53066170               -0.03740022                0.07407592
               4.99150504                4.00474725               48.05009882                0.01000001               -0.37536128               -0.30810823                0.13988829                1.70075295               -0.03307587                0.09622627
               5.98772456                4.01220202               48.05149723                0.01000001               -0.38220992               -0.38744478                0.13919246                1.81306913               -0.03617093                0.14838052
               6.98386084                4.01962050               48.05282129                0.01000001               -0.28529844               -0.43870178                0.13690420                1.78932068               -0.03482991                0.21345856
               7.98201859                4.02428559               48.05427940                0.01016888               -0.16323700               -0.61040832                0.13651922                1.86937523               -0.01947865                0.30353106
               8.98059610                4.02488069               48.05585890                0.01000000                0.07689398               -0.75915351                0.14333135                1.34228231               -0.01218379                0.29356447
               9.98355647                4.01785945               48.05746336                0.01000000                0.29603670               -1.23679580                0.15211948                1.04820605                0.00213371                0.21763716
               0.01459452                5.00305381               48.04476916                0.01000003                0.04608226               -0.53858332                0.06214482                0.74436925               -0.03726971                0.23324788
               1.01505534                4.99164856               48.04622835                0.01000000               -0.05174261               -0.41443834                0.11886193                1.16934705               -0.04084512                0.14524118
               2.01355967                4.98919971               48.04744238                0.01000001               -0.25598219               -0.32249457                0.14070818                1.37651107               -0.04401295                0.09065939
               3.00993570                4.99103073               48.04856354                0.01000000               -0.35682340               -0.34662010                0.14471432                1.55447868               -0.03023913                0.05723256
               4.00642320                4.99513745               48.04987758                0.01000001               -0.36618564               -0.32407565                0.14424380                1.68258199                0.00308474                0.05587087
               5.00261199                5.00136715               48.05143619                0.01000001               -0.36856968               -0.33440357                0.14416506                1.77889967                0.03247480                0.08955631
               5.99905181                5.00824305               48.05317779                0.01001533               -0.30449426               -0.39091582                0.14523146                1.74891256                0.05218859                0.15384988
               6.99652210                5.01426534               48.05502603                0.01000000               -0.19153539               -0.51525166                0.14738325                1.64302840                0.06063701                0.23656026
               7.99522110                5.01810692               48.05684450                0.01000000               -0.02623930               -0.62020651                0.15132873                1.34216356                0.05776430                0.29934086
               8.99599732                5.01736834               48.05852911                0.01000000                0.10571157               -0.67865339                0.15494211                0.87615939                0.04101388                0.32302998
               9.99733533                5.01006263               48.05989101                0.01000000                0.13380153               -0.54963086                0.16042698                0.42812222                0.03087724                0.27224844
               0.03805060                5.99383179               48.04764198                0.03626004               -0.03256990               -0.48628853                0.03626629                0.88941773               -0.05117829                0.23546286
               1.03772490                5.98795516               48.04816951                0.01000001               -0.48606184               -0.18229230                0.10933442                1.08056265               -0.05759417                0.07064879
               2.02832936                5.98665814               48.04869621                0.01000000               -0.71086877               -0.32547258                0.15148651                1.46377472               -0.04439030                0.03188028
               3.02350752                5.98728844               48.04955293                0.01000001               -0.48911797               -0.35342627                0.14626832                1.54266111                0.01164926                0.01262167
               4.01854700                5.99188282               48.05093915                0.01000001               -0.47650474               -0.32169048                0.14462899                1.74040272                0.06925464                0.01515229
               5.01397743                5.99805918               48.05278096                0.01001434               -0.43711948               -0.27726591                0.14448079                1.69662815                0.12130783                0.06564902
               6.00980461                6.00438371               48.05504116                0.01000000               -0.35599438               -0.32511788                0.14764815                1.52354896                0.16086923                0.14442235
               7.00685754                6.00931546               48.05752276                0.01000000               -0.20228772               -0.43378476                0.15304413                1.23900528                0.17591247                0.24385951
               8.00575886                6.01188146               48.05997069                0.01000000               -0.03469803               -0.55658959                0.16036458                0.90734519                0.15568762                0.33777961
               9.00616358                6.01130762               48.06197470                0.01000001                0.04857387               -0.53495973                0.16507892                0.49493868                0.09452077                0.39218765
              10.00673034                6.00686683               48.06314102                0.01000000                0.05667546               -0.21738379                0.16978010                0.23390172                0.05454027                0.36191139
               0.04413614                6.99332804               48.04969158                0.94313456               -0.02958911               -0.03911495                0.09134299                0.03960294               -0.01213125                0.08135787
               1.04384025                6.98800271               48.04950908                0.91102175               -0.03171281               -0.01380775                0.10605311                0.04097825               -0.01209879                0.03627028
               2.04350188                6.98269025               48.04932605                0.01000000               -0.41380059               -0.21683632                0.12014024                0.82287360                0.04537695               -0.00952489
               3.03556424                6.98396220               48.05031120                0.01000001               -0.65206861               -0.51746225                0.14305343                1.55808324                0.08568153               -0.10527480
               4.03046051                6.98870364               48.05165929                0.01000001               -0.57602860               -0.20663589                0.13678536                1.65352148                0.14810234               -0.01464275
               5.02404367                6.99582183               48.05404891                0.01000000               -0.60970024               -0.14283513                0.14063635                1.52783727                0.23341011                0.02744342
               6.01826651                7.00174070               48.05694285                0.01000000               -0.51196035               -0.15805013                0.14721710                1.17255232                0.28877458                0.11991492
               7.01380446                7.00558964               48.06029494                0.01000000               -0.34453321               -0.26163422                0.15636897                0.75791955                0.31367059                0.23999769
               8.01137584                7.00697513               48.06366129                0.01000000               -0.14468729               -0.39933410                0.16475297                0.35491801                0.28144090                0.39431548
               9.01091071                7.00666914               48.06639613                0.01000002               -0.02404497               -0.42904461                0.17211195                0.10200391                0.17231384                0.50762378
              10.01089494                7.00571495               48.06761758                0.01000000               -0.00157694               -0.10104026                0.17507055                0.01208498                0.09427460                0.53827586
               0.04949332                7.99304949               48.05038437                1.00000000               -0.03110627               -0.02848422                0.09565814                0.00097722               -0.00216160                0.01720917
               1.04918225                7.98767900               48.05020149                0.99999999               -0.03329850               -0.03310349                0.11059905                0.00028521               -0.00280164                0.00433538
               2.04882735                7.98232141               48.05000573                0.18708117               -0.02632270               -0.03748898                0.12463134               -0.00166220               -0.04908537               -0.00901293
               3.04865580                7.97693919               48.04890714                0.01000001               -0.45347706               -0.36924565                0.08906741                1.18348019                0.12890965               -0.06764935
               4.03975781                7.98775011               48.05250575                0.01017759               -0.85793399               -0.04021100                0.13357794                1.58930334                0.31136401               -0.04298859
               5.03149712                7.99520248               48.05510837                0.01000000               -0.81349818                0.06292311                0.13307189                1.17379645                0.33794602               -0.01236340
               6.02348784                8.00122271               48.05874139                0.01000000               -0.73578097                0.05077785                0.14599122                0.77997478                0.42190955                0.08230560
               7.01678150                8.00408278               48.06303956                0.01000000               -0.58550619               -0.02447848                0.15818627                0.29007847                0.48580921                0.20524842
               8.01177772                8.00389478               48.06814155                0.01000002               -0.36588320               -0.15017528                0.16877278               -0.19171861                0.47123918                0.38688811
               9.00946384                8.00272673               48.07231180                0.01012851               -0.14486479               -0.30893084                0.17458381               -0.47585358                0.31454583                0.80830750
              10.00888042                8.00484603               48.07441892                0.01000001               -0.05834148               -0.29506283                0.17508593               -0.33691014                0.20327895                0.73213174
               0.05489666                8.99275836               48.05114642                1.00000000               -0.03226278               -0.02977614                0.09978582                0.00091818                0.00301902                0.01690799
               1.05457403                8.98734064               48.05091199                0.99999999               -0.03441051               -0.03456749                0.11520682                0.00045416                0.00263237                0.00319279
               2.05420845                8.98194047               48.05066679                0.99999999               -0.03844427               -0.03889937                0.13019066                0.00157428               -0.00273989               -0.00595472
               3.05380515                8.97657729               48.05033411                0.01000000               -0.51125792               -0.04073933                0.14485487                0.82451466                0.15007307                0.02572881
               4.04398329                8.98789942               48.05317233                0.01000000               -0.98790766                0.20604003                0.11365059                1.09680495                0.39654959               -0.06232220
               5.03404699                8.99708029               48.05613902                0.01000000               -0.94987940                0.23614358                0.12260895                0.69861793                0.44416050               -0.02044403
               6.02498570                9.00275625               48.06020534                0.01000000               -0.85565182                0.19677481                0.14760509                0.37553267                0.51679102                0.04216151
               7.01693396                9.00510007               48.06530034                0.01000002               -0.80440935                0.15431689                0.16330844                0.03556295                0.61010418                0.12287807
               8.00889752                9.00397162               48.07175405                0.01000001               -0.82457852                0.13757890                0.17207710               -0.35365666                0.88637765                0.25977138
               9.00044239                9.00049053               48.08268114                1.00000000               -0.44896864               -0.13800120                0.17563497               -0.62547786                0.55139341                0.52451891
               9.99991814                8.99981369               48.08257184                0.99999995               -0.05242431               -0.27747750                0.17363374               -0.48193438               -0.00040042                0.41287860
               0.06034711                9.99245397               48.05182555                1.00000000               -0.03378888               -0.03043896                0.10434443               -0.00158650                0.01355734                0.01324115
               1.06000922                9.98698765               48.05158588                0.99999999               -0.03624611               -0.03529896                0.11987897               -0.00200830                0.01797873                0.00131156
               2.05962219                9.98154343               48.05142950                0.99999997               -0.04110386               -0.03970493                0.13578434               -0.00178855                0.01845592               -0.00154358
               3.05918715                9.97612441               48.05120232                0.97897831               -0.92156427               -0.04528808                0.15188576                1.05457382                0.18962781               -0.00328505
               4.04119090                9.99187091               48.05447961                0.01000000               -1.42872486                0.39714837                0.16887968                0.91080834                0.44700219               -0.04737025
               5.03061265                9.99992535               48.05727724                0.01000000               -0.91060967                0.28450621                0.15317131                0.32093012                0.43040075                0.00170435
               6.02297871               10.00515820               48.06122305                0.01000000               -0.71676284                0.24019478                0.16795118                0.16148881                0.50376524                0.03044589
               7.01627739               10.00716912               48.06639796                0.01000001               -0.68322892                0.20690411                0.17602816                0.00875088                0.64226872                0.07023251
               8.00931413               10.00664635               48.07367952                0.01000000               -0.75825912                0.26747302                0.17881399               -0.31845899                0.81270026                0.17898015
               9.00111221                9.99996671               48.08256848                1.00000000               -0.43593652               -0.05238209                0.17339037               -0.30051161                0.45034342                0.00043098
              10.00059540                9.99929648               48.08245911                1.00000000               -0.05168074               -0.05172156                0.17137674                0.00070289                0.00040360               -0.00041278
              -0.01850671                0.00373304               49.03894795                0.99163360               -0.02320503               -0.02156183                0.07058346                0.00271889               -0.00770166                0.00770647
               0.98126124                0.00129677               49.04120013                1.00000000               -0.02523842               -0.02588356                0.08439142                0.00221755               -0.00829746               -0.00112317
               1.98098852               -0.00112696               49.04344142                0.03024664               -0.00808072               -0.03018012                0.09814827                0.01452760               -0.08049095               -0.00380149
               2.98109962               -0.00329186               49.04424890                0.01000000                0.00835169               -0.02783760                0.06067011                0.25624542               -0.04131195                0.01449127
               3.98115555               -0.00017972               49.04655152                0.01000000               -0.15837737                0.11438454                0.11422525                0.26762842               -0.03582108                0.03292933
               4.97793207                0.00883858               49.04817418                0.01000001               -0.61211721                0.13363127                0.10502221                0.66529961               -0.08903141                0.01722885
               5.96891321                0.02607047               49.04922739                0.03255092               -0.49983367               -0.02754041                0.07458579                0.71752022                0.00252313               -0.01576252
               6.96793540                0.02966509               49.05218155                0.97420935               -0.06369559               -0.02907552                0.09440544                0.06585033                0.03231503               -0.00106590
               7.96763930                0.03198852               49.05451587                1.00000000               -0.03094449               -0.03183451                0.10328934                0.00141122                0.00197397                0.00010277
               8.96731651                0.03432834               49.05685851                1.00000000               -0.03359859               -0.03450513                0.11220109                0.00141340                0.00209884                0.00114413
               9.96696732                0.03668625               49.05918904                1.00000000               -0.03491872               -0.03733565                0.12126143                0.00052819                0.00200384                0.00310627
              -0.01604325                1.00351743               49.03926684                0.99501247               -0.02433372               -0.02203244                0.07414710                0.00062659                0.00113858                0.00818250
               0.98371341                1.00103793               49.04151982                0.15707370               -0.02643220               -0.02651863                0.08796775                0.00017973                0.00387548               -0.00386182
               1.98342811                0.99857124               49.04382564                0.01000000               -0.02624791               -0.02995942                0.10205809                0.01577751               -0.06849785               -0.02449709
               2.98318846                0.99642976               49.04462536                0.01000001               -0.28307465                0.03055957                0.07107419                0.19945111               -0.07759891                0.06780609
               3.97776661                1.00096412               49.04704130                0.01000000               -0.58642406                0.09276726                0.12501352                0.56234321               -0.04351469                0.03691233
               4.97145997                1.01017489               49.04853571                0.01000000               -0.60457299                0.05047740                0.11987375                1.02755563               -0.13312643                0.02645717
               5.96567515                1.02579506               49.04904256                0.01000001               -0.29125480               -0.34935260                0.10592520                0.99064918               -0.09149786                0.06182847
               6.96563488                1.02937434               49.05152555                0.96773042               -0.01766845               -0.02986561                0.09988258                0.06509216                0.00795830               -0.00107238
               7.96532179                1.03167017               49.05386183                0.99999999               -0.03265502               -0.03265924                0.10885290                0.00007011                0.00058299                0.00023620
               8.96498178                1.03398328               49.05620095                0.99999999               -0.03535470               -0.03534076                0.11784876                0.00003393                0.00036132                0.00162157
               9.96461469                1.03631289               49.05853341                0.99989466               -0.03670870               -0.03817426                0.12689059               -0.00087000                0.00015763                0.00464722
              -0.01353519                2.00329240               49.03959601                0.01000000               -0.02537862                0.02824381                0.07768442                0.06305001                0.00306577                0.09431422
               0.98621102                2.00076640               49.04178248                0.01000000               -0.02762849               -0.10587000                0.09140657                0.06105418               -0.00562819                0.07637530
               1.98591224                1.99827385               49.04378990                0.01000001               -0.17576306               -0.12027993                0.10164661                0.12839473                0.00200013                0.04807686
               2.98269576                1.99731933               49.04611605                0.01000000               -0.36274757                0.00269319                0.11022740                0.39339810               -0.02249195                0.10296103
               3.97865728                2.00167562               49.04781330                0.01000000               -0.45217561               -0.02282784                0.12319105                0.95155189               -0.07059585                0.05636587
               4.97365225                2.00984813               49.04922493                0.01000001               -0.45652676               -0.14488616                0.13149778                1.31524443               -0.09874869                0.05866848
               5.96952675                2.01908342               49.05042495                0.01000000               -0.51450555               -0.48952085                0.12864997                1.45367782               -0.15022070                0.11494717
               6.96336213                2.02906778               49.05087079                0.01000000               -0.32474997               -0.29920291                0.10533665                0.86280548               -0.09482233                0.11162343
               7.96303175                2.03133533               49.05320875                0.20688438               -0.03438331               -0.03410534                0.11437358                0.00019374               -0.00071164                0.01000652
               8.96267447                2.03362152               49.05554904                0.99999999               -0.03705217               -0.03696380                0.12355462                0.00014870               -0.00045804                0.00110012
               9.96229071                2.03592276               49.05790099                0.99999999               -0.03837621               -0.03987628                0.13249791               -0.00084376               -0.00010180                0.00477853
              -0.00973025                3.00408230               49.04163511                0.01000005               -0.03167087                0.05944487                0.08480816                0.07358795               -0.00525717                0.18179989
               0.98995304                2.99892053               49.04370097                0.01000001               -0.04133434               -0.23209465                0.10218938                0.21157952               -0.01901776                0.17564464
               1.98944307                2.99616564               49.04560960                0.01000000               -0.11491990               -0.27128681                0.11464263                0.48789951               -0.04132835                0.14884131
               2.98765465                2.99648363               49.04731382                0.01000000               -0.25871062               -0.17436473                0.12332893                0.90162019               -0.05373745                0.09758526
               3.98426885                3.00050757               49.04889953                0.01005976               -0.36487876               -0.18744506                0.13284537                1.27466542               -0.06554145                0.07507158
               4.98035707                3.00727717               49.05028840                0.01000000               -0.43698957               -0.27247722                0.13766855                1.57668768               -0.08830249                0.08051157
               5.97552906                3.01600465               49.05142087                0.01000001               -0.48589995               -0.35018234                0.13539289                1.62581438               -0.11069681                0.11662128
               6.97063907                3.02339028               49.05247550                0.01000001               -0.73785712               -0.46380256                0.12870727                1.68375764               -0.15711407                0.19701294
               7.96077192                3.03098807               49.05275543                0.01000001               -0.51208754               -0.33527372                0.11946522                1.35245266               -0.11610897                0.18718102
               8.96039732                3.03324401               49.05488380                0.01000000               -0.03882954               -0.41092964                0.12938021                1.03146794               -0.01260069                0.15465398
               9.95999533                3.03551537               49.05724692                0.99829174               -0.04019920               -0.89723232                0.13811364                1.20831566               -0.00139934                0.12393703
              -0.00173990                4.00448129               49.04353370                0.01000000                0.00991689               -0.05651520                0.08798220                0.26476305               -0.01669027                0.18606466
               0.99835927                3.99612450               49.04561401                0.01000000               -0.00764872               -0.37844572                0.11635474                0.56335208               -0.04621751                0.19729271
               1.99810713                3.99284811               49.04726667                0.01000000               -0.09865194               -0.36767445                0.12865593                0.99415064               -0.07368237                0.15078430
               2.99638623                3.99383204               49.04871038                0.01005401               -0.23750407               -0.29898421                0.13473257                1.28087707               -0.07139432                0.09867923
               3.99335705                3.99792672               49.05010882                0.01000000               -0.33486579               -0.29877586                0.13974831                1.55879390               -0.05788772                0.07346529
               4.98968892                4.00439859               49.05151662                0.01000001               -0.37135593               -0.32125612                0.14265651                1.74955995               -0.04943476                0.08797771
               5.98592993                4.01207977               49.05290903                0.01000001               -0.38175253               -0.40339384                0.14270308                1.87905928               -0.05144727                0.14182874
               6.98205387                4.01979173               49.05420795                0.01000001               -0.28514286               -0.45832295                0.14100685                1.85852758               -0.04862464                0.21354566
               7.98022707                4.02462986               49.05566101                0.01000005               -0.16386716               -0.64363347                0.14015876                1.94528615               -0.02901485                0.31378288
               8.97877653                4.02540293               49.05731244                0.01000000                0.08436141               -0.78705495                0.14504338                1.39222175               -0.02070139                0.31418107
               9.98191430                4.01797812               49.05900335                0.01000000                0.31377762               -1.27974836                0.15510667                1.07128204               -0.00046416                0.22173646
               0.01227859                5.00295200               49.04542141                0.01000003                0.05746698               -0.52606065                0.08012339                0.74741266               -0.07813367                0.23249700
               1.01285326                4.99135162               49.04752617                0.01000000               -0.03300255               -0.46149414                0.13384234                1.17476374               -0.10135975                0.20599273
               2.01161854                4.98881215               49.04890601                0.01000001               -0.23298424               -0.33880385                0.14206902                1.39162136               -0.11276130                0.13363009
               3.00819358                4.99050394               49.05002886                0.01000000               -0.33701809               -0.36634516                0.14377457                1.58096683               -0.07543334                0.06453264
               4.00487818                4.99453205               49.05133335                0.01000001               -0.34991790               -0.34266741                0.14402780                1.72424399               -0.02393854                0.04729385
               5.00119522                5.00085205               49.05288922                0.01000001               -0.35805385               -0.35434526                0.14572331                1.83882936                0.01578723                0.07698930
               5.99771710                5.00793677               49.05464564                0.01002812               -0.29678441               -0.41142557                0.14807051                1.82211258                0.04193078                0.14309810
               6.99525953                5.01422382               49.05651597                0.01000000               -0.18253310               -0.53777490                0.15034266                1.71315474                0.05617280                0.23313208
               7.99406644                5.01811540               49.05838993                0.01000000               -0.01830190               -0.64234717                0.15539701                1.40630486                0.06130305                0.29339774
               8.99489350                5.01750291               49.06011424                0.01000000                0.11020730               -0.70709467                0.16130508                0.92664156                0.04325681                0.32908332
               9.99627059                5.00992040               49.06151553                0.01000000                0.13770936               -0.56895769                0.16686274                0.45060075                0.03049463                0.27601748
               0.03640912                5.99396008               49.04786444                0.02184477               -0.04147213               -0.51025567                0.01689626                0.88576206               -0.18801337                0.37209592
               1.03599440                5.98689462               49.04938027                0.01000001               -0.48109435               -0.20124795                0.14328782                1.15427042               -0.22113987                0.09199760
               2.02678723                5.98607204               49.05032292                0.01000000               -0.68543624               -0.34459614                0.15708835                1.57360588               -0.12520070                0.03027266
               3.02228567                5.98650513               49.05106386                0.01000001               -0.46467044               -0.36269326                0.14492062                1.59762475               -0.03977330               -0.01025103
               4.01749382                5.99107337               49.05237767                0.01000001               -0.46124437               -0.34381620                0.14344993                1.79489981                0.04218898               -0.00271658
               5.01306079                5.99731168               49.05423718                0.01002795               -0.42467055               -0.30351234                0.14646345                1.76345948                0.10898591                0.04277559
               6.00900041                6.00385126               49.05652897                0.01000000               -0.34612243               -0.34904191                0.15041603                1.60168344                0.15688972                0.12675268
               7.00613834                6.00903623               49.05906888                0.01000000               -0.19631658               -0.45434875                0.15641408                1.31321811                0.17841368                0.23324555
               8.00507408                6.01178291               49.06159219                0.01000000               -0.03169924               -0.56648548                0.16321227                0.96566072                0.15775155                0.33286619
               9.00550435                6.01126103               49.06364582                0.01000000                0.05086272               -0.54684410                0.16950324                0.52899144                0.09521317                0.39465571
              10.00609133                6.00659896               49.06486802                0.01000000                0.05869830               -0.22406442                0.17632161                0.25052421                0.05540443                0.36535641
               0.04412476                6.99274688               49.05060159                0.93991687               -0.02980404               -0.07448071                0.09084623                0.11643652               -0.01192981                0.11339181
               1.04382672                6.98732666               49.05058042                0.89348796               -0.03223049                0.00514296                0.10774366                0.12240840               -0.01263716                0.02682546
               2.04348015                6.98192023               49.05054865                0.01000000               -0.43409890               -0.22667609                0.12372619                0.90229453                0.03504225               -0.03138423
               3.03514474                6.98325008               49.05149551                0.01000001               -0.67552581               -0.51869951                0.13030728                1.59471000                0.07087541               -0.08852304
               4.02996963                6.98765572               49.05308142                0.01000001               -0.57291058               -0.23765785                0.14245244                1.68197315                0.14015051               -0.05877699
               5.02368653                6.99478180               49.05543786                0.01000000               -0.59717034               -0.17713103                0.14176966                1.59997208                0.22780680               -0.00866579
               6.01802622                7.00095593               49.05842712                0.01000000               -0.50471444               -0.18098500                0.15108194                1.25816988                0.29736729                0.09199737
               7.01359224                7.00513684               49.06187408                0.01000000               -0.34356853               -0.27533213                0.16040991                0.83395344                0.32376861                0.22540975
               8.01115485                7.00678569               49.06532429                0.01000000               -0.14674817               -0.40603012                0.16827643                0.41242573                0.29120731                0.39021334
               9.01065727                7.00656603               49.06814040                0.01000002               -0.02748198               -0.42717411                0.17539644                0.13489043                0.17777947                0.50853834
              10.01060521                7.00543911               49.06939795                0.01000000               -0.00520610               -0.09480696                0.18041672                0.02577462                0.09462470                0.53534495
               0.04957830                7.99247047               49.05133690                1.00000000               -0.03090775               -0.02821534                0.09474197                0.00073584               -0.00261441                0.01683179
               1.04926922                7.98699748               49.05131169                0.99999999               -0.03342992               -0.03350542                0.11158144                0.00031467               -0.00277216                0.00401107
               2.04890970                7.98153851               49.05128253                0.19889863               -0.04124242               -0.03887649                0.12883979                0.00235542               -0.00878074               -0.00851056
               3.04844437                7.97613114               49.05114717                0.01000001               -0.46540704               -0.38028280                0.19724697                1.18023385                0.10162159               -0.07308234
               4.03960156                7.98632022               49.05358034                0.01000005               -0.83421775               -0.10562562                0.11999556                1.67525475                0.25574171               -0.11967139
               5.03176002                7.99376906               49.05647094                0.01000000               -0.78963969                0.03362142                0.13733112                1.27905133                0.36703198               -0.08117663
               6.02380877                8.00023156               49.06019942                0.01000000               -0.73861849                0.03958298                0.15097718                0.87316954                0.44795606                0.04703724
               7.01698765                8.00352959               49.06464011                0.01000000               -0.59576779               -0.02955957                0.16379623                0.35825731                0.50645170                0.19053966
               8.01189341                8.00366231               49.06984982                0.01000002               -0.37194576               -0.15136108                0.17270177               -0.14345405                0.48273412                0.38107179
               9.00954873                8.00271755               49.07402541                0.01000005               -0.15163768               -0.29736459                0.17221542               -0.45296190                0.32390521                0.81623851
              10.00886066                8.00470282               49.07611840                0.01000001               -0.06880764               -0.27527866                0.17196754               -0.33006337                0.20779974                0.73727624
               0.05508545                8.99218258               49.05213840                1.00000000               -0.03204867               -0.02935594                0.09844396                0.00077015                0.00291403                0.01651369
               1.05476496                8.98665655               49.05206482                0.99999999               -0.03459284               -0.03472336                0.11559364                0.00011261                0.00287399                0.00321527
               2.05439359                8.98114270               49.05198763                0.99999494               -0.03986233               -0.04004328                0.13329935                0.00015212               -0.00199323               -0.00615495
               3.05396771                8.97564442               49.05182790                0.01186544               -0.42783909               -0.04731203                0.15135273                0.77217688                0.11358591               -0.01524617
               4.04583681                8.98554321               49.05409389                0.01000000               -0.93057511                0.14520662                0.08858156                1.19463066                0.55439546               -0.20835662
               5.03535621                8.99545423               49.05731624                0.01000000               -1.00538608                0.23951013                0.13169568                0.82068926                0.55201576               -0.08423779
               6.02572909                9.00174759               49.06169169                0.01000000               -0.90147916                0.20295992                0.15708145                0.44400606                0.56762255                0.01875202
               7.01732663                9.00454565               49.06695985                0.01000002               -0.83156396                0.15779002                0.17065803                0.07654027                0.63388286                0.11340338
               8.00909781                9.00375846               49.07348525                0.01000007               -0.83845525                0.14057213                0.17482324               -0.32383870                0.89912380                0.25762168
               9.00055752                9.00061874               49.08443721                1.00000000               -0.45322038               -0.13113357                0.17558253               -0.60689300                0.55363992                0.52775167
              10.00003340                8.99993354               49.08430791                0.99986191               -0.05241234               -0.26432443                0.17358543               -0.47560988               -0.00040910                0.41579957
               0.06064576                9.99188335               49.05286014                1.00000000               -0.03344020               -0.02992309                0.10245838               -0.00200245                0.01372080                0.01305843
               1.06031136                9.98630301               49.05278495                1.00000000               -0.03604430               -0.03535390                0.11979425               -0.00264533                0.01821403                0.00150666
               2.05992487                9.98073765               49.05279237                0.99999994               -0.04119795               -0.04050478                0.13709266               -0.00277725                0.01867264               -0.00191496
               3.05948740                9.97518490               49.05272674                0.99999999               -0.81202531               -0.04595197                0.15415700                0.97630328                0.17875761               -0.00527429
               4.04368437                9.98922435               49.05594541                0.01000000               -1.37589858                0.36811365                0.15094491                0.95347376                0.66288239               -0.21827988
               5.03196943                9.99855926               49.05879169                0.01000026               -1.00434498                0.31050320                0.16711097                0.41464174                0.51209658               -0.01023685
               6.02359747               10.00429076               49.06293030                0.01000000               -0.77309223                0.25431648                0.17989840                0.19314421                0.53825803                0.02164892
               7.01650758               10.00668539               49.06818894                0.01000001               -0.71269558                0.21397353                0.18349470                0.02724520                0.65228049                0.06597305
               8.00934356               10.00647375               49.07547797                0.01000000               -0.76358903                0.27152903                0.18044816               -0.30495069                0.81381180                0.17962970
               9.00123580               10.00009488               49.08430255                0.99988522               -0.43123500               -0.05238551                0.17343206               -0.28504327                0.44812061                0.00042664
              10.00071886                9.99941634               49.08417325                1.00000000               -0.05169456               -0.05172022                0.17143744                0.00069101                0.00041120               -0.00040902
              -0.02090567                0.00347407               50.03965585                0.99159423               -0.02327718               -0.02163446                0.07103519                0.00253291               -0.00781259                0.00780857
               0.97886156                0.00094769               50.04204359                1.00000000               -0.02521237               -0.02576963                0.08426191                0.00212559               -0.00842169               -0.00121831
               1.97859008               -0.00156768               50.04442014                0.01005335                0.01618853               -0.02989912                0.09745667                0.03299787               -0.10789470               -0.00373116
               2.97918533               -0.00345436               50.04481552                0.01000000               -0.00170866               -0.02607573                0.13461575                0.19961209               -0.07573076                0.06365048
               3.97855591               -0.00029663               50.04784900                0.01000000               -0.17999799                0.09884619                0.12003191                0.25959595               -0.06290845                0.04970244
               4.97558537                0.00855061               50.04922681                0.01000001               -0.57868029                0.12362523                0.10356131                0.65741023               -0.13261125                0.00570287
               5.96698230                0.02590285               50.04995690                0.02716929               -0.50080066               -0.02842486                0.07179814                0.70892772                0.01450109               -0.03017175
               6.96556935                0.03028242               50.05312338                0.97356024               -0.08536058               -0.02911851                0.09399543                0.10469519                0.03850989               -0.00113416
               7.96527509                0.03261588               50.05554472                1.00000000               -0.03068282               -0.03176752                0.10246815                0.00132154                0.00185191                0.00009858
               8.96495570                0.03496925               50.05797425                1.00000000               -0.03319527               -0.03429424                0.11092149                0.00131729                0.00202944                0.00115537
               9.96461118                0.03734447               50.06039239                1.00000000               -0.03445130               -0.03695146                0.11942645                0.00027413                0.00193645                0.00306990
              -0.01835396                1.00325773               50.04000797                1.00000000               -0.02423529               -0.02205017                0.07416779                0.00053278                0.00119941                0.00822798
               0.98140369                1.00068999               50.04239636                0.14215795               -0.02624772               -0.02633105                0.08740003                0.00014635                0.00398601               -0.00400347
               1.98112108                0.99813333               50.04483967                0.01000000               -0.04288827               -0.02914975                0.10087264                0.03528739               -0.08792369               -0.02692108
               2.98054592                0.99628488               50.04538512                0.01000001               -0.29858528                0.02338267                0.13528148                0.18684411               -0.18666796                0.13404850
               3.97514938                1.00069184               50.04843647                0.01000000               -0.57430960                0.07748895                0.13168596                0.56337036               -0.05381056                0.02147715
               4.96905973                1.00978686               50.04976737                0.01000000               -0.59718518                0.04450651                0.12722440                1.03184888               -0.15246636                0.00986116
               5.96320568                1.02561861               50.05015654                0.01000001               -0.28999690               -0.34928473                0.12008680                1.01840974               -0.11194351                0.03947813
               6.96325979                1.02999123               50.05252830                0.96244771               -0.01303934               -0.03011126                0.10068243                0.10434676               -0.00199282               -0.00113779
               7.96294489                1.03229821               50.05495209                0.99999999               -0.03276084               -0.03275803                0.10918910                0.00003353                0.00057411                0.00021987
               8.96260457                1.03462631               50.05737871                0.99999999               -0.03530949               -0.03529802                0.11769137                0.00001384                0.00036605                0.00167887
               9.96223870                1.03697496               50.05979883                0.99999999               -0.03658751               -0.03795998                0.12620286               -0.00103079                0.00016463                0.00460523
              -0.01575955                2.00303307               50.04037061                0.01000002               -0.02515731                0.03419751                0.07737414                0.05961262                0.00316228                0.09661277
               0.98398888                2.00042107               50.04269140                0.01000000               -0.02697555               -0.09512202                0.09041765                0.05428008               -0.00786622                0.07921590
               1.98370094                1.99784933               50.04478983                0.01000001               -0.18125881               -0.10911056                0.09257033                0.12897933               -0.00120968                0.04904669
               2.98036370                1.99701329               50.04724911                0.01000000               -0.36898054               -0.00540033                0.11231513                0.41198309               -0.00497363                0.13212824
               3.97632133                2.00125315               50.04908246                0.01000000               -0.45340639               -0.03166382                0.13419803                0.96645210               -0.07171402                0.03428215
               4.97129557                2.00944074               50.05058720                0.01000001               -0.45876013               -0.14695054                0.13822415                1.33757507               -0.10355191                0.03921615
               5.96714613                2.01891716               50.05175045                0.01000000               -0.51594442               -0.48891545                0.13586581                1.51482015               -0.17360844                0.09738999
               6.96097669                2.02968019               50.05193443                0.01000000               -0.32527212               -0.31743769                0.10735881                0.90630951               -0.11230427                0.12045764
               7.96064069                2.03196072               50.05436049                0.21833109               -0.03487324               -0.03458801                0.11591536                0.00007609               -0.00060644                0.00971567
               8.96027922                2.03426329               50.05678933                0.99999999               -0.03737126               -0.03726102                0.12450246                0.00010026               -0.00035795                0.00123822
               9.95989326                2.03658528               50.05922834                0.99999999               -0.03859617               -0.04000157                0.13297432               -0.00101062               -0.00006679                0.00471627
              -0.01193771                3.00394168               50.04249150                0.01000005               -0.03892634                0.07526886                0.08414390                0.06547922               -0.00579185                0.19033913
               0.98767303                2.99878755               50.04470473                0.01000001               -0.04769217               -0.20282469                0.09568583                0.19235452               -0.02316462                0.19162246
               1.98710845                2.99595112               50.04673329                0.01000000               -0.11456365               -0.25110092                0.10594664                0.46498357               -0.04780317                0.16907296
               2.98538176                2.99617687               50.04853630                0.01000000               -0.25287396               -0.17669543                0.12267190                0.89147027               -0.06012919                0.10489832
               3.98205097                3.00005856               50.05024550                0.01006087               -0.36172661               -0.19266644                0.13440569                1.28087161               -0.06752006                0.06920878
               4.97814722                3.00684785               50.05168743                0.01000000               -0.43941708               -0.27673737                0.14089515                1.61011472               -0.09749024                0.06360900
               5.97326263                3.01584030               50.05279862                0.01000001               -0.49024028               -0.35516635                0.13887417                1.68263923               -0.12695893                0.10323371
               6.96834242                3.02364248               50.05377989                0.01000001               -0.74496573               -0.49146247                0.13168859                1.74629155               -0.17654168                0.20537631
               7.95836331                3.03160645               50.05396303                0.01000001               -0.51801957               -0.35169928                0.12213984                1.39658588               -0.12466564                0.19459839
               8.95798203                3.03388109               50.05618740                0.01000000               -0.03944007               -0.41647088                0.13137346                1.05644990               -0.01206198                0.15886103
               9.95757451                3.03617493               50.05863614                0.99999999               -0.04075145               -0.92798531                0.13973887                1.24299019               -0.00140090                0.12941062
              -0.00414171                4.00453845               50.04445140                0.01000000               -0.00317594               -0.02843318                0.08920297                0.22061457               -0.01782952                0.20746375
               0.99582653                3.99636457               50.04676500                0.01000000               -0.01234971               -0.33927011                0.10451546                0.50796950               -0.05831430                0.23912477
               1.99561129                3.99282731               50.04852377                0.01000000               -0.08704297               -0.35675279                0.11788789                0.94040549               -0.09617121                0.17809814
               2.99408567                3.99347938               50.05003731                0.01005809               -0.21717546               -0.31044869                0.12755719                1.25952250               -0.09006932                0.10729535
               3.99126778                3.99739982               50.05150165                0.01000000               -0.31847674               -0.31220423                0.13713981                1.57298605               -0.06983833                0.06603540
               4.98771613                4.00390599               50.05295195                0.01000001               -0.36317479               -0.33307379                0.14311382                1.79411127               -0.06035599                0.07613062
               5.98400429                4.01181383               50.05435129                0.01000001               -0.37898830               -0.41776094                0.14493337                1.94729945               -0.06368544                0.13314659
               6.98013637                4.01985094               50.05564143                0.01000000               -0.28352462               -0.47877134                0.14463606                1.93358752               -0.05971712                0.21386386
               7.97833379                4.02492674               50.05708258                0.01000001               -0.16483139               -0.67813743                0.14564229                2.02842517               -0.03562899                0.32540105
               8.97683974                4.02593387               50.05875977                0.01000000                0.09157915               -0.81322268                0.14824956                1.44268306               -0.01824447                0.31960433
               9.98016538                4.01802557               50.06056550                0.01000003                0.33256387               -1.32283148                0.15782083                1.08757684                0.00243515                0.23409728
               0.00882233                5.00337301               50.04637163                0.01000003                0.07212292               -0.42224575                0.09425461                0.63293285               -0.07093920                0.25418417
               1.00954356                4.99200215               50.04890520                0.01000000               -0.00102875               -0.48118543                0.11384774                1.02300751               -0.15356390                0.32676152
               2.00880175                4.98881606               50.05028376                0.01000001               -0.17719330               -0.36031785                0.12047370                1.32481110               -0.18292736                0.17812551
               3.00599969                4.98996790               50.05143904                0.01000000               -0.28588365               -0.39313015                0.13193631                1.57850245               -0.10535823                0.06150716
               4.00308408                4.99381448               50.05275814                0.01000001               -0.31921244               -0.36596998                0.13971433                1.75840791               -0.04117383                0.03776134
               4.99961544                5.00018638               50.05435065                0.01000001               -0.34102048               -0.37699725                0.14597094                1.89801614                0.00470437                0.06449416
               5.99626367                5.00748508               50.05613920                0.01000002               -0.28570882               -0.43382728                0.15044889                1.89935478                0.03314034                0.13375285
               6.99390126                5.01406705               50.05803288                0.01000000               -0.17073903               -0.56143395                0.15330657                1.78924261                0.04899591                0.22991185
               7.99284889                5.01804370               50.05995244                0.01000000               -0.00822043               -0.66611545                0.15822771                1.47763689                0.05420047                0.30405865
               8.99373686                5.01761663               50.06175521                0.01000000                0.11468818               -0.73796443                0.16680864                0.98134359                0.03883593                0.33795460
               9.99514265                5.00971830               50.06322826                0.01000000                0.14057959               -0.58670123                0.17518792                0.47159839                0.02704565                0.28238782
               0.03125867                5.99609353               50.04797991                0.01001302               -0.04150435               -0.56247958                0.01027363                0.82061171               -0.41879367                0.64740110
               1.03084363                5.98674087               50.05103527                0.01000001               -0.35584526               -0.26971732                0.10312191                1.18121587               -0.45949787                0.30209616
               2.02414176                5.98562095               50.05183798                0.01000000               -0.50931612               -0.38565510                0.12486605                1.66809026               -0.21290613                0.01035743
               3.02065730                5.98561678               50.05245135                0.01000001               -0.39621509               -0.39297370                0.13305693                1.64543800               -0.07383126               -0.01827267
               4.01621746                5.99008043               50.05380815                0.01000001               -0.43257258               -0.37445192                0.14197434                1.84931783                0.02727503               -0.01931791
               5.01200585                5.99636605               50.05571023                0.01000002               -0.40533775               -0.33858150                0.14872020                1.83477625                0.10066118                0.02453433
               6.00811071                6.00313729               50.05804948                0.01000000               -0.33216276               -0.37874404                0.15456061                1.68850894                0.15287007                0.11338769
               7.00536260                6.00862226               50.06065104                0.01000000               -0.18868787               -0.47702221                0.16052514                1.39742672                0.17605493                0.22881766
               8.00433695                6.01160443               50.06323494                0.01000000               -0.02852935               -0.57609695                0.16623913                1.03185511                0.15726280                0.33478380
               9.00479201                6.01117458               50.06536476                0.01000000                0.05285299               -0.55781560                0.17435905                0.56714507                0.09560640                0.39714365
              10.00539401                6.00629154               50.06666745                0.01000000                0.06020001               -0.22734109                0.18385939                0.26818068                0.05485932                0.36631862
               0.04393989                6.99212342               50.05150851                0.93810661               -0.02994385               -0.21221059                0.09048150                0.36007688               -0.01243051                0.15081541
               1.04364045                6.98660780               50.05166395                0.87244747               -0.03261232               -0.02330218                0.10918081                0.36585495               -0.01354358               -0.00376905
               2.04328764                6.98110296               50.05180058                0.01000000               -0.45957379               -0.24543667                0.12699641                1.00875551                0.03380863               -0.04621040
               3.03444898                6.98210842               50.05291734                0.01000001               -0.69832396               -0.52358128                0.14172620                1.64777958                0.05617267               -0.09616460
               4.02932116                6.98632544               50.05450833                0.01000000               -0.55974363               -0.28681102                0.14491626                1.73188652                0.12733478               -0.08731635
               5.02325410                6.99341475               50.05688430                0.01000000               -0.57717657               -0.23327407                0.14960904                1.68987956                0.22466091               -0.03990773
               6.01777763                6.99991020               50.05996449                0.01000000               -0.49357226               -0.21192055                0.15836952                1.36394743                0.30348716                0.07252433
               7.01338266                7.00452661               50.06350314                0.01000000               -0.34219810               -0.29072279                0.16662097                0.92545474                0.32916845                0.21817821
               8.01093367                7.00652176               50.06702682                0.01000000               -0.14950086               -0.41245890                0.17297570                0.48219331                0.29404161                0.38948861
               9.01039264                7.00646032               50.06990406                0.01000002               -0.03306655               -0.42099452                0.17833895                0.17655386                0.17957849                0.50681676
              10.01027234                7.00517148               50.07122592                0.01000000               -0.01203007               -0.08049774                0.18568376                0.04393725                0.09520855                0.53034366
               0.04949144                7.99184932               50.05227921                1.00000000               -0.03102588               -0.02790113                0.09376631                0.00066083               -0.00285790                0.01642693
               1.04918119                7.98627482               50.05243312                0.99999999               -0.03375954               -0.03380564                0.11265008                0.00023668               -0.00314779                0.00394405
               2.04881625                7.98071222               50.05258252                0.21321611               -0.03953828               -0.03977139                0.13136371               -0.00059009                0.00207184               -0.00777648
               3.04839042                7.97514515               50.05285208                0.01000001               -0.46336910               -0.37078112                0.16360491                1.15768087                0.09867138               -0.07539691
               4.03954887                7.98434420               50.05490566                0.01000001               -0.80858682               -0.24791093                0.14294861                1.84085543                0.23648319               -0.18972529
               5.03221868                7.99170057               50.05785499                0.01000000               -0.76355376               -0.01699818                0.14926092                1.43950399                0.39089139               -0.12878835
               6.02427780                7.99889888               50.06176094                0.01000000               -0.74792773                0.02451065                0.16417582                1.00120792                0.46847159                0.02598666
               7.01726013                8.00280781               50.06631548                0.01000000               -0.61153467               -0.03536496                0.17289649                0.44458855                0.51736877                0.18345048
               8.01204710                8.00335525               50.07159558                0.01000002               -0.37933794               -0.15129235                0.17727886               -0.07920783                0.48559034                0.37953236
               9.00967337                8.00275469               50.07575611                0.01000001               -0.15983312               -0.28459511                0.17692950               -0.41868897                0.32007477                0.81316346
              10.00885044                8.00468159               50.07785828                0.01000001               -0.08229294               -0.25483211                0.17970235               -0.31249936                0.20304982                0.73300934
               0.05510210                8.99156540               50.05311530                1.00000000               -0.03198143               -0.02888223                0.09695624                0.00065157                0.00293334                0.01626401
               1.05478229                8.98593169               50.05322386                0.99999999               -0.03482945               -0.03486457                0.11611577                0.00011093                0.00305904                0.00318813
               2.05440551                8.98030753               50.05333277                1.00000000               -0.04058396               -0.04082845                0.13555044               -0.00006408               -0.00141028               -0.00575332
               3.05397061                8.97469280               50.05336117                0.01540665               -0.24113261               -0.04619509                0.15517573                0.61392603                0.07137743               -0.02485573
               4.04958286                8.98136722               50.05494397                0.01000000               -0.82405476               -0.02709690                0.10670033                1.36083516                0.58202577               -0.30071619
               5.03748951                8.99307478               50.05877294                0.01000000               -1.14441534                0.25345743                0.17047457                1.03420992                0.61604632               -0.12482014
               6.02669455                9.00040041               50.06334697                0.01000000               -0.98357278                0.21075397                0.17571837                0.54066740                0.58959688                0.00627567
               7.01781806                9.00381931               50.06871350                0.01000002               -0.86459608                0.16112879                0.18073501                0.13053547                0.64225825                0.10984179
               8.00940263                9.00349591               50.07525052                0.01000007               -0.85627668                0.14491304                0.18063058               -0.28106154                0.90154053                0.25626315
               9.00069252                9.00076842               50.08619280                1.00000000               -0.46170367               -0.12550659                0.17553994               -0.58575527                0.55414895                0.53004858
              10.00016856                9.00007484               50.08604355                1.00000000               -0.05239653               -0.25619785                0.17353847               -0.46876860               -0.00041266                0.41663437
               0.06077189                9.99127167               50.05387472                1.00000000               -0.03306232               -0.02937255                0.10041548               -0.00243507                0.01371615                0.01299319
               1.06044127                9.98557753               50.05398177                1.00000000               -0.03590163               -0.03541604                0.11959574               -0.00290284                0.01820629                0.00150776
               2.06005386                9.97989565               50.05417135                0.99999994               -0.04160070               -0.04118848                0.13878569               -0.00297904                0.01840817               -0.00196284
               3.05960926                9.97422125               50.05428546                0.99999998               -0.58351329               -0.04715516                0.15780757                0.75919580                0.16882396               -0.00528145
               4.04838359                9.98380227               50.05749851                0.01000003               -1.28697826                0.24350481                0.17650857                1.00749683                0.73965881               -0.30404122
               5.03386969                9.99676972               50.06061946                0.01000001               -1.20184873                0.36949329                0.19876372                0.60360236                0.53000388               -0.02925295
               6.02434662               10.00311396               50.06482101                0.01000000               -0.85471774                0.27135458                0.19590666                0.22824016                0.53631499                0.01621863
               7.01677534               10.00603038               50.07006785                0.01000001               -0.74349292                0.22110754                0.19140869                0.05270570                0.64440593                0.06455088
               8.00947676               10.00625351               50.07728848                0.01000000               -0.76979964                0.27575976                0.18441559               -0.28187803                0.80598698                0.17863178
               9.00137934               10.00024456               50.08603712                0.99997192               -0.43072637               -0.05238584                0.17348271               -0.26611187                0.44532214                0.00042827
              10.00086223                9.99955763               50.08588786                1.00000000               -0.05171085               -0.05172027                0.17148100                0.00067503                0.00041199               -0.00041207
              -0.02343844                0.00318499               51.04036866                0.99159231               -0.02330449               -0.02177641                0.07144455                0.00242499               -0.00794765                0.00773196
               0.97632851                0.00056685               51.04288537                1.00000000               -0.02514339               -0.02567960                0.08399237                0.00201028               -0.00853272               -0.00142092
               1.97605869               -0.00204064               51.04539056                0.01000000               -0.00861833               -0.02962314                0.09652047                0.07597356               -0.05664077               -0.00363312
               2.97615614               -0.00315805               51.04694121                0.01000000               -0.02862938               -0.01648009                0.18319101                0.05421646               -0.10313062                0.02338429
               3.97548610               -0.00036061               51.04895216                0.01000000               -0.14920969                0.05208189                0.11138613                0.23368341               -0.10703421                0.03802720
               4.97317195                0.00787151               51.05024541                0.01001148               -0.50897230                0.11402144                0.10470595                0.62328125               -0.14004902               -0.01007637
               5.96530665                0.02506775               51.05066335                0.02184411               -0.50270852               -0.02766773                0.07445936                0.68492382                0.05115109               -0.06257389
               6.96311778                0.03083258               51.05406146                0.97293826               -0.12405971               -0.02920500                0.09365911                0.17356898                0.04591778               -0.00113979
               7.96282546                0.03317575               51.05656523                1.00000000               -0.03041738               -0.03169513                0.10164433                0.00123747                0.00178745                0.00008198
               8.96250943                0.03554254               51.05907694                1.00000000               -0.03278355               -0.03407458                0.10960470                0.00124403                0.00197143                0.00115634
               9.96216979                0.03793477               51.06157757                1.00000000               -0.03396434               -0.03657281                0.11760417                0.00001899                0.00190743                0.00305183
              -0.02079606                1.00296722               51.04075019                1.00000000               -0.02425117               -0.02219375                0.07456025                0.00052978                0.00131909                0.00817137
               0.97896143                1.00031006               51.04326782                0.12832276               -0.02615334               -0.02622504                0.08712285                0.00009342                0.00413564               -0.00431196
               1.97868087                0.99766313               51.04584309                0.01000000               -0.15515672               -0.02990967                0.09986952                0.08193684               -0.04720025               -0.03603495
               2.97585829                0.99667715               51.04733099                0.01000001               -0.31863592               -0.00156153                0.17628726                0.23222941               -0.15131092                0.06887905
               3.97230816                1.00016020               51.04967502                0.01000000               -0.45838574                0.04564236                0.12503804                0.53666923               -0.06816661                0.01425192
               4.96669058                1.00901172               51.05108020                0.01000000               -0.58163982                0.04204426                0.13551228                1.01860698               -0.12984699               -0.01650992
               5.96067536                1.02479108               51.05144430                0.01000001               -0.29455534               -0.33393082                0.14004614                1.04647473               -0.11829922               -0.01052770
               6.96079947                1.03054053               51.05353920                0.95718277               -0.00962515               -0.03036183                0.10150189                0.17279736               -0.01997258               -0.00117609
               7.96048286                1.03285880               51.05604561                0.99999999               -0.03285549               -0.03285232                0.10950798                0.00002652                0.00056961                0.00020544
               8.96014236                1.03520179               51.05855477                0.99999999               -0.03525541               -0.03524693                0.11751193                0.00001337                0.00036917                0.00170158
               9.95977775                1.03756904               51.06105747                0.99999999               -0.03646153               -0.03774939                0.12552573               -0.00119787                0.00017325                0.00459125
              -0.01811351                2.00274111               51.04114349                0.01000000               -0.02520082                0.04205353                0.07776861                0.05630048                0.00323377                0.09760537
               0.98163448                2.00004235               51.04359083                0.01000000               -0.02780775               -0.08153397                0.09013077                0.04532938               -0.01674128                0.07778192
               1.98133033                1.99736116               51.04564131                0.01000001               -0.16654118               -0.09249824                0.04376685                0.13714625                0.01074119                0.06684368
               2.97830365                1.99681072               51.04836236                0.01000000               -0.37227093               -0.04418786                0.13715302                0.51363114                0.00390607                0.08536156
               3.97388491                2.00055223               51.05049726                0.01000000               -0.46952168               -0.03438232                0.13828608                0.96804199               -0.05684789                0.02009163
               4.96891322                2.00871240               51.05198942                0.01000001               -0.45887826               -0.14135599                0.14044321                1.35002370               -0.09804658                0.00851296
               5.96470735                2.01838914               51.05314227                0.01000000               -0.52036061               -0.46612979                0.13972834                1.58675054               -0.19133221                0.06254419
               6.95850601                2.03022534               51.05301797                0.01000000               -0.32713089               -0.33748602                0.10932183                0.96369563               -0.13182291                0.12908813
               7.95816473                2.03251870               51.05552706                0.22982563               -0.03532752               -0.03504246                0.11737387                0.00002488               -0.00052968                0.00948823
               8.95779946                2.03483760               51.05803909                0.99999999               -0.03766974               -0.03755017                0.12544511                0.00008470               -0.00029639                0.00130248
               9.95741133                2.03717978               51.06056048                0.99999999               -0.03881235               -0.04013053                0.13345535               -0.00117770               -0.00004697                0.00470704
              -0.01427253                3.00380829               51.04331798                0.01000005               -0.04795061                0.10046666                0.08094246                0.05660015               -0.00863116                0.19309186
               0.98524797                2.99867938               51.04561468                0.01000001               -0.05360209               -0.16679128                0.08764225                0.17455071               -0.02713775                0.18814104
               1.98465543                2.99581316               51.04772853                0.01000000               -0.11540586               -0.22507785                0.11174398                0.43475422               -0.04723761                0.16904981
               2.98293985                2.99579339               51.04976726                0.01000000               -0.24440540               -0.18677574                0.11907532                0.84813573               -0.05122327                0.09708689
               3.97976732                2.99947256               51.05158764                0.01006403               -0.35428484               -0.19087189                0.13364840                1.27759713               -0.06486573                0.04692675
               4.97585415                3.00618460               51.05310631                0.01000000               -0.44349484               -0.27272112                0.14004285                1.63574275               -0.09984641                0.04198614
               5.97089742                3.01546848               51.05419836                0.01000001               -0.49551645               -0.34935091                0.13885905                1.74327962               -0.13977811                0.08605225
               6.96594382                3.02379081               51.05510928                0.01000001               -0.75131633               -0.52046644                0.13352138                1.81558484               -0.19427054                0.21386963
               7.95587110                3.03215795               51.05519822                0.01000000               -0.52304215               -0.36851153                0.12492340                1.44457032               -0.13310918                0.20354809
               8.95548298                3.03445079               51.05751127                0.01000000               -0.04006342               -0.43051981                0.13341190                1.08688710               -0.01172894                0.16493167
               9.95506983                3.03676643               51.06004170                0.99999998               -0.04131494               -0.95559209                0.14137978                1.27857496               -0.00142555                0.13516308
              -0.00672368                4.00475045               51.04531776                0.01000000               -0.01556976                0.03494419                0.08462480                0.19886797               -0.01660744                0.21265476
               0.99312062                3.99670653               51.04770432                0.01000000               -0.01824618               -0.25313987                0.08626471                0.43655248               -0.05166817                0.22980826
               1.99291140                3.99285961               51.04962443                0.01000000               -0.07568269               -0.33763557                0.10014503                0.85697046               -0.08703046                0.16645545
               2.99160697                3.99307521               51.05126152                0.01005969               -0.19328774               -0.32366725                0.11893539                1.22736892               -0.08451242                0.09271243
               3.98904564                3.99673480               51.05285162                0.01000000               -0.29874085               -0.32458930                0.13197015                1.57792657               -0.06792250                0.05295332
               4.98563215                4.00325797               51.05437890                0.01000001               -0.35394532               -0.34004762                0.14112664                1.83607088               -0.06453146                0.06296167
               5.98196674                4.01140212               51.05580770                0.01000001               -0.37519577               -0.42774235                0.14511873                2.01791496               -0.07233148                0.12600505
               6.97812824                4.01981601               51.05710067                0.01001408               -0.27852905               -0.49891800                0.14663004                2.01143692               -0.06755348                0.21619109
               7.97639616                4.02514847               51.05857386                0.01000468               -0.15997600               -0.70568692                0.15057062                2.09841070               -0.03987808                0.33720602
               8.97492872                4.02622720               51.06027743                0.01000000                0.09776968               -0.83968900                0.15436528                1.49154414               -0.01630181                0.32278097
               9.97835155                4.01806794               51.06215976                0.01000003                0.34228314               -1.36501115                0.16311946                1.12385200                0.00226861                0.25036509
               0.00579267                5.00450718               51.04730650                0.01000003                0.00771844               -0.14896124                0.07950681                0.34325029               -0.05660517                0.21932306
               1.00586985                4.99361658               51.04980313                0.01000000               -0.01832553               -0.32643690                0.06808929                0.71895092               -0.13484040                0.28007569
               2.00542616                4.98906045               51.05131548                0.01000001               -0.11289080               -0.40486196                0.09324355                1.19525513               -0.15650692                0.15434928
               3.00361204                4.98932005               51.05266759                0.01000000               -0.21415359               -0.42069170                0.11628706                1.55761147               -0.09242848                0.05288372
               4.00114309                4.99298077               51.05412764                0.01000001               -0.28518958               -0.38989893                0.13461965                1.78992013               -0.03920706                0.02924792
               4.99790825                4.99938365               51.05580864                0.01000001               -0.32227007               -0.39946271                0.14542287                1.95666896                0.00103546                0.05696691
               5.99469769                5.00691363               51.05765462                0.01000001               -0.27410185               -0.45542001                0.15220839                1.97895285                0.02627827                0.12991330
               6.99242621                5.01381245               51.05958210                0.01001332               -0.16347807               -0.58368427                0.15648665                1.87381584                0.04103225                0.23134854
               7.99142812                5.01804421               51.06155449                0.01000000               -0.00159071               -0.68721289                0.16188956                1.54770084                0.04467887                0.31537180
               8.99239439                5.01765701               51.06345042                0.01000000                0.12186363               -0.75860690                0.17108743                1.02386248                0.03131696                0.34466935
               9.99386540                5.00946620               51.06501929                0.01000000                0.14710017               -0.60701269                0.18261655                0.49250005                0.02121013                0.29196181
               0.02192252                6.00177122               51.04806992                0.01000001                0.10238472               -0.65216452                0.10220237                0.72928623               -0.24656231                0.53090776
               1.02294637                5.99017779               51.05144271                0.01000001               -0.04047459               -0.38815744                0.04400439                1.01925346               -0.26105224                0.28964569
               2.02111303                5.98476237               51.05282024                0.01000000               -0.20537469               -0.44044873                0.08248906                1.59801774               -0.14712993                0.01732781
               3.01883888                5.98466137               51.05372500                0.01000001               -0.31662947               -0.41969973                0.12398198                1.70614231               -0.05942540               -0.01756508
               4.01478044                5.98893682               51.05521716                0.01000001               -0.40031023               -0.40844458                0.14113132                1.90068130                0.02712414               -0.02463603
               5.01083267                5.99526872               51.05721158                0.01000001               -0.38317213               -0.37723825                0.15217537                1.90861209                0.09709395                0.01793755
               6.00711700                6.00229372               51.05962018                0.01000340               -0.31793462               -0.41093344                0.15993842                1.78265273                0.14780151                0.11054873
               7.00447398                6.00814233               51.06227938                0.01000000               -0.18056931               -0.49882387                0.16542247                1.48987818                0.16875456                0.23282211
               8.00350561                6.01140421               51.06491697                0.01000000               -0.02450045               -0.59146974                0.17071827                1.10596906                0.15163053                0.34153738
               9.00398397                6.01105506               51.06713300                0.01000000                0.05387698               -0.56729925                0.17935105                0.60894136                0.09271221                0.39970387
              10.00458315                6.00592768               51.06854521                0.01000000                0.05991821               -0.23055233                0.19143062                0.28727542                0.05230314                0.36614209
               0.04356526                6.99146389               51.05241122                0.93741991               -0.03014827               -0.52895053                0.09007553                0.80349513               -0.01264680                0.18966316
               1.04326378                6.98585343               51.05276404                0.85007933               -0.03311648               -0.23306695                0.11083498                0.73720887               -0.01426553                0.02919780
               2.04290293                6.98025147               51.05308858                0.01000000               -0.48516706               -0.24557896                0.13051641                1.12458840                0.02939021               -0.03210516
               3.03356043                6.98092605               51.05433003                0.01000001               -0.71767810               -0.52409962                0.14046997                1.69080944                0.05124707               -0.08230383
               4.02854937                6.98481188               51.05597974                0.01000783               -0.54184238               -0.34233691                0.14938563                1.77303536                0.11942711               -0.09641982
               5.02272359                6.99183889               51.05843004                0.01001672               -0.55361172               -0.29820293                0.16024815                1.78864924                0.22216332               -0.04923704
               6.01747713                6.99869496               51.06159451                0.01000000               -0.48051540               -0.24624528                0.16857945                1.47988947                0.30162978                0.07099132
               7.01311328                7.00383597               51.06520650                0.01000000               -0.34211815               -0.30770441                0.17457928                1.02731238                0.32536074                0.22230514
               8.01063477                7.00621481               51.06878380                0.01000000               -0.15317640               -0.41874732                0.17868314                0.55670159                0.28827809                0.39391216
               9.01004975                7.00631102               51.07170718                0.01000002               -0.03845532               -0.41814905                0.18319643                0.21719569                0.17519255                0.50597972
              10.00986566                7.00485516               51.07311162                0.01000000               -0.01840878               -0.06911509                0.19255382                0.06112188                0.09279381                0.52430658
               0.04921334                7.99119221               51.05321223                1.00000000               -0.03103783               -0.02757687                0.09280810                0.00051068               -0.00304516                0.01610428
               1.04890296                7.98551645               51.05356470                0.99999999               -0.03405811               -0.03408836                0.11363465                0.00017365               -0.00341950                0.00386004
               2.04853218                7.97985079               51.05390980                0.22750052               -0.04041504               -0.04063369                0.13414722               -0.00059588                0.00385102               -0.00705215
               3.04809466                7.97417938               51.05441927                0.01000000               -0.46019302               -0.36060651                0.15679167                1.12314634                0.08653752               -0.06789711
               4.03932832                7.98209008               51.05643931                0.01001546               -0.76860429               -0.39379191                0.15952532                1.93207349                0.22879287               -0.21874677
               5.03272257                7.98930466               51.05945616                0.01000000               -0.73053045               -0.08227656                0.17113741                1.59146401                0.38746208               -0.12532859
               6.02471771                7.99736881               51.06348293                0.01000000               -0.76110977                0.00590313                0.18009374                1.13934547                0.46628041                0.02666706
               7.01750038                8.00198824               51.06809804                0.01000000               -0.62765567               -0.04229257                0.18356802                0.54077121                0.51247771                0.18726784
               8.01216459                8.00302927               51.07339540                0.01000002               -0.39064194               -0.15119927                0.18349942               -0.01408024                0.47918026                0.38426775
               9.00968754                8.00269208               51.07756400                0.01000000               -0.17236387               -0.26861638                0.18332854               -0.38430812                0.31259893                0.80695422
              10.00871732                8.00454538               51.07971244                0.01000001               -0.09702234               -0.23092581                0.18778330               -0.29177089                0.19742883                0.71833900
               0.05492699                8.99091235               51.05407753                1.00000000               -0.03183234               -0.02839198                0.09544783                0.00056424                0.00293979                0.01601190
               1.05460867                8.98517166               51.05438714                0.99999999               -0.03494569               -0.03495441                0.11649007                0.00011728                0.00320140                0.00314300
               2.05422808                8.97943880               51.05469864                1.00000000               -0.04122997               -0.04147745                0.13767220               -0.00002889               -0.00101934               -0.00538606
               3.05378407                8.97371392               51.05493141                0.01929460               -0.10812618               -0.04743479                0.15900815                0.44696500                0.04730810               -0.02607889
               4.05206556                8.97693604               51.05622790                0.01000000               -0.72549687               -0.20278204                0.15568363                1.46473307                0.42381883               -0.28983192
               5.03927413                8.99019336               51.06072573                0.01000000               -1.22425463                0.24882481                0.20330547                1.22007040                0.58688256               -0.13528219
               6.02758046                8.99881303               51.06520606                0.01000000               -1.05029419                0.21491145                0.19190523                0.64772149                0.56888007                0.00723369
               7.01826825                9.00299012               51.07057455                0.01000002               -0.89655710                0.16397301                0.19166613                0.19028267                0.63100704                0.11339902
               8.00964932                9.00319083               51.07709786                0.01000007               -0.87103885                0.14705944                0.18780290               -0.23609956                0.88987623                0.25894625
               9.00084747                9.00093869               51.08794801                1.00000000               -0.46628384               -0.11386418                0.17550806               -0.55494284                0.55054324                0.52842462
              10.00032364                9.00023664               51.08777868                1.00000000               -0.05238278               -0.24129554                0.17348680               -0.45479016               -0.00041716                0.41168477
               0.06070600                9.99062437               51.05486845                1.00000000               -0.03271411               -0.02879793                0.09829778               -0.00280074                0.01370528                0.01287770
               1.06037885                9.98481736               51.05517687                0.99999999               -0.03583286               -0.03543028                0.11939687               -0.00313811                0.01820328                0.00149708
               2.05998934                9.97902124               51.05556808                0.99999999               -0.04210682               -0.04175618                0.14054019               -0.00320794                0.01830947               -0.00192798
               3.05953672                9.97323068               51.05588289                0.98362678               -0.39228966               -0.04832395                0.16160551                0.52592467                0.17757839               -0.00530018
               4.05214355                9.97803444               51.05947558                0.01005431               -1.21448602                0.10983952                0.23138957                1.06032253                0.65308004               -0.26193631
               5.03524700                9.99428116               51.06276697                0.01000001               -1.36340851                0.40878002                0.20230251                0.77891661                0.47589763               -0.07115816
               6.02487538               10.00166704               51.06684843                0.01000000               -0.91593836                0.28540146                0.20367484                0.27881828                0.49535455                0.01513079
               7.01692823               10.00526770               51.07201712                0.01000001               -0.76906742                0.22775807                0.19647726                0.08116875                0.62108020                0.06679677
               8.00949403               10.00597045               51.07916628                0.01000000               -0.76926809                0.27796264                0.18912683               -0.25817450                0.78612353                0.17774318
               9.00154287               10.00041480               51.08777220                0.99999999               -0.42342054               -0.05238958                0.17353632               -0.24300955                0.43919131                0.00042898
              10.00102562                9.99971947               51.08760287                1.00000000               -0.05172528               -0.05171714                0.17151506                0.00066442                0.00041415               -0.00041382
              -0.02609805                0.00286564               52.04108474                0.99181482               -0.02329498               -0.02193172                0.07177670                0.00239255               -0.00804854                0.00776338
               0.97366900                0.00015436               52.04372344                1.00000000               -0.02502665               -0.02560693                0.08359542                0.00189691               -0.00861327               -0.00149123
               1.97340142               -0.00254542               52.04635055                0.01178726               -0.00539443               -0.02927064                0.09539090                0.07521972               -0.03387031               -0.00362868
               2.97356111               -0.00376623               52.04847935                0.01000000               -0.01451966                0.00075511                0.12203056                0.09084589               -0.06775709               -0.01753089
               3.97311103               -0.00098182               52.05007673                0.01000000               -0.12439607                0.04135841                0.11711576                0.21486897               -0.08652323                0.01218699
               4.97107319                0.00667951               52.05132093                0.01000000               -0.44608778                0.10331478                0.11363973                0.56559688               -0.11864683               -0.01910954
               5.96418927                0.02308948               52.05144609                0.01654432               -0.52436818               -0.01603453                0.09918020                0.65037353                0.12163473               -0.12814726
               6.96058583                0.03130415               52.05499656                0.97242485               -0.19469552               -0.02929409                0.09337192                0.29568348                0.04960784               -0.00113891
               7.96029536                0.03365676               52.05757761                1.00000000               -0.03015207               -0.03162698                0.10083712                0.00116302                0.00170668                0.00006296
               8.95998279                0.03603671               52.06016635                1.00000000               -0.03236396               -0.03385221                0.10827351                0.00117947                0.00190551                0.00115089
               9.95964808                0.03844571               52.06274447                1.00000000               -0.03347071               -0.03618394                0.11576652               -0.00023021                0.00186461                0.00303539
              -0.02336284                1.00264632               52.04149917                1.00000000               -0.02436598               -0.02241267                0.07524208                0.00062116                0.00134983                0.00822528
               0.97639350                0.99989829               52.04413882                0.01000000               -0.02616230               -0.02622550                0.08710188                0.00013938                0.00417265               -0.00443290
               1.97611391                0.99716188               52.04683706                0.01000000               -0.13528629               -0.00769102                0.09903375                0.10429251               -0.02400837               -0.08623268
               2.97368777                0.99624132               52.04891087                0.01000001               -0.30385349                0.00252442                0.14011903                0.21473240               -0.02910185                0.02243111
               3.97003684                0.99943177               52.05093723                0.01000000               -0.44971294                0.03620899                0.12770104                0.49588153               -0.03697806                0.00182074
               4.96469351                1.00771266               52.05247762                0.01000000               -0.58280774                0.04526895                0.13737606                0.95569055               -0.06738530               -0.04752529
               5.95838069                1.02292913               52.05295746                0.01000001               -0.32172444               -0.28377473                0.15636762                1.07001047               -0.06236816               -0.09746621
               6.95825903                1.03101121               52.05455833                0.95191911               -0.02199902               -0.03061357                0.10232262                0.28904801               -0.04855058               -0.00118969
               7.95794071                1.03334049               52.05714225                0.99999999               -0.03294606               -0.03294401                0.10981491                0.00002964                0.00056758                0.00018272
               8.95760010                1.03569819               52.05972895                0.99999999               -0.03519651               -0.03519373                0.11732074                0.00002375                0.00037892                0.00170401
               9.95723678                1.03808387               52.06230934                0.99999999               -0.03633266               -0.03752645                0.12484523               -0.00135858                0.00018671                0.00459310
              -0.02058956                2.00241739               52.04192599                0.01000001               -0.02542077                0.04914612                0.07873313                0.05420190                0.00327492                0.09645394
               0.97915623                1.99962985               52.04449401                0.01000000               -0.01331001               -0.07307000                0.09055696                0.06048038               -0.06678646                0.07292136
               1.97914424                1.99730076               52.04566517                0.01000001               -0.17851810               -0.09064426                0.12532299                0.12758075               -0.05320902                0.03247576
               2.97558587                1.99628425               52.04999217                0.01000000               -0.37934635               -0.05109349                0.13468141                0.46260016                0.03201890                0.03891961
               3.97155731                1.99974236               52.05184818                0.01000000               -0.44481166               -0.03945134                0.13121848                0.93392012               -0.05657866                0.00456558
               4.96668964                2.00758489               52.05339606                0.01000001               -0.46331905               -0.12072839                0.13456644                1.32588449               -0.07716511               -0.03121361
               5.96229093                2.01741398               52.05454502                0.01000000               -0.53671009               -0.40166113                0.13338052                1.65951960               -0.20753202                0.01637085
               6.95595544                2.03069188               52.05412087                0.01000000               -0.33409820               -0.35870192                0.11124115                1.03910042               -0.15062725                0.13678588
               7.95560897                2.03299788               52.05670797                0.24144021               -0.03577805               -0.03549379                0.11879322               -0.00003055               -0.00043158                0.00938338
               8.95523988                2.03533284               52.05929823                0.99999995               -0.03797137               -0.03784084                0.12638155                0.00005894               -0.00023577                0.00132264
               9.95484954                2.03769519               52.06189745                0.99999999               -0.03903339               -0.04024844                0.13393741               -0.00134658               -0.00002205                0.00474932
              -0.01670373                3.00362924               52.04411035                0.01000005               -0.05765437                0.11928172                0.07996716                0.04789361               -0.01153560                0.18874917
               0.98271973                2.99843689               52.04645757                0.01000001               -0.06425751               -0.14287770                0.08739395                0.15250033               -0.01257080                0.17234711
               1.98201112                2.99534899               52.04896817                0.01000000               -0.11107759               -0.23656480                0.10407708                0.39758987               -0.02793653                0.18134461
               2.98049818                2.99521945               52.05091781                0.01000000               -0.22982562               -0.19254785                0.11797278                0.84380567               -0.05352161                0.04517379
               3.97741461                2.99864274               52.05291847                0.01006742               -0.34792962               -0.19117322                0.12758404                1.26566428               -0.05659567                0.02313800
               4.97353958                3.00529809               52.05448829                0.01000000               -0.44752569               -0.25609974                0.13359772                1.65164760               -0.09992288                0.02188726
               5.96846409                3.01489591               52.05557580                0.01000001               -0.50412208               -0.32681559                0.13425539                1.80420158               -0.14777808                0.07221392
               6.96345714                3.02383717               52.05645032                0.01000001               -0.75824800               -0.54949696                0.13398444                1.88992003               -0.20845548                0.22293880
               7.95329913                3.03263061               52.05646150                0.01000000               -0.52765837               -0.38416424                0.12793684                1.49273516               -0.14072829                0.21205219
               8.95290397                3.03494137               52.05885563                0.01000000               -0.04069914               -0.44412470                0.13546644                1.11681084               -0.01161792                0.17194886
               9.95248515                3.03727891               52.06146373                0.99999997               -0.04188225               -0.98199536                0.14303440                1.31358069               -0.00148509                0.14328144
              -0.00924698                4.00480302               52.04614390                0.01000000               -0.02665325                0.06890381                0.08251708                0.16696269               -0.01361343                0.18759148
               0.99048649                3.99677229               52.04849029                0.01000000               -0.02197720               -0.22858096                0.07859498                0.39422468               -0.03346295                0.17604714
               1.99031348                3.99256947               52.05052667                0.01000000               -0.06591278               -0.33208754                0.09248804                0.82285162               -0.05453050                0.11452709
               2.98916824                3.99243330               52.05241602                0.01006179               -0.17607626               -0.33286749                0.11194318                1.20951100               -0.05676586                0.06880496
               3.98679195                3.99591890               52.05414105                0.01000000               -0.28494074               -0.33044264                0.12655299                1.58869414               -0.05779177                0.03832654
               4.98346942                4.00246290               52.05577448                0.01000001               -0.34780331               -0.34025300                0.13682471                1.87641789               -0.06343146                0.05527878
               5.97983589                4.01087767               52.05725367                0.01000001               -0.37251418               -0.43125255                0.14299347                2.08953565               -0.07770181                0.12506296
               6.97601914                4.01970194               52.05857403                0.01003155               -0.27382109               -0.51609295                0.14716508                2.09009082               -0.07387132                0.22180028
               7.97435947                4.02531459               52.06009399                0.01000001               -0.15456698               -0.73112946                0.15340072                2.16617118               -0.04518644                0.35029393
               8.97292780                4.02645034               52.06184707                0.01000000                0.10433125               -0.86434592                0.15941132                1.53675532               -0.01858786                0.33359720
               9.97644609                4.01805528               52.06382789                0.01000000                0.35182940               -1.40534094                0.17010686                1.15769135                0.00102520                0.26802301
               0.00269698                5.00500732               52.04796176                0.01000003                0.01407962               -0.15980261                0.08601431                0.32723530               -0.03073666                0.20583184
               1.00283777                4.99386527               52.05026698                0.01000000                0.00550867               -0.35997113                0.06357912                0.70428439               -0.05083166                0.15921882
               2.00280715                4.98870724               52.05214863                0.01000001               -0.07494044               -0.41875279                0.08554637                1.16501153               -0.06410010                0.09637779
               3.00133896                4.98856210               52.05376478                0.01000000               -0.18241287               -0.44151294                0.11065534                1.56151435               -0.05326510                0.04339593
               3.99915889                4.99203389               52.05545053                0.01000001               -0.26148978               -0.40916506                0.13142878                1.82061704               -0.02363928                0.02763296
               4.99610917                4.99849303               52.05725911                0.01000001               -0.30715628               -0.41797521                0.14462287                2.01561305                0.00236865                0.05911022
               5.99301577                5.00627086               52.05918337                0.01000001               -0.26435644               -0.47346490                0.15289626                2.05926644                0.02049487                0.13548601
               6.99082204                5.01351531               52.06116261                0.01003457               -0.15708078               -0.60238154                0.15846165                1.95794619                0.03169796                0.23914207
               7.98987415                5.01800802               52.06319024                0.01000000                0.00381776               -0.70543647                0.16461835                1.61478118                0.03503020                0.32616957
               8.99089839                5.01765446               52.06517696                0.01000000                0.12774800               -0.77692234                0.17452758                1.06271410                0.02532577                0.35321815
               9.99242911                5.00917209               52.06688059                0.01000000                0.15307166               -0.62666134                0.18943294                0.51024083                0.01732949                0.30299242
               0.01958183                6.00160697               52.05002396                0.01000003                0.12904261               -0.71164736                0.16115625                0.81080795               -0.00774278                0.24679547
               1.02087226                5.98957287               52.05191536                0.01000001               -0.03324744               -0.43977468                0.07354069                1.12137303               -0.00624991                0.11882222
               2.01891688                5.98419441               52.05348776                0.01000000               -0.19001908               -0.46679726                0.08394568                1.67662361               -0.04076347                0.04155702
               3.01707188                5.98360304               52.05493099                0.01000001               -0.28217607               -0.43970123                0.12176177                1.73924867               -0.01410631               -0.00716695
               4.01327336                5.98773560               52.05663077                0.01000001               -0.37635825               -0.44294998                0.14281201                1.94755767                0.03721937               -0.01705411
               5.00954471                5.99410339               52.05875374                0.01000001               -0.36372105               -0.41538028                0.15670090                1.98231073                0.09574112                0.02738225
               6.00599894                6.00140837               52.06124825                0.01002183               -0.30519055               -0.44017942                0.16488904                1.87844590                0.13982920                0.12240035
               7.00344090                6.00765431               52.06395949                0.01000000               -0.17414980               -0.51806299                0.17001309                1.58380126                0.15730991                0.24493519
               8.00251594                6.01120586               52.06664930                0.01000000               -0.02114424               -0.60432244                0.17491609                1.17909978                0.14132674                0.35255989
               9.00301801                6.01091190               52.06895179                0.01000000                0.05498508               -0.57527707                0.18361715                0.64932318                0.08606696                0.40528859
              10.00361565                6.00552205               52.07049606                0.01000000                0.05976307               -0.23408548                0.19833655                0.30552619                0.04779686                0.36822960
               0.04298133                6.99077437               52.05331002                0.93762196               -0.03035392               -0.55509346                0.08969427                0.88672903               -0.01275380                0.13542837
               1.04267779                6.98506978               52.05388065                0.82635065               -0.03359365               -0.24219763                0.11247458                0.80699442               -0.01497668                0.06000307
               2.04230945                6.97937130               52.05441091                0.01000000               -0.50475190               -0.26166508                0.13390922                1.19100566                0.02153924               -0.00025020
               3.03258275                6.97976807               52.05572674                0.01000001               -0.73498811               -0.52086066                0.14264478                1.71616886                0.04841032               -0.06307095
               4.02760969                6.98317489               52.05749605                0.01002893               -0.52500721               -0.40072422                0.16044503                1.81159164                0.11801527               -0.08661826
               5.02208261                6.99018543               52.06008927                0.01003400               -0.52879609               -0.36025437                0.17177777                1.88359880                0.21736200               -0.03441591
               6.01703377                6.99746727               52.06333608                0.01000000               -0.46910147               -0.27938541                0.17936537                1.59656047                0.28934282                0.08962073
               7.01270058                7.00315405               52.06699472                0.01000000               -0.34176074               -0.32345937                0.18197440                1.13053087                0.31076200                0.23848439
               8.01019856                7.00592157               52.07060049                0.01000000               -0.15659537               -0.42396582                0.18362570                0.63218355                0.27490117                0.40512187
               9.00956867                7.00614891               52.07356798                0.01000002               -0.04396144               -0.41294754                0.18783980                0.25795485                0.16636273                0.50883018
              10.00931933                7.00449038               52.07507699                0.01000000               -0.02493425               -0.05703700                0.19925453                0.07847038                0.08751563                0.51848464
               0.04872561                7.99050510               52.05413538                1.00000000               -0.03103841               -0.02724768                0.09180759                0.00039931               -0.00318473                0.01580916
               1.04841522                7.98472892               52.05470581                0.99999999               -0.03434536               -0.03436989                0.11458571                0.00017130               -0.00372041                0.00373835
               2.04803870                7.97896111               52.05526547                0.24095487               -0.04117808               -0.04148831                0.13699739               -0.00058492                0.00330872               -0.00632939
               3.04759166                7.97318583               52.05598791                0.01000000               -0.44754290               -0.35302319                0.15873419                1.07823821                0.07968573               -0.05968463
               4.03908784                7.97972111               52.05809617                0.01000001               -0.73336780               -0.53202902                0.16726320                1.91838508                0.21615453               -0.22472801
               5.03292430                7.98689830               52.06127774                0.01000000               -0.70631572               -0.15635471                0.19683507                1.71329746                0.37539586               -0.10108145
               6.02496153                7.99582067               52.06536281                0.01000000               -0.76635441               -0.01438447                0.19372900                1.27381921                0.44514793                0.04840861
               7.01759722                8.00118512               52.06998684                0.01000000               -0.63983879               -0.04929203                0.19294984                0.63758475                0.49248894                0.20414474
               8.01216475                8.00272655               52.07526557                0.01000002               -0.39944542               -0.15088066                0.18914572                0.05479825                0.46304749                0.39468238
               9.00960831                8.00265295               52.07942268                0.01000004               -0.18313117               -0.25101057                0.18695793               -0.34456697                0.30304872                0.80495416
              10.00850213                8.00438131               52.08161394                0.01000001               -0.11061807               -0.20361352                0.19164328               -0.26818656                0.19250254                0.70412681
               0.05454167                8.99022942               52.05502426                1.00000000               -0.03164708               -0.02788526                0.09385515                0.00047326                0.00292958                0.01578427
               1.05422520                8.98438238               52.05555366                0.99999999               -0.03504117               -0.03504520                0.11681024                0.00012935                0.00327803                0.00310620
               2.05384085                8.97854153               52.05608622                1.00000000               -0.04188455               -0.04214545                0.13987884                0.00002821               -0.00081360               -0.00504211
               3.05338751                8.97270761               52.05654133                0.02322759               -0.07879672               -0.04867613                0.16308406                0.28272211                0.04743728               -0.02532952
               4.05226491                8.97253431               52.05805764                0.01000000               -0.65692540               -0.38264731                0.29935225                1.49119988                0.38118459               -0.33409079
               5.04024900                8.98705833               52.06283905                0.01000000               -1.20207872                0.21828915                0.20180851                1.38678806                0.54985505               -0.12243157
               6.02822334                8.99717958               52.06718508                0.01000000               -1.08513052                0.21555744                0.20653263                0.75759556                0.52755253                0.02331579
               7.01854639                9.00216821               52.07254682                0.01000002               -0.91983238                0.16480292                0.19955023                0.25031285                0.60641965                0.12453299
               8.00982669                9.00290396               52.07900657                0.01000000               -0.87619137                0.14724957                0.19258061               -0.18800554                0.86972999                0.26544428
               9.00102257                9.00112870               52.08970296                1.00000000               -0.46639133               -0.10240993                0.17548646               -0.51837893                0.54386887                0.52420666
              10.00049887                9.00041811               52.08951328                0.99999997               -0.05236988               -0.22401611                0.17343120               -0.43570623               -0.00042152                0.40430079
               0.06042915                9.98994739               52.05584068                1.00000000               -0.03234560               -0.02820262                0.09609809               -0.00318981                0.01371498                0.01276694
               1.06010570                9.98402801               52.05636970                0.99998190               -0.03575609               -0.03543632                0.11914177               -0.00341007                0.01826953                0.00150966
               2.05971403                9.97811820               52.05698215                0.99999998               -0.04261867               -0.04233290                0.14225125               -0.00346741                0.01839412               -0.00187144
               3.05925332                9.97221230               52.05751757                0.99999995               -0.25764582               -0.04953064                0.16533286                0.28407959                0.21742661               -0.00541347
               4.05456111                9.97206817               52.06212630                0.01000000               -1.16192661               -0.04661408                0.20985519                1.18220922                0.70727438               -0.21718013
               5.03601479                9.99126409               52.06466551                0.01000001               -1.47787773                0.42057554                0.19815053                0.97976120                0.39761029               -0.08928726
               6.02500356               10.00013182               52.06889451                0.01000000               -0.95678481                0.29522330                0.20060237                0.33887644                0.46144657                0.02570167
               7.01687910               10.00448118               52.07399740                0.01000001               -0.77797075                0.23129680                0.19744794                0.11025637                0.59278453                0.07030142
               8.00944415               10.00567154               52.08107102                0.01000000               -0.75762568                0.27675775                0.19026350               -0.23207623                0.76670908                0.17788203
               9.00172658               10.00060475               52.08950785                0.99999997               -0.41174757               -0.05239551                0.17359397               -0.21812577                0.43175468                0.00043001
              10.00120919                9.99990099               52.08931816                0.99999996               -0.05173879               -0.05171179                0.17153872                0.00065687                0.00041613               -0.00041589
              -0.02887681                0.00251140               53.04180419                0.99240737               -0.02327576               -0.02209133                0.07210090                0.00233009               -0.00812674                0.00772831
               0.97089044               -0.00029374               53.04455728                1.00000000               -0.02489103               -0.02554352                0.08316797                0.00177373               -0.00870189               -0.00149621
               1.97062537               -0.00308624               53.04729837                0.01000001                0.00921956               -0.02899091                0.09420744                0.07642987               -0.04193463               -0.00351181
               2.97107483               -0.00437171               53.04938183                0.01000000                0.01443409               -0.00153364                0.10642409                0.07254299               -0.05649578                0.01422896
               3.97091406               -0.00183789               53.05129447                0.01000000               -0.08225882                0.02630507                0.11587350                0.18616158               -0.06947884                0.00229799
               4.96942965                0.00517594               53.05251821                0.01000000               -0.34251720                0.08101432                0.11642092                0.45529658               -0.09218960               -0.01072244
               5.96406371                0.01948206               53.05264695                0.01137253               -0.57256160                0.02607646                0.13754598                0.65387274                0.17777947               -0.18983107
               6.95797842                0.03168626               53.05592890                0.97199347               -0.31869513               -0.02938311                0.09310153                0.49480862                0.03250057               -0.00111372
               7.95768981                0.03404772               53.05858197                1.00000000               -0.02988702               -0.03156328                0.10004530                0.00108358                0.00159954                0.00004223
               8.95738068                0.03644036               53.06124241                0.99991565               -0.03194846               -0.03363668                0.10695632                0.00111773                0.00179176                0.00114274
               9.95705084                0.03886573               53.06389290                1.00000000               -0.03298396               -0.03578132                0.11393118               -0.00047708                0.00177503                0.00298621
              -0.02604837                1.00229048               53.04225504                0.99999999               -0.02446430               -0.02261952                0.07592298                0.00067075                0.00137432                0.00818667
               0.97370699                0.99945082               53.04500986                0.01000000               -0.02614877               -0.02621149                0.08704267                0.00012489                0.00424176               -0.00444220
               1.97342866                0.99662385               53.04782377                0.01000000               -0.12654533               -0.05170969                0.09817716                0.01523726               -0.01787435               -0.01327082
               2.97117608                0.99561295               53.05013337                0.01000001               -0.27134063               -0.00230546                0.12146251                0.17437464               -0.04063033                0.00655650
               3.96800185                0.99842516               53.05222904                0.01000000               -0.39267204                0.02500981                0.11682819                0.44042582               -0.02268283               -0.01373593
               4.96332264                1.00598608               53.05382772                0.01000000               -0.53272838                0.04507586                0.11913319                0.82805468               -0.01360113               -0.06372591
               5.95734728                1.01974282               53.05457165                0.01000001               -0.38394843               -0.16919201                0.14030913                1.05872670                0.02951457               -0.16789145
               6.95564368                1.03139243               53.05558565                0.94658063               -0.10118418               -0.03085899                0.10313378                0.46706770               -0.08148261               -0.00117587
               7.95532360                1.03373209               53.05824191                0.99999999               -0.03304126               -0.03303017                0.11012101                0.00002469                0.00059175                0.00016067
               8.95498285                1.03610399               53.06090119                0.99999999               -0.03514507               -0.03514972                0.11714500                0.00002066                0.00040378                0.00169163
               9.95462069                1.03850792               53.06355437                1.00000000               -0.03621563               -0.03726788                0.12415935               -0.00152682                0.00020341                0.00458239
              -0.02318407                2.00205901               53.04271815                0.01001420               -0.02563663                0.05374387                0.07973923                0.05483657                0.00336157                0.09534250
               0.97655957                1.99918203               53.04540197                0.01000000               -0.10239691               -0.06603941                0.09088914                0.01261513                0.00626177                0.07094816
               1.97476799                1.99587957               53.04814777                0.01000001               -0.18992751               -0.10226508                0.19474402                0.13039767               -0.05593456                0.00217946
               2.97276102                1.99558218               53.05105599                0.01000000               -0.27092754               -0.06699642                0.10454657                0.47628823               -0.01119529                0.01785152
               3.96934944                1.99866231               53.05312163                0.01000000               -0.40439652               -0.03913531                0.11688995                0.87791783               -0.04006574               -0.01582553
               4.96467308                2.00607745               53.05468074                0.01000001               -0.47587713               -0.08710727                0.11863437                1.26558161               -0.06711119               -0.05620234
               5.95983190                2.01609822               53.05580988                0.01000000               -0.56712871               -0.27693558                0.11484971                1.68120892               -0.22542258               -0.01219266
               6.95333051                2.03106908               53.05524279                0.01000000               -0.34265801               -0.37980024                0.11310753                1.12671156               -0.16124241                0.14291001
               7.95297874                2.03338711               53.05790292                0.25331348               -0.03626251               -0.03595582                0.12020273               -0.00020488               -0.00024982                0.00963669
               8.95260526                2.03573736               53.06056672                0.99999994               -0.03831466               -0.03815362                0.12733997               -0.00006003               -0.00015155                0.00130513
               9.95221245                2.03812037               53.06323923                0.99999999               -0.03928138               -0.04031476                0.13437576               -0.00153693                0.00001056                0.00483332
              -0.01919768                3.00336536               53.04491733                0.01005375               -0.06635908                0.12959287                0.08115661                0.05123398               -0.00755943                0.18202773
               0.98013873                2.99813004               53.04736256                0.01000001               -0.05829292               -0.13819863                0.09295991                0.13611113               -0.01285905                0.15372881
               1.97963646                2.99457855               53.04981007                0.01000000               -0.11098095               -0.19549412                0.09281967                0.46350296               -0.00872614                0.09772393
               2.97791911                2.99427302               53.05212671                0.01000000               -0.22857690               -0.19889216                0.11518409                0.85800797               -0.03363050                0.03059533
               3.97506493                2.99764245               53.05413933                0.01007058               -0.33603739               -0.18465191                0.11692479                1.25764070               -0.05142071                0.01036641
               4.97119837                3.00424393               53.05577826                0.01000000               -0.45425464               -0.22423654                0.12280450                1.65697391               -0.10011881                0.01655561
               5.96597983                3.01420411               53.05688347                0.01000001               -0.51546781               -0.29012041                0.12664386                1.86668675               -0.15047986                0.07422033
               6.96088901                3.02379642               53.05778897                0.01000001               -0.76643103               -0.57646793                0.13327770                1.96444172               -0.21660728                0.23335695
               7.95065121                3.03301297               53.05775696                0.01000000               -0.53203091               -0.39807493                0.13191318                1.53925706               -0.14664366                0.21999503
               8.95024839                3.03534092               53.06022060                0.01000000               -0.04136407               -0.45797709                0.13758935                1.14532299               -0.01196236                0.17972322
               9.94982393                3.03770162               53.06290238                0.99876499               -0.04244591               -1.00544191                0.14465328                1.34596984               -0.00161220                0.15338448
              -0.01168874                4.00465087               53.04696810                0.01000000               -0.02426668                0.06891982                0.08580728                0.16497771               -0.00703071                0.18079075
               0.98806860                3.99641806               53.04927622                0.01000000               -0.02080986               -0.23770709                0.08427877                0.39232209               -0.01167332                0.14093802
               1.98789507                3.99196969               53.05147419                0.01000000               -0.06056622               -0.32758190                0.09552771                0.80980876               -0.02456429                0.09408106
               2.98685727                3.99160433               53.05350038                0.01006640               -0.16818615               -0.33000121                0.10864367                1.21626513               -0.03401243                0.05208776
               3.98453134                3.99496927               53.05538268                0.01000000               -0.28031829               -0.32993742                0.12208848                1.60497138               -0.04584367                0.03585212
               4.98125091                4.00159272               53.05711539                0.01000001               -0.34590978               -0.33286662                0.13121517                1.91754779               -0.06110504                0.06002642
               5.97761315                4.01029581               53.05866757                0.01000001               -0.37202106               -0.42876719                0.13893622                2.15856208               -0.08117159                0.13415728
               6.97381049                4.01953972               53.06004397                0.01005298               -0.26968816               -0.52932955                0.14586289                2.16470498               -0.07801693                0.23128306
               7.97221938                4.02542562               53.06164187                0.01001602               -0.14937097               -0.75003414                0.15480364                2.22506355               -0.04943169                0.36313254
               8.97082307                4.02657782               53.06346566                0.01000000                0.10955234               -0.88621291                0.16364649                1.57740394               -0.02160854                0.34593496
               9.97441043                4.01801154               53.06556190                0.01000001                0.35873653               -1.44218721                0.17704166                1.19241074               -0.00173756                0.28907186
               0.00056749                5.00474376               53.04902679                0.01000000                0.00988575               -0.16459956                0.10296196                0.34689359               -0.00211736                0.18605126
               1.00066635                4.99337589               53.05107471                0.01000000                0.00394340               -0.37387464                0.08920810                0.72860642               -0.00825945                0.12619189
               2.00064636                4.98802691               53.05302641                0.01000001               -0.07107582               -0.43192272                0.09571058                1.18420847               -0.01868026                0.07700553
               2.99924484                4.98767300               53.05488070                0.01000000               -0.17351985               -0.45241331                0.11424168                1.57866265               -0.02015494                0.04262321
               3.99717597                4.99104371               53.05675621                0.01000001               -0.25110275               -0.42095252                0.13085423                1.85421706               -0.00918482                0.03730168
               4.99422278                4.99758660               53.05870109                0.01000001               -0.29859428               -0.43032567                0.14347527                2.07320847                0.00374161                0.07450133
               5.99120408                5.00562877               53.06071254                0.01000000               -0.25847395               -0.48533989                0.15183968                2.13589539                0.01345952                0.15199482
               6.98905330                5.01320983               53.06275134                0.01000001               -0.15448485               -0.61653991                0.15772276                2.03960797                0.02024803                0.25386791
               7.98811438                5.01801229               53.06484686                0.01000000                0.00786245               -0.71902283                0.16457995                1.67636486                0.02289247                0.34053228
               8.98921055                5.01761666               53.06694097                0.01000000                0.13451663               -0.79040053                0.17705909                1.09405399                0.01866381                0.36232116
               9.99080472                5.00885788               53.06880795                0.01000000                0.15941649               -0.64578293                0.19584932                0.52612735                0.01339795                0.31604225
               0.01798487                6.00135887               53.05129304                0.01000002                0.13727040               -0.73413623                0.11531090                0.83824003                0.00223790                0.22447865
               1.01935757                5.98894056               53.05291353                0.01000001               -0.03513663               -0.45564270                0.10425106                1.15846809                0.00780098                0.12867162
               2.01728213                5.98333123               53.05449915                0.01000000               -0.19719174               -0.47790755                0.10922230                1.72283818               -0.00017753                0.04973844
               3.01541373                5.98255607               53.05616023                0.01000001               -0.27900262               -0.45326441                0.12784617                1.77088237                0.01260698                0.01202174
               4.01170208                5.98655022               53.05807340                0.01000001               -0.36418593               -0.47147932                0.14709565                1.99006620                0.04776297                0.00914446
               5.00813002                5.99298621               53.06034560                0.01000000               -0.34971263               -0.44800170                0.16046692                2.05234021                0.09213014                0.05487131
               6.00470783                6.00058901               53.06291796                0.01000001               -0.29554453               -0.46279736                0.16703501                1.96885806                0.12660111                0.14987217
               7.00221913                6.00720892               53.06567964                0.01000000               -0.16839871               -0.53157616                0.17108333                1.67334814                0.14050983                0.26674381
               8.00133985                6.01104516               53.06841529                0.01000000               -0.01802858               -0.61556518                0.17618658                1.25030193                0.12650722                0.36872241
               9.00185855                6.01076981               53.07080534                0.01000000                0.05553428               -0.57999625                0.18564330                0.68703321                0.07653978                0.41352157
              10.00245054                6.00509588               53.07251194                0.01000000                0.05919852               -0.23754538                0.20388059                0.32226888                0.04211465                0.37215646
               0.04216892                6.99006103               53.05420511                0.93864070               -0.03055608               -0.57823606                0.08933413                0.92139618               -0.01279811                0.11555651
               1.04186335                6.98426304               53.05501353                0.80112023               -0.03406466               -0.25111801                0.11410889                0.83743113               -0.01576273                0.06563823
               2.04148762                6.97846876               53.05576676                0.01000000               -0.52099281               -0.26411725                0.13722588                1.21893920                0.01389827                0.01648302
               3.03144350                6.97860771               53.05718292                0.01000001               -0.74702371               -0.51924844                0.14904091                1.72946451                0.05033835               -0.03946814
               4.02654715                6.98161412               53.05918864                0.01004720               -0.51063535               -0.47581450                0.17016992                1.83391803                0.11708063               -0.05760606
               5.02123079                6.98862657               53.06186560                0.01000001               -0.50943088               -0.42264788                0.18283088                1.97962659                0.20254566                0.01335472
               6.01635853                6.99637282               53.06518181                0.01000000               -0.45833377               -0.30505100                0.18552382                1.70777359                0.26560731                0.12766490
               7.01206412                7.00257831               53.06884599                0.01000000               -0.33994988               -0.33449417                0.18536912                1.22782172                0.28561235                0.26637455
               8.00955953                7.00570098               53.07245632                0.01000003               -0.15818092               -0.42641677                0.18557944                0.70441405                0.25393120                0.42254690
               9.00890050                7.00601673               53.07546398                0.01000002               -0.04807875               -0.40568086                0.18965889                0.29737900                0.15359465                0.51459176
              10.00859796                7.00410697               53.07709672                0.01000000               -0.03025397               -0.04521246                0.20342768                0.09573864                0.08020234                0.51327318
               0.04800878                7.98979415               53.05504838                1.00000000               -0.03103152               -0.02691506                0.09078721                0.00029805               -0.00331911                0.01550058
               1.04769846                7.98391820               53.05585641                0.99999999               -0.03462650               -0.03465731                0.11553672                0.00018261               -0.00404803                0.00357798
               2.04731625                7.97804889               53.05664975                0.25323505               -0.04203967               -0.04237467                0.13987225               -0.00052933                0.00219926               -0.00555204
               3.04685767                7.97217110               53.05759395                0.01000000               -0.44773327               -0.34650183                0.16335224                1.01514680                0.07088461               -0.05183674
               4.03836158                7.97703393               53.05978458                0.01002266               -0.69469102               -0.76950113                0.20659431                1.96032689                0.21542352               -0.07473877
               5.03296385                7.98453325               53.06339286                0.01000000               -0.67250107               -0.21348085                0.20750676                1.86835344                0.34951170               -0.04878781
               6.02491156                7.99448799               53.06735751                0.01000000               -0.77582261               -0.03125878                0.20330077                1.40254969                0.39981252                0.09357701
               7.01744740                8.00051904               53.07195704                0.01000003               -0.64609265               -0.05540424                0.19792138                0.72699307                0.45980258                0.23133823
               8.01198971                8.00251682               53.07717832                0.01000002               -0.40236254               -0.15033584                0.19124125                0.12327036                0.43877482                0.41144991
               9.00940015                8.00265619               53.08130316                0.01000002               -0.19024350               -0.23395381                0.18757918               -0.30037766                0.28943358                0.80364202
              10.00818484                8.00419163               53.08354531                0.01000001               -0.12153080               -0.17442660                0.19369859               -0.24162625                0.18622190                0.68732075
               0.05392677                8.98952273               53.05595463                0.99997885               -0.03145030               -0.02736411                0.09219038                0.00038946                0.00290400                0.01555018
               1.05361227                8.98356989               53.05672334                0.99999999               -0.03513171               -0.03513637                0.11712047                0.00014219                0.00331690                0.00307177
               2.05322414                8.97762127               53.05749622                1.00000000               -0.04254382               -0.04284750                0.14214673                0.00004407               -0.00065974               -0.00469971
               3.05276140                8.97167767               53.05819310                0.07406313                0.00836964               -0.05005840                0.16731733                0.02431305                0.16080088               -0.02416197
               4.05339153                8.96622410               53.06221494                0.01000000               -0.58087992               -0.57402077                0.24989844                1.67293956                0.29277096               -0.19964925
               5.04114380                8.98435695               53.06476190                0.01000000               -1.24838970                0.21546151                0.22014154                1.64953448                0.37594075               -0.05962214
               6.02842374                8.99574764               53.06933671                0.01000000               -1.12843262                0.21371064                0.21180281                0.84870651                0.48257090                0.05131830
               7.01857514                9.00147022               53.07456555                0.01000002               -0.92679771                0.16267687                0.20266130                0.30533186                0.56773604                0.14172019
               8.00988779                9.00269427               53.08094947                0.01000000               -0.86785017                0.14411887                0.19383717               -0.14022565                0.84410706                0.27502322
               9.00121814                9.00133766               53.09145774                1.00000000               -0.45966117               -0.09212862                0.17547461               -0.47725749                0.53549745                0.51885238
              10.00069456                9.00061844               53.09124731                1.00000000               -0.05235794               -0.20451148                0.17337149               -0.41049827               -0.00042587                0.39535647
               0.05992225                9.98924687               53.05679041                1.00000000               -0.03194765               -0.02758625                0.09380166               -0.00359233                0.01372654                0.01265194
               1.05960277                9.98321548               53.05755970                0.99999999               -0.03564474               -0.03544175                0.11883483               -0.00369688                0.01835894                0.00153777
               2.05920935                9.97719194               53.05841311                0.99999999               -0.04308326               -0.04293324                0.14393027               -0.00375624                0.01857837               -0.00179610
               3.05874110                9.97116993               53.05918954                0.99999999               -0.00341276               -0.05077415                0.16904293                0.01604956                0.19932323               -0.00552918
               4.05914110                9.96555351               53.06367269                0.01000000               -1.11550558               -0.06705849                0.11090525                1.45858377                0.52631903               -0.24953619
               5.03643099                9.98884248               53.06672998                0.01000001               -1.71843376                0.44855312                0.20336071                1.18915413                0.34329804               -0.02711279
               6.02477242                9.99876220               53.07086048                0.01000000               -0.99117902                0.30145605                0.19364011                0.38137270                0.41622308                0.03151607
               7.01660741               10.00377257               53.07596608                0.01000001               -0.77273304                0.23023524                0.19443378                0.13507661                0.56692387                0.07707828
               8.00931776               10.00539920               53.08297155                0.01000000               -0.73382943                0.27049360                0.18886428               -0.20495031                0.74751079                0.17799812
               9.00193082               10.00081362               53.09124408                0.99999999               -0.39522248               -0.05240379                0.17365569               -0.19362199                0.42457917                0.00043113
              10.00141331               10.00010140               53.09103364                0.99999995               -0.05175132               -0.05170407                0.17155258                0.00065266                0.00041819               -0.00041793
              -0.03176675                0.00211852               54.04252676                0.99325287               -0.02324645               -0.02224242                0.07239726                0.00224896               -0.00815371                0.00769734
               0.96800078               -0.00078074               54.04538680                1.00000000               -0.02475340               -0.02545141                0.08271408                0.00163389               -0.00872741               -0.00150921
               1.96773818               -0.00366644               54.04823470                0.01000000                0.02171595               -0.02864928                0.09301681                0.07927298               -0.03281883               -0.00351545
               2.96843510               -0.00498475               54.05060783                0.01000005                0.04234453               -0.03169630                0.13621472                0.04655099               -0.08299212               -0.01203158
               3.96858507               -0.00280500               54.05239420                0.01000000               -0.02790913                0.01348905                0.10004133                0.17191668               -0.08240009               -0.00706057
               4.96787692                0.00384604               54.05364934                0.01000000               -0.21254528                0.04295638                0.11051997                0.33261986               -0.09047101               -0.00318917
               5.96433416                0.01544346               54.05419701                0.01000002               -0.62880481                0.09649172                0.15922862                0.69400479                0.08741965               -0.12180907
               6.95530082                0.03196837               54.05685859                0.97157843               -0.46601617               -0.02945702                0.09282596                0.71054212               -0.00191613               -0.00110498
               7.95501384                0.03433772               54.05957851                1.00000000               -0.02965626               -0.03149755                0.09928335                0.00099884                0.00148787                0.00005666
               8.95470770                0.03674202               54.06230547                1.00000000               -0.03156155               -0.03343003                0.10565178                0.00104066                0.00162815                0.00113047
               9.95438261                0.03918249               54.06502309                1.00000000               -0.03250880               -0.03532986                0.11207271               -0.00076530                0.00159673                0.00277331
              -0.02884501                1.00189609               54.04301763                1.00000000               -0.02453903               -0.02282872                0.07657731                0.00070490                0.00137973                0.00816272
               0.97090960                0.99896475               54.04587967                0.01000000               -0.02610378               -0.02615758                0.08690692                0.00010213                0.00425221               -0.00445250
               1.97063292                0.99604707               54.04880060                0.01000000               -0.12198547               -0.04877543                0.09722169                0.01834481               -0.01171508                0.00649670
               2.96846989                0.99469829               54.05134012                0.01000001               -0.23720367               -0.01836534                0.11708805                0.16179127               -0.02182752               -0.01323348
               3.96588884                0.99732989               54.05327380                0.01000000               -0.31955031                0.01602865                0.09739233                0.40617433               -0.04301955               -0.01775471
               4.96207888                1.00427560               54.05486028                0.01000000               -0.43378983                0.03321314                0.09356625                0.69303707               -0.04051447               -0.04179010
               5.95721304                1.01640838               54.05576365                0.01000001               -0.45598857               -0.02925732                0.10625801                1.01422361               -0.02030502               -0.09566837
               6.95295911                1.03167380               54.05662101                0.94082899               -0.22880191               -0.03108047                0.10388199                0.64755440               -0.09255476               -0.00115320
               7.95263701                1.03402275               54.05934467                0.99999999               -0.03316968               -0.03310816                0.11047138                0.00000576                0.00071466                0.00017337
               8.95229572                1.03640772               54.06207185                0.99999999               -0.03512636               -0.03512444                0.11703109               -0.00003551                0.00046130                0.00169294
               9.95193448                1.03882919               54.06479253                0.99999995               -0.03612401               -0.03693277                0.12339193               -0.00174567                0.00021692                0.00439200
              -0.02588997                2.00166194               54.04352077                0.01000001               -0.02581813                0.05618779                0.08075883                0.05839794                0.00335671                0.09399394
               0.97385185                1.99869611               54.04631179                0.01000000               -0.08692482               -0.06637645                0.09108622                0.01781541                0.02603415                0.07116391
               1.97237154                1.99535805               54.04956005                0.01000001               -0.17318744               -0.10350092                0.12312019                0.11956810                0.03645545                0.03915761
               2.97038810                1.99464794               54.05208310                0.01000000               -0.26201484               -0.06556658                0.10159031                0.45919712               -0.01324240                0.00554305
               3.96713124                1.99751557               54.05418598                0.01000000               -0.38644673               -0.03704314                0.10221492                0.83540828               -0.04440935               -0.00825095
               4.96265917                2.00451030               54.05576875                0.01000001               -0.49554018               -0.05405233                0.10273820                1.20284641               -0.08577247               -0.03042910
               5.95722044                2.01485832               54.05684201                0.01000000               -0.60108130               -0.14428762                0.09937702                1.65336040               -0.22947241                0.01500984
               6.95063754                2.03134676               54.05638302                0.01000000               -0.34701974               -0.39853374                0.11486344                1.20548160               -0.15883645                0.14704709
               7.95028004                2.03367556               54.05911202                0.26582683               -0.03685003               -0.03655927                0.12166865               -0.00048083                0.00016405                0.01105401
               8.94990054                2.03603953               54.06184503                0.99999997               -0.03876514               -0.03854089                0.12843347               -0.00040707               -0.00001703                0.00131263
               9.94950474                2.03844384               54.06458497                0.99999999               -0.03958028               -0.04026361                0.13462064               -0.00182595               -0.00000026                0.00480402
              -0.02174539                3.00301985               54.04573349                0.01000000               -0.06848112                0.13237138                0.08448278                0.05604439                0.00151623                0.18063829
               0.97756980                2.99763722               54.04831677                0.01000001               -0.05910836               -0.14086029                0.09528346                0.14261400               -0.00230337                0.14050035
               1.97707245                2.99397705               54.05082456                0.01000000               -0.10367450               -0.20616482                0.10269482                0.44881128               -0.00817673                0.07872779
               2.97549631                2.99338696               54.05322149                0.01000000               -0.21688984               -0.19634371                0.10741886                0.84016903               -0.02156085                0.03818376
               3.97273465                2.99658903               54.05525697                0.01007435               -0.33516219               -0.17482578                0.10948599                1.24682164               -0.05209761                0.01982695
               4.96879307                3.00319456               54.05694438                0.01000000               -0.46454285               -0.18848553                0.11305816                1.66184306               -0.10312919                0.03427335
               5.96344379                3.01352263               54.05810868                0.01000001               -0.52707832               -0.25632885                0.11971904                1.92860073               -0.15047399                0.09689158
               6.95825150                3.02370313               54.05911587                0.01000001               -0.77545830               -0.59907677                0.13276961                2.03079431               -0.21679786                0.24508153
               7.94793463                3.03329156               54.05909977                0.01000000               -0.53660996               -0.40941071                0.13881418                1.58014352               -0.15047257                0.22669863
               8.94751930                3.03563690               54.06160742                0.01000000               -0.04226428               -0.46954261                0.14001700                1.17037079               -0.01340604                0.18758522
               9.94708934                3.03802392               54.06435680                0.99999997               -0.04299618               -1.02563428                0.14596019                1.37440849               -0.00181476                0.16576871
              -0.01400382                4.00430937               54.04786005                0.01000000               -0.02492460                0.06917789                0.09060437                0.17216235               -0.00114077                0.17814054
               0.98574693                3.99587891               54.05017587                0.01000000               -0.01990761               -0.24427107                0.09380396                0.40142742               -0.00404691                0.12963267
               1.98559803                3.99123475               54.05243722                0.01000000               -0.05837144               -0.33773276                0.10015719                0.81986372               -0.01063489                0.08762207
               2.98457950                3.99072107               54.05458889                0.01006964               -0.16689774               -0.33161206                0.11013275                1.22470254               -0.02281586                0.05446548
               3.98226007                3.99401906               54.05658282                0.01000000               -0.28085384               -0.32499146                0.11907505                1.62198368               -0.04058362                0.04924384
               4.97896243                4.00074059               54.05839878                0.01000001               -0.34880962               -0.32208519                0.12626012                1.95736422               -0.06263193                0.07880281
               5.97528388                4.00973174               54.06003239                0.01000001               -0.37389671               -0.42311334                0.13360619                2.22077794               -0.08573695                0.15304721
               6.97148449                4.01936523               54.06149129                0.01007295               -0.26673692               -0.53730660                0.14180443                2.22983964               -0.08326875                0.24285914
               7.96994914                4.02548735               54.06319006                0.01007135               -0.14544474               -0.76231582                0.15233504                2.27455945               -0.05391883                0.37233951
               8.96857560                4.02664867               54.06512000                0.01000000                0.11348597               -0.90378495                0.16651366                1.61175404               -0.02367623                0.35790329
               9.97221886                4.01793115               54.06736872                0.01000000                0.36432618               -1.47405161                0.18642013                1.22193627               -0.00504690                0.31468312
              -0.00144121                5.00440341               54.05002100                0.01000000                0.01141770               -0.16955738                0.09717209                0.35431110               -0.00105448                0.18501504
               0.99867297                4.99275180               54.05205115                0.01000000                0.00343835               -0.38357097                0.10067086                0.74471076               -0.00048230                0.12649787
               1.99862756                4.98722239               54.05406284                0.01000001               -0.07334534               -0.43929628                0.10778048                1.20357570               -0.00442044                0.08069287
               2.99720606                4.98675471               54.05604961                0.01000000               -0.17363782               -0.45899111                0.11944442                1.60185339               -0.00663495                0.05511840
               3.99515480                4.99008920               54.05806762                0.01000001               -0.24891958               -0.42664996                0.13179246                1.88906590               -0.00332706                0.05892229
               4.99222767                4.99675285               54.06012862                0.01000001               -0.29600431               -0.43521392                0.14154647                2.12757437                0.00008012                0.10131962
               5.98923471                5.00506036               54.06222016                0.01000627               -0.25674903               -0.48975957                0.14808031                2.20585912                0.00186009                0.17734917
               6.98709269                5.01295700               54.06431707                0.01000000               -0.15461734               -0.62353494                0.15314815                2.11270786                0.00523569                0.27314997
               7.98614237                5.01804525               54.06648183                0.01000000                0.01089452               -0.72582481                0.15990699                1.72877257                0.00996713                0.35356351
               8.98731058                5.01756120               54.06871814                0.01000000                0.14103725               -0.79946761                0.17534299                1.11871022                0.01169712                0.37304324
               9.98896311                5.00854289               54.07079758                0.01000000                0.16525343               -0.66273690                0.20170610                0.53946274                0.00991330                0.33074364
               0.01638562                6.00091822               54.05233017                0.01000000                0.14365451               -0.75366215                0.10020351                0.85641313               -0.00023189                0.20598879
               1.01782216                5.98820749               54.05400038                0.01000001               -0.03594962               -0.46560711                0.11003697                1.18292601                0.00511287                0.13134760
               2.01566663                5.98244883               54.05567220                0.01000000               -0.20361979               -0.48360156                0.12079087                1.75621129                0.00623638                0.06677977
               3.01374977                5.98154125               54.05748791                0.01000001               -0.28116867               -0.46048638                0.13562374                1.79994014                0.02250584                0.03563729
               4.01004325                5.98548606               54.05957269                0.01000001               -0.36035082               -0.48888023                0.15040863                2.03044479                0.05029453                0.04363813
               5.00654275                5.99203631               54.06196307                0.01000300               -0.34231664               -0.46737970                0.16128778                2.11815862                0.08173994                0.09726048
               6.00319692                5.99993655               54.06458895                0.01000001               -0.28944927               -0.47396712                0.16504455                2.04945137                0.10597454                0.18677455
               7.00075377                6.00689453               54.06738116                0.01000000               -0.16382651               -0.53764245                0.16668127                1.75399675                0.11653419                0.29723709
               7.99992039                6.01097085               54.07017304                0.01000000               -0.01508024               -0.62178792                0.17243260                1.31408104                0.10567260                0.38955083
               9.00045216                6.01065932               54.07266465                0.01000003                0.05621724               -0.58091326                0.18392891                0.71975741                0.06378928                0.42469324
              10.00104473                6.00467641               54.07457367                0.01000000                0.05925732               -0.24102075                0.20770064                0.33644821                0.03514377                0.37811243
               0.04110853                6.98933016               54.05509670                0.94039235               -0.03076442               -0.59263182                0.08901318                0.94382649               -0.01278666                0.10742546
               1.04080088                6.98343966               54.05616283                0.77420825               -0.03452518               -0.25584125                0.11574933                0.85654623               -0.01667721                0.06799855
               2.04041802                6.97755036               54.05715542                0.01000000               -0.53166239               -0.26641077                0.14036547                1.23919211                0.00694005                0.02728799
               3.03016763                6.97754499               54.05870756                0.01000001               -0.75746959               -0.52011634                0.15385346                1.74429947                0.04989631               -0.01314032
               4.02526863                6.98031159               54.06089945                0.01006359               -0.50136426               -0.51430089                0.17447507                1.87072115                0.11413677                0.01787259
               5.02014035                6.98740526               54.06374588                0.01000000               -0.49515525               -0.45050348                0.18585045                2.05341377                0.18124004                0.07266336
               6.01536553                6.99558102               54.06704656                0.01000000               -0.45010140               -0.31996191                0.18465828                1.79977851                0.23198858                0.17819513
               7.01113832                7.00220415               54.07070211                0.01000000               -0.33531657               -0.34011034                0.18314382                1.31235843                0.25366145                0.30359737
               8.00865919                7.00560949               54.07431207                0.01002587               -0.15690789               -0.42542316                0.18296287                0.77062622                0.22681111                0.44531544
               9.00800016                7.00594293               54.07736116                0.01000002               -0.05006497               -0.39636492                0.18743618                0.33454056                0.13652550                0.52280465
              10.00765789                7.00372247               54.07914555                0.01000000               -0.03422686               -0.03496395                0.20487962                0.11283040                0.07086493                0.50823234
               0.04704316                7.98906559               54.05595112                1.00000000               -0.03102722               -0.02658845                0.08977920                0.00019748               -0.00343894                0.01515493
               1.04673289                7.98309066               54.05701654                0.99999999               -0.03490124               -0.03495686                0.11650378                0.00020493               -0.00439084                0.00342102
               2.04634514                7.97712061               54.05806291                0.26438035               -0.04291827               -0.04330921                0.14276971               -0.00059304                0.00139033               -0.00456428
               3.04587453                7.97113892               54.05925496                0.01000000               -0.43738671               -0.34581027                0.16990742                0.98982975                0.09639503               -0.04455600
               4.03759740                7.97520004               54.06222806                0.01007664               -0.67664625               -0.78291901                0.21424235                1.90851086                0.20567112               -0.02746360
               5.03234160                7.98302624               54.06542787                0.01000000               -0.66019010               -0.24382424                0.20261046                1.94214866                0.27663976                0.05090490
               6.02439360                7.99353731               54.06942883                0.01000000               -0.76845676               -0.04390198                0.20370055                1.48858323                0.35119771                0.14536385
               7.01697247                8.00009232               54.07394527                0.01002657               -0.63997378               -0.06052869                0.19706958                0.80375525                0.41815621                0.26627996
               8.01159413                8.00246239               54.07909040                0.01000002               -0.39712396               -0.14991490                0.18923602                0.18985780                0.40854801                0.43235182
               9.00902999                8.00273202               54.08317426                0.01000002               -0.19259332               -0.21890556                0.18507251               -0.25253680                0.27285479                0.80468973
              10.00774226                8.00397713               54.08548791                0.01000001               -0.12877261               -0.14427855                0.19347600               -0.21282312                0.17962331                0.66968351
               0.05306233                8.98879839               54.05686807                1.00000000               -0.03123719               -0.02683537                0.09047427                0.00030886                0.00285773                0.01526203
               1.05274995                8.98274052               54.05789607                0.99999999               -0.03522115               -0.03523048                0.11741981                0.00015330                0.00333025                0.00305542
               2.05235790                8.97668418               54.05892915                1.00000000               -0.04325758               -0.04360586                0.14447024               -0.00005591               -0.00051902               -0.00430880
               3.05188480                8.97062878               54.05988768                0.09294428               -0.04031892               -0.05150484                0.17174743                0.00373598                0.10515594               -0.02334061
               4.05155152                8.96465321               54.06305561                0.01000000               -0.56193759               -0.55190424                0.14064502                1.59248249                0.21519415               -0.02672315
               5.04064605                8.98252877               54.06724188                0.01000000               -1.17402067                0.18797216                0.21724546                1.67005617                0.33218361                0.02317381
               6.02807111                8.99470298               54.07142113                0.01000003               -1.11788507                0.20886402                0.20671928                0.90815599                0.40855214                0.08459800
               7.01828835                9.00099357               54.07660005                0.01000002               -0.91272319                0.15646858                0.20079436                0.35211257                0.52925766                0.16215567
               8.00981665                9.00261119               54.08288332                0.01000001               -0.84268347                0.13624801                0.19170577               -0.09532614                0.81593492                0.28724019
               9.00143468                9.00156482               54.09321245                1.00000000               -0.44527180               -0.08456726                0.17547198               -0.43240998                0.52760254                0.51392775
              10.00091121                9.00083690               54.09298071                0.99999999               -0.05234684               -0.18285860                0.17330763               -0.37798268               -0.00043005                0.38578406
               0.05916509                9.98852888               54.05771671                1.00000000               -0.03149168               -0.02695156                0.09139131               -0.00400624                0.01365433                0.01247586
               1.05885017                9.98238605               54.05874640                0.99999999               -0.03546665               -0.03544675                0.11844644               -0.00399717                0.01838447                0.00157910
               2.05845576                9.97624850               54.05986076                1.00000000               -0.04349826               -0.04356815                0.14553192               -0.00407593                0.01879774               -0.00169186
               3.05798021                9.97010882               54.06089843                0.99999997               -0.04543485               -0.05199579                0.17270647                0.00521359                0.13474710               -0.00570710
               4.05754706                9.96416195               54.06434441                0.01000001               -1.11436262               -0.04912583                0.12844635                1.43339680                0.26296845               -0.01776249
               5.03569296                9.98678569               54.06873272                0.01000001               -1.67275693                0.42569127                0.17791814                1.18232243                0.31564527               -0.00496365
               6.02409192                9.99771459               54.07276731                0.01000000               -0.97932257                0.30116114                0.18691587                0.42388149                0.37207147                0.04610993
               7.01610651               10.00322169               54.07788607                0.01000001               -0.74877847                0.22281211                0.18923161                0.15545343                0.54432134                0.08410375
               8.00911635               10.00518735               54.08484831                0.01000000               -0.69752161                0.25761569                0.18575193               -0.17908015                0.73207224                0.17949781
               9.00215607               10.00104068               54.09298096                0.99999999               -0.37389547               -0.05241435                0.17372152               -0.17122993                0.41865157                0.00043233
              10.00163844               10.00031996               54.09274921                0.99999994               -0.05176295               -0.05169411                0.17155717                0.00065158                0.00042014               -0.00041997
              -0.03475995                0.00168361               55.04325214                0.99418646               -0.02320980               -0.02238762                0.07267001                0.00218048               -0.00815189                0.00767906
               0.96500795               -0.00130968               55.04621156                0.99999882               -0.02460400               -0.02535422                0.08222843                0.00151333               -0.00872632               -0.00151932
               1.96474797               -0.00428835               55.04915871                0.01736901                0.01237705               -0.02832067                0.09177527                0.06023223               -0.00906281               -0.00350324
               2.96525549               -0.00607693               55.05210612                0.01000000                0.07382851               -0.00500628                0.07717611                0.12858753               -0.08908620               -0.05044511
               3.96622454               -0.00373831               55.05329530                0.01000000                0.02809648                0.00165833                0.09959486                0.17803615               -0.11844139                0.00169434
               4.96581742                0.00269028               55.05472860                0.01006696               -0.18108410                0.03405899                0.11019363                0.30305387               -0.10342833                0.00100495
               5.96260286                0.01391260               55.05583153                0.01000000               -0.66294131                0.12718506                0.15033889                0.73021172               -0.06095160               -0.01452658
               6.95255859                0.03213933               55.05778542                0.97114301               -0.51650846               -0.02943914                0.09262426                0.79549309               -0.04033015               -0.00126741
               7.95227269                0.03451653               55.06056764                1.00000000               -0.02949660               -0.03144954                0.09852297                0.00098134                0.00141540                0.00001059
               8.95196866                0.03693022               55.06335545                0.99998036               -0.03125738               -0.03319266                0.10443362                0.00084530                0.00137243                0.00113326
               9.95164754                0.03938233               55.06613435                1.00000000               -0.03211230               -0.03484437                0.11040220               -0.00117621                0.00123660                0.00227703
              -0.03174486                1.00145973               55.04378658                1.00000000               -0.02460770               -0.02302871                0.07720432                0.00075322                0.00138058                0.00815100
               0.96800906                0.99843678               55.04674800                0.01000000               -0.02606128               -0.02610525                0.08676121                0.00008657                0.00425060               -0.00445993
               1.96773391                0.99542844               55.04976820                0.01000000               -0.08713604               -0.05364418                0.09630885                0.02070307               -0.00832194                0.00845095
               2.96626634                0.99387301               55.05247513                0.01000001               -0.20563096               -0.00557001                0.08914928                0.17322903               -0.02667250               -0.02994315
               3.96362129                0.99627828               55.05417689                0.01000000               -0.31219174                0.01262107                0.09492668                0.38544640               -0.08287952               -0.00060823
               4.96002251                1.00303087               55.05569904                0.01000000               -0.42204222                0.03472480                0.08995954                0.66951794               -0.10785755               -0.00181257
               5.95518045                1.01518445               55.05669681                0.01000001               -0.49054748                0.00703915                0.09999077                1.04196957               -0.14106946                0.01649094
               6.95021156                1.03184493               55.05766329                0.93376533               -0.26466989               -0.03120832                0.10445035                0.71713824               -0.09002665               -0.00137028
               7.94988705                1.03420204               55.06045134                0.99999999               -0.03336691               -0.03317184                0.11082294                0.00003443                0.00098976                0.00038344
               8.94954422                1.03659829               55.06324181                0.99999999               -0.03516906               -0.03510909                0.11687991               -0.00024203                0.00052097                0.00188679
               9.94918367                1.03903388               55.06602221                0.99995569               -0.03605479               -0.03650717                0.12251599               -0.00218990                0.00011520                0.00370555
              -0.02869898                2.00122303               55.04433333                0.01000001               -0.02600474                0.05895617                0.08174444                0.06506526                0.00335889                0.09485835
               0.97104097                1.99816821               55.04722370                0.01000000               -0.07876102               -0.06804046                0.09129827                0.02041284                0.02797945                0.07095025
               1.96972580                1.99463876               55.05061017                0.01000001               -0.15853690               -0.10762524                0.10015721                0.12388780                0.02220745                0.03326872
               2.96787023                1.99381167               55.05308779                0.01000000               -0.24750969               -0.06710505                0.10132516                0.43322521               -0.03287165                0.00792720
               3.96477560                1.99651412               55.05516593                0.01000000               -0.37843125               -0.03180598                0.09767850                0.81259483               -0.06723732                0.01483711
               4.96030161                2.00338478               55.05673551                0.01000001               -0.50737105               -0.03657500                0.09841581                1.19004160               -0.12020463                0.02183051
               5.95462818                2.01405338               55.05779742                0.01000000               -0.62089190               -0.11164433                0.10028447                1.68743973               -0.22764980                0.06436924
               6.94788377                2.03151516               55.05754006                0.01000000               -0.35540840               -0.41275757                0.11623537                1.25750609               -0.15120473                0.14980784
               7.94752001                2.03385310               55.06033630                0.28032570               -0.03758958               -0.03665689                0.12348326               -0.00119807                0.00107719                0.01582349
               8.94713198                2.03622804               55.06313539                1.00000000               -0.03937256               -0.03903251                0.12994362               -0.00109472                0.00021611                0.00187456
               9.94673256                2.03865218               55.06593164                0.99999999               -0.03994141               -0.04003193                0.13427221               -0.00232493               -0.00012433                0.00401914
              -0.02433392                3.00263885               55.04660698                0.01000000               -0.06644927                0.13515642                0.08756954                0.06150058                0.00369530                0.18194059
               0.97500159                2.99707597               55.04926823                0.01000001               -0.05489337               -0.14459397                0.09519745                0.15032975                0.00229587                0.13767967
               1.97456821                2.99327593               55.05186397                0.01000000               -0.09730478               -0.20774566                0.10272149                0.44992462               -0.00540806                0.07136573
               2.97305549                2.99253091               55.05427509                0.01000000               -0.21340636               -0.19730751                0.10509654                0.83756758               -0.02767397                0.04707648
               3.97030009                2.99564216               55.05632905                0.01007821               -0.33857095               -0.16853096                0.10769226                1.24513186               -0.06356376                0.04120103
               4.96628407                3.00229937               55.05803942                0.01000000               -0.47506120               -0.17001189                0.11014915                1.67782471               -0.11214759                0.06421237
               5.96079886                3.01295156               55.05927785                0.01000001               -0.53610548               -0.24040573                0.11566485                1.97340666               -0.15248238                0.12526217
               6.95556196                3.02358978               55.06044436                0.01000001               -0.78243255               -0.61597290                0.13110461                2.08105032               -0.21086563                0.25461606
               7.94515021                3.03346890               55.06053324                0.01000000               -0.54193622               -0.41813798                0.15403642                1.61100707               -0.14752395                0.22610671
               8.94472324                3.03581764               55.06302094                0.01000000               -0.04306633               -0.48014367                0.14347661                1.19016264               -0.01705487                0.19490990
               9.94428888                3.03823324               55.06582159                1.00000000               -0.04343550               -1.03938843                0.14617706                1.39553513               -0.00200094                0.18229749
              -0.01634320                4.00392616               55.04878019                0.01000000               -0.02463173                0.06675396                0.09214124                0.17601936               -0.00139066                0.17666380
               0.98341048                3.99527633               55.05115230                0.01000000               -0.01937251               -0.24973117                0.09928949                0.40854843               -0.00319515                0.12897185
               1.98326935                3.99048385               55.05347734                0.01000000               -0.05775614               -0.34350724                0.10590477                0.82902312               -0.00981999                0.09025929
               2.98225536                3.98986552               55.05570304                0.01007283               -0.16797860               -0.33272806                0.11268883                1.23557599               -0.02345964                0.06625846
               3.97990978                3.99314350               55.05776418                0.01000000               -0.28533315               -0.32049379                0.11860764                1.64246750               -0.04497444                0.07018489
               4.97654870                3.99998454               55.05964059                0.01000001               -0.35519375               -0.31253326                0.12363839                1.99447669               -0.07155000                0.10475698
               5.97280590                4.00924527               55.06133969                0.01000001               -0.37806299               -0.41661883                0.12790197                2.27325657               -0.09788932                0.17574571
               6.96898744                4.01919570               55.06288006                0.01009381               -0.26468043               -0.54034101                0.13339913                2.27897257               -0.09772142                0.25316107
               7.96751229                4.02549034               55.06468857                0.01012890               -0.14082749               -0.76841588                0.14278055                2.30959545               -0.06737650                0.37100269
               8.96617089                4.02662517               55.06679593                0.01000000                0.11498855               -0.91423837                0.16583283                1.63897922               -0.03195304                0.37929170
               9.96981207                4.01786441               55.06929030                0.01000000                0.36411780               -1.49827236                0.19885799                1.25168585               -0.01090129                0.34835820
              -0.00351388                5.00397393               55.05097023                0.01000000                0.01287475               -0.17616044                0.09512589                0.35989216               -0.00210001                0.17995723
               0.99661487                4.99208134               55.05308813                0.01000000                0.00366853               -0.39102511                0.10545459                0.75695860               -0.00208807                0.13011946
               1.99655949                4.98640579               55.05518202                0.01000001               -0.07537509               -0.44548009                0.11423048                1.22224907               -0.00429142                0.09099210
               2.99510736                4.98587635               55.05726959                0.01000000               -0.17645356               -0.46273286                0.12353160                1.62672511               -0.00594496                0.07353114
               3.99303042                4.98923228               55.05939206                0.01000001               -0.25177639               -0.42761741                0.13285727                1.92476943               -0.00711797                0.08554222
               4.99007184                4.99604870               55.06153202                0.01000001               -0.29887939               -0.43351927                0.13936678                2.17933783               -0.01213776                0.13318016
               5.98705283                5.00461919               55.06367415                0.01002107               -0.25877461               -0.48735813                0.14215195                2.26687951               -0.01901440                0.20720977
               6.98489634                5.01278296               55.06581430                0.01001924               -0.15700876               -0.62135380                0.14241001                2.17298432               -0.01980032                0.29686690
               7.98391265                5.01810058               55.06804500                0.01000000                0.01162014               -0.72422011                0.14758884                1.77037159               -0.00718949                0.35997739
               8.98512875                5.01753288               55.07044783                0.01000000                0.14657239               -0.80022565                0.16759733                1.13650149                0.00507211                0.38712560
               9.98684410                5.00826780               55.07284207                0.01000000                0.17153558               -0.67771276                0.20934542                0.54965743                0.00851032                0.34949548
               0.01463982                6.00040295               55.05329711                0.01000001                0.14779771               -0.76926672                0.09619013                0.87002844               -0.00294080                0.19635992
               1.01611780                5.98745583               55.05511426                0.01000001               -0.03602450               -0.47372490                0.11245752                1.20137599               -0.00031607                0.13626069
               2.01391933                5.98157425               55.05691497                0.01000000               -0.20772136               -0.48909860                0.12603597                1.78386173                0.00341138                0.08310604
               3.01196337                5.98061086               55.05887271                0.01000001               -0.28432609               -0.46492451                0.13956199                1.83034696                0.02099711                0.06062986
               4.00823281                5.98459115               55.06108157                0.01000001               -0.36074099               -0.49580405                0.15101889                2.07322161                0.04437819                0.08253324
               5.00474855                5.99131415               55.06357135                0.01001943               -0.34117862               -0.47168338                0.15903651                2.17717996                0.06480627                0.14088297
               6.00140923                5.99949811               55.06621885                0.01000003               -0.28914116               -0.47611700                0.15994899                2.12218610                0.07715760                0.22777807
               6.99896573                6.00676862               55.06901327                0.01000000               -0.16197116               -0.53484100                0.15786637                1.82416586                0.08417440                0.33220553
               7.99816981                6.01100594               55.07186394                0.01000000               -0.01160112               -0.62053272                0.16098663                1.36880367                0.07511481                0.41551120
               8.99873370                6.01062065               55.07448392                0.01000000                0.05827803               -0.57848296                0.17478382                0.74865061                0.04423573                0.44254187
               9.99933537                6.00431016               55.07666595                0.01000000                0.06016687               -0.24552102                0.21076989                0.34906995                0.02637691                0.38497479
               0.03978093                6.98858860               55.05598537                0.94263569               -0.03098368               -0.60385323                0.08878487                0.96029150               -0.01279205                0.10302590
               1.03947109                6.98260685               55.05732851                0.74469556               -0.03496166               -0.26012256                0.11738201                0.87081400               -0.01788029                0.07024927
               2.03908169                6.97662382               55.05857407                0.01000000               -0.53868433               -0.26951873                0.14311853                1.25786608               -0.00130620                0.03690538
               3.02869740                6.97657786               55.06025999                0.01000001               -0.76450657               -0.52555004                0.15706289                1.76747192                0.04514797                0.01328814
               4.02379156                6.97931620               55.06267814                0.01008435               -0.49944612               -0.51313275                0.17410220                1.90532322                0.10590460                0.06154224
               5.01870848                6.98661504               55.06558261                0.01001732               -0.48747405               -0.46293976                0.18019340                2.11639842                0.15328044                0.12996753
               6.01404208                6.99509685               55.06887498                0.01000000               -0.44183246               -0.32387052                0.17921690                1.87399943                0.19588469                0.22795041
               7.00987183                7.00208614               55.07250887                0.01000000               -0.33026896               -0.34109644                0.17660920                1.38881537                0.21660222                0.34583819
               8.00743670                7.00568993               55.07611557                0.01003579               -0.15371474               -0.42066596                0.17635994                0.83194699                0.19364242                0.47520319
               9.00679754                7.00596322               55.07921270                0.01000002               -0.04951061               -0.38609767                0.18047242                0.36967352                0.11480053                0.53819518
              10.00644649                7.00335738               55.08119431                0.01000000               -0.03510476               -0.02800142                0.20149323                0.13014726                0.05917075                0.50545137
               0.04580915                7.98832589               55.05684396                1.00000000               -0.03102969               -0.02631072                0.08884079                0.00009895               -0.00352402                0.01475048
               1.04549886                7.98225338               55.05818648                0.99999999               -0.03517558               -0.03528495                0.11752760                0.00023446               -0.00472103                0.00334562
               2.04510564                7.97618387               55.05950514                0.27471092               -0.04392161               -0.04432861                0.14570557               -0.00065273                0.00199739               -0.00302506
               3.04462042                7.97009986               55.06099210                0.01000000               -0.44017754               -0.35052348                0.18017529                1.00926392                0.08890421               -0.03560890
               4.03630209                7.97432849               55.06406942                0.01013120               -0.66622753               -0.78714584                0.18074411                1.92525759                0.17566025                0.02928908
               5.03129587                7.98205536               55.06744507                0.01000000               -0.64419861               -0.25497315                0.19792796                1.97028325                0.23508406                0.10546356
               6.02341812                7.99302069               55.07143152                0.01000000               -0.75734611               -0.04978647                0.19565962                1.55429358                0.30685259                0.19398837
               7.01614895                7.99994670               55.07589843                0.01003315               -0.62432207               -0.06568055                0.19254786                0.86991022                0.37805676                0.30367996
               8.01093168                8.00259262               55.08096304                0.01000002               -0.38446119               -0.15043844                0.18423777                0.25546921                0.37625843                0.45847908
               9.00845973                8.00289870               55.08500461                0.01000002               -0.18908389               -0.20768523                0.18027647               -0.19836121                0.25521026                0.81170476
              10.00715000                8.00375013               55.08741483                0.01000001               -0.13097281               -0.11422780                0.19198572               -0.17970954                0.17366417                0.65332564
               0.05192792                8.98806238               55.05776412                1.00000000               -0.03101248               -0.02633940                0.08875989                0.00021653                0.00278025                0.01483239
               1.05161779                8.98190115               55.05907174                0.99999999               -0.03528798               -0.03534872                0.11773617                0.00012087                0.00334623                0.00305979
               2.05122216                8.97573725               55.06038562                0.99999999               -0.04398657               -0.04444930                0.14685059               -0.00030645               -0.00024481               -0.00376401
               3.05073806                8.96956739               55.06162804                0.11480396               -0.04404691               -0.05327905                0.17667318                0.00840079                0.10302261               -0.02363208
               4.05034122                8.96357329               55.06502784                0.01000000               -0.56580575               -0.58539138                0.22631585                1.61061347                0.25746018               -0.01194969
               5.03942194                8.98151557               55.06910681                0.01000000               -1.15523027                0.18530778                0.18809886                1.67764741                0.29946435                0.06128439
               6.02723661                8.99410112               55.07347109                0.01000294               -1.08619157                0.19856724                0.19952541                0.94496706                0.37433965                0.11551193
               7.01769811                9.00077253               55.07858144                0.01000002               -0.88212654                0.14679508                0.19538909                0.39219694                0.49586083                0.18355257
               8.00959408                9.00268116               55.08478359                0.01000001               -0.80126578                0.12332816                0.18765296               -0.05151892                0.79176562                0.30192450
               9.00167280                9.00180951               55.09496718                1.00000000               -0.42223239               -0.08067274                0.17547805               -0.38325589                0.52142150                0.51100911
              10.00114943                9.00107282               55.09471346                1.00000000               -0.05233635               -0.15970655                0.17323971               -0.33690874               -0.00043407                0.37693043
               0.05813596                9.98779910               55.05861823                1.00000000               -0.03095454               -0.02632848                0.08894635               -0.00446513                0.01333240                0.01209262
               1.05782641                9.98154641               55.05992863                0.99999999               -0.03513414               -0.03547403                0.11793054               -0.00434856                0.01813318                0.00160567
               2.05743327                9.97529489               55.06132375                0.99999995               -0.04370052               -0.04423585                0.14678813               -0.00449451                0.01888989               -0.00157325
               3.05695240                9.96903428               55.06264367                0.99999997               -0.04335507               -0.05331045                0.17611977               -0.01227695                0.12878252               -0.00596450
               4.05656617                9.96262067               55.06624161                0.01000000               -1.13157054               -0.09526186                0.21595240                1.45885698                0.28601743               -0.01459502
               5.03432099                9.98576151               55.07028834                0.01000001               -1.67528348                0.42459387                0.16438722                1.20847316                0.28276654                0.03163342
               6.02306050                9.99699204               55.07459880                0.01000000               -0.94540716                0.28909223                0.18203702                0.43844324                0.35762782                0.05865364
               7.01541285               10.00288260               55.07975071                0.01000001               -0.70980925                0.21100662                0.18452616                0.17483036                0.53025008                0.09248646
               8.00886432               10.00505918               55.08668659                0.01000000               -0.65049484                0.23780192                0.18344567               -0.15284410                0.72197636                0.18214085
               9.00240295               10.00128524               55.09471851                0.99999999               -0.34895543               -0.05242685                0.17379136               -0.15214377                0.41471526                0.00043334
              10.00188521               10.00055600               55.09446478                0.99987299               -0.05177408               -0.05168207                0.17155302                0.00065306                0.00042236               -0.00042174
              -0.03784864                0.00120321               56.04398016                0.99514401               -0.02316827               -0.02252888                0.07293044                0.00211825               -0.00814082                0.00766450
               0.96191968               -0.00188401               56.04703137                1.00000000               -0.02445016               -0.02525808                0.08173053                0.00139592               -0.00871687               -0.00152602
               1.96166236               -0.00495549               56.05007020                0.01000000                0.02985538               -0.02798876                0.09052149                0.06531451               -0.05695320               -0.00349665
               2.96251679               -0.00673168               56.05215135                0.01000001                0.09656976               -0.01505674                0.05822035                0.12215585               -0.05765445                0.04458673
               3.96359376               -0.00453430               56.05438609                0.01000000                0.03776673               -0.00186078                0.10144212                0.17420572               -0.09415842                0.00743320
               4.96327212                0.00192526               56.05585322                0.01000002               -0.17677205                0.03071856                0.11307980                0.31080204               -0.12622739                0.01267581
               5.96005832                0.01342236               56.05720379                0.01000001               -0.67570087                0.13499454                0.12552351                0.75001005               -0.12381118                0.01401483
               6.94975811                0.03218728               56.05871108                0.97112950               -0.52930970               -0.02955224                0.09264168                0.82200345               -0.06562860               -0.00183686
               7.94947212                0.03457054               56.06154897                1.00000000               -0.02948368               -0.03087778                0.09827649                0.00085002                0.00125229                0.00012614
               8.94916843                0.03699196               56.06439415                0.99994434               -0.03112949               -0.03264470                0.10380216                0.00077256                0.00130749                0.00114986
               9.94884953                0.03945232               56.06723114                1.00000000               -0.03189012               -0.03463009                0.10936700               -0.00131860                0.00107098                0.00147783
              -0.03474024                1.00097792               56.04456172                1.00000000               -0.02467726               -0.02322502                0.07782058                0.00080473                0.00138367                0.00814330
               0.96501299                0.99786341               56.04761490                0.01000000               -0.02602102               -0.02605533                0.08661900                0.00008082                0.00424892               -0.00446373
               1.96473934                0.99476462               56.05072678                0.01000000               -0.07426192               -0.05584253                0.09540911                0.02717850               -0.02844486                0.00582692
               2.96352775                0.99311775               56.05312310                0.01000001               -0.18660003               -0.01308951                0.07815982                0.16702970               -0.08596003                0.02250866
               3.96100734                0.99544709               56.05517233                0.01000000               -0.30629696                0.00972295                0.09805839                0.38298580               -0.10142897                0.01155143
               4.95740181                1.00223245               56.05665947                0.01000000               -0.42899681                0.03406346                0.10129640                0.68383395               -0.14341021                0.02291994
               5.95242741                1.01477231               56.05776346                0.01000001               -0.49988801                0.00711525                0.10871243                1.07319436               -0.17818156                0.04451818
               6.94740405                1.03189176               56.05871002                0.92458613               -0.26745610               -0.03127141                0.10509776                0.74029577               -0.09380195               -0.00212730
               7.94707828                1.03426176               56.06156113                0.99999999               -0.03343925               -0.03302062                0.11040150                0.00039416                0.00137048                0.00064630
               8.94673527                1.03666551               56.06440944                0.99999999               -0.03511501               -0.03470351                0.11620405               -0.00073267                0.00059915                0.00232946
               9.94637598                1.03910602               56.06724285                0.99995869               -0.03592842               -0.03637391                0.12186984               -0.00293821                0.00007587                0.00227224
              -0.03160352                2.00073871               56.04515566                0.01000000               -0.02618792                0.06169402                0.08271900                0.07293063                0.00335651                0.09527578
               0.96813460                1.99759489               56.04813776                0.01000000               -0.07224424               -0.07005990                0.09151531                0.02673460                0.02534006                0.07051031
               1.96695159                1.99392766               56.05156319                0.01000001               -0.14798420               -0.11137117                0.09533910                0.13148618                0.01357387                0.03707076
               2.96517491                1.99300653               56.05410960                0.01000000               -0.24064071               -0.07022573                0.10012982                0.43412511               -0.04671921                0.02949513
               3.96213878                1.99566016               56.05613955                0.01000000               -0.37756624               -0.03161457                0.10014884                0.81458506               -0.09376944                0.02971841
               4.95762359                2.00260653               56.05773707                0.01000001               -0.51379430               -0.03293654                0.10392070                1.20520050               -0.14259852                0.05349245
               5.95186289                2.01356467               56.05884770                0.01000000               -0.62745093               -0.11433542                0.10953469                1.72585627               -0.23547450                0.08734986
               6.94507457                2.03156185               56.05870773                0.01000000               -0.35783184               -0.42181554                0.11642854                1.28600981               -0.14810548                0.14900744
               7.94470625                2.03391013               56.06158169                0.29999590               -0.03825239               -0.04001693                0.12623740                0.00326562                0.00203267                0.03031205
               8.94430952                2.03629789               56.06444390                0.99999999               -0.03982513               -0.03954792                0.13128104               -0.00153467                0.00053367                0.00390202
               9.94390975                2.03872484               56.06727041                0.99999999               -0.03997700               -0.03974048                0.13323186               -0.00370251               -0.00055250                0.00165693
              -0.02699398                3.00221180               56.04748488                0.01000002               -0.06472886                0.13703438                0.08852476                0.06642512                0.00321691                0.18220429
               0.97235873                2.99646221               56.05022072                0.01000001               -0.05242991               -0.14782201                0.09562322                0.15883416                0.00048041                0.13825061
               1.97195742                2.99253720               56.05287899                0.01000000               -0.09404893               -0.21028839                0.10159386                0.45751584               -0.01102835                0.07502552
               2.97047775                2.99171324               56.05532342                0.01000000               -0.21291908               -0.19773931                0.10591242                0.84630809               -0.03819117                0.05626527
               3.96769904                2.99481480               56.05741081                0.01007879               -0.34382194               -0.16502102                0.10980008                1.25723647               -0.07669149                0.06167358
               4.96360132                3.00157372               56.05914736                0.01000000               -0.48549162               -0.16317002                0.11325585                1.70015615               -0.12671479                0.08863443
               5.95798921                3.01248560               56.06042197                0.01000001               -0.54112622               -0.23571581                0.11720727                2.00527357               -0.16135058                0.14254063
               6.95277879                3.02345545               56.06173796                0.01000001               -0.77908230               -0.62516731                0.12069559                2.10412183               -0.20926377                0.25381279
               7.94240756                3.03346142               56.06218049                0.01000007               -0.54444658               -0.42572384                0.18712799                1.61992922               -0.15779368                0.23656743
               8.94188986                3.03587455               56.06447695                0.01009138               -0.04797686               -0.47451330                0.14816810                1.19375369               -0.02713532                0.20111526
               9.94144803                3.03831121               56.06728034                1.00000000               -0.04418334               -1.04235033                0.14413738                1.39878293               -0.00117852                0.20298446
              -0.01877585                4.00347940               56.04970287                0.01000000               -0.02382699                0.06369148                0.09366603                0.17965383               -0.00259621                0.17484476
               0.98098588                3.99463845               56.05216166                0.01000000               -0.01866339               -0.25349974                0.10191040                0.41515911               -0.00531112                0.13180538
               1.98085088                3.98972189               56.05455532                0.01000000               -0.05812051               -0.34662990                0.10858900                0.84080713               -0.01356593                0.09708274
               2.97982347                3.98905174               56.05684267                0.01007589               -0.17139286               -0.33287839                0.11494377                1.25186048               -0.02938423                0.08015883
               3.97742303                3.99235974               56.05895497                0.01000000               -0.29337795               -0.31660779                0.12061379                1.66711750               -0.05460522                0.09073636
               4.97395591                3.99934313               56.06087155                0.01000001               -0.36681984               -0.30440105                0.12470030                2.02960603               -0.08738816                0.12845246
               5.97008663                4.00885035               56.06259043                0.01000001               -0.38873647               -0.40801021                0.12493651                2.31491582               -0.12365945                0.19549276
               6.96618118                4.01905851               56.06415927                0.01011583               -0.27004474               -0.53471622                0.12063231                2.30461709               -0.13626745                0.26196004
               7.96468574                4.02539565               56.06604568                0.01000002               -0.14231875               -0.76959993                0.11154232                2.33532987               -0.09815010                0.36425158
               8.96333481                4.02680762               56.06843666                0.01000000                0.11631804               -0.91294128                0.14870188                1.66036355               -0.04902651                0.41058518
               9.96701210                4.01787783               56.07134588                0.01000003                0.36772879               -1.50770307                0.23310608                1.25186185               -0.02134966                0.40869805
              -0.00571900                5.00348563               56.05192352                0.01000000                0.01384214               -0.18245571                0.09731927                0.36407588               -0.00416778                0.17572686
               0.99441942                4.99139222               56.05416024                0.01000000                0.00396348               -0.39730663                0.10878242                0.76655343               -0.00605520                0.13464830
               1.99436027                4.98560460               56.05634745                0.01000001               -0.07711523               -0.45014971                0.11777148                1.23944890               -0.00946352                0.10228225
               2.99287712                4.98505567               56.05852024                0.01000000               -0.18051325               -0.46441535                0.12626903                1.65288396               -0.01145891                0.09200420
               3.99075000                4.98848265               56.06072476                0.01000001               -0.25871460               -0.42545500                0.13416390                1.96195831               -0.01659937                0.11096882
               4.98770282                4.99548570               56.06291595                0.01000001               -0.30889273               -0.42698721                0.13918847                2.22942161               -0.03162532                0.16283088
               5.98457215                5.00432539               56.06506320                0.01003983               -0.26884945               -0.47795347                0.13793038                2.32434783               -0.05479113                0.23736201
               6.98232584                5.01276112               56.06716527                0.01000002               -0.16035510               -0.61072175                0.12855791                2.21775034               -0.06866647                0.32660781
               7.98136505                5.01806942               56.06943361                0.01000000                0.01445550               -0.70925759                0.12252592                1.80604499               -0.05239564                0.38041130
               8.98261495                5.01761573               56.07207009                0.01000000                0.14898946               -0.80311652                0.14175721                1.16438905               -0.02280851                0.41141151
               9.98434484                5.00815715               56.07498449                0.01000002                0.17298913               -0.69270808                0.22357632                0.56394724               -0.00106169                0.35871324
               0.01269249                5.99983028               56.05425398                0.01000001                0.15054881               -0.78209008                0.09740568                0.88047312               -0.00587879                0.18765493
               1.01419798                5.98669231               56.05624953                0.01000001               -0.03580405               -0.48098988                0.11492810                1.21618859               -0.00658280                0.14078360
               2.01197641                5.98071890               56.05819292                0.01000000               -0.20974370               -0.49531522                0.12867698                1.80856357               -0.00332154                0.09860292
               3.01000311                5.97976344               56.06027915                0.01000001               -0.28721222               -0.46821589                0.14024028                1.86105717                0.01397521                0.08328187
               4.00623217                5.98385064               56.06259307                0.01000001               -0.36507556               -0.49640285                0.15072863                2.11770273                0.03327312                0.11391458
               5.00270160                5.99080339               56.06514380                0.01003320               -0.34670043               -0.46774016                0.15667812                2.23734707                0.04241433                0.17818834
               5.99929816                5.99929128               56.06778793                0.01002046               -0.29547168               -0.46990190                0.15579408                2.19127484                0.04079264                0.26763962
               6.99679216                6.00684407               56.07053848                0.01000000               -0.16730626               -0.52626873                0.14944734                1.89115752                0.03724371                0.37375257
               7.99595203                6.01121050               56.07339277                0.01000000               -0.01286485               -0.60274807                0.14457057                1.41821901                0.02522609                0.45888773
               8.99653487                6.01074529               56.07616033                0.01000000                0.06280826               -0.57147881                0.15484741                0.77078347                0.01124854                0.47960810
               9.99720820                6.00402367               56.07878907                0.01000000                0.06733336               -0.25372591                0.19964388                0.35450099                0.01249011                0.39729800
               0.03816640                6.98784383               56.05687240                0.94530826               -0.03118214               -0.61242155                0.08884625                0.97261655               -0.01292574                0.09948343
               1.03785458                6.98177242               56.05851047                0.71144503               -0.03529908               -0.26389831                0.11891957                0.88168878               -0.01976249                0.07261415
               2.03746042                6.97569830               56.06001779                0.01000000               -0.54440302               -0.27351689                0.14482803                1.27609928               -0.01038248                0.04708643
               3.02696652                6.97569135               56.06184882                0.01000001               -0.76981549               -0.53523722                0.15877139                1.79707574                0.03416536                0.04455193
               4.02206411                6.97855459               56.06438149                0.01010335               -0.49786974               -0.52072581                0.16967229                1.94325070                0.09105247                0.09063381
               5.01700912                6.98613089               56.06734975                0.01000002               -0.48535738               -0.45960391                0.17409278                2.16761762                0.13005191                0.17305447
               6.01235696                6.99492736               56.07063090                0.01000000               -0.43896763               -0.32351597                0.17366673                1.94419972                0.15856464                0.27300535
               7.00822977                7.00223575               56.07423429                0.01000000               -0.32643755               -0.33753619                0.16992896                1.46485154                0.17621759                0.39070962
               8.00582821                7.00601446               56.07783927                0.01003422               -0.15061656               -0.41232714                0.16929299                0.90057411                0.15371590                0.51636542
               9.00521744                7.00618615               56.08097061                0.01000002               -0.04750585               -0.37668248                0.17205686                0.41078503                0.08733299                0.56806597
              10.00487809                7.00308263               56.08317541                0.01000000               -0.03393467               -0.02495883                0.19516830                0.14899290                0.04366884                0.50567319
               0.04428764                7.98758185               56.05772794                1.00000000               -0.03103492               -0.02615281                0.08808085                0.00006372               -0.00366459                0.01427313
               1.04397729                7.98141435               56.05936710                0.99999999               -0.03540857               -0.03564269                0.11847807                0.00037513               -0.00490441                0.00338916
               2.04357947                7.97524856               56.06097702                0.28557716               -0.04444798               -0.04540012                0.14875775               -0.00096854                0.00687813               -0.00041478
               3.04308833                7.96905869               56.06285846                0.01000000               -0.44609131               -0.35933911                0.20129216                1.02620393                0.07177486               -0.02002894
               4.03465764                7.97343612               56.06584294                0.01000002               -0.67035750               -0.81562802                0.18192870                1.98552334                0.15187960                0.07497265
               5.02968118                7.98161131               56.06938643                0.01000000               -0.62901722               -0.26098506                0.18779173                2.02839008                0.19950580                0.15213034
               6.02207730                7.99282096               56.07334202                0.01000000               -0.73395456               -0.05407069                0.18786089                1.61041791                0.27197646                0.23043988
               7.01500209                8.00009335               56.07779623                0.01002843               -0.60320905               -0.07117035                0.18787695                0.94031470                0.34181333                0.33995995
               8.01001312                8.00296395               56.08277515                0.01000002               -0.36598449               -0.15441664                0.17984077                0.32781517                0.34436642                0.48812947
               9.00768240                8.00321164               56.08677979                0.01000002               -0.18090086               -0.20575267                0.17744863               -0.13618296                0.23831923                0.82607712
              10.00639510                8.00352450               56.08932763                0.01000001               -0.12873001               -0.08785364                0.19133075               -0.14212079                0.16995949                0.64112951
               0.05050268                8.98732077               56.05864326                0.99999999               -0.03073089               -0.02596769                0.08724480                0.00004461                0.00260163                0.01419183
               1.05019537                8.98105957               56.06025080                0.99999999               -0.03529896               -0.03549829                0.11793348               -0.00002222                0.00341479                0.00310353
               2.04979670                8.97479029               56.06186616                0.99999999               -0.04461700               -0.04538897                0.14936099               -0.00079751                0.00083050               -0.00301679
               3.04930303                8.96850457               56.06342114                0.18055983               -0.02873722               -0.05502081                0.18244829                0.00006980                0.12702436               -0.02659871
               4.04922196                8.96224203               56.06758192                0.01000000               -0.55554741               -0.59968057                0.21313298                1.66858613                0.22234253                0.01815537
               5.03819209                8.98091119               56.07100385                0.01000000               -1.15693398                0.17219965                0.19487526                1.74569185                0.25147386                0.08220318
               6.02608328                8.99384594               56.07541164                0.01000425               -1.06495064                0.19056462                0.19317950                0.98029824                0.34845819                0.13876316
               7.01689307                9.00081234               56.08050783                0.01000002               -0.84085291                0.13197676                0.19108553                0.43509078                0.47068583                0.20288030
               8.00926622                9.00292613               56.08663638                0.01000001               -0.74799169                0.10301057                0.18556599               -0.00831438                0.77297998                0.31778586
               9.00193324                9.00207110               56.09672201                1.00000000               -0.39281269               -0.08324839                0.17549168               -0.33053947                0.51765915                0.51082097
              10.00140997                9.00132556               56.09644551                0.99997824               -0.05232716               -0.13578087                0.17316776               -0.28659139               -0.00043722                0.36871711
               0.05681094                9.98706250               56.05949564                1.00000000               -0.03036169               -0.02582751                0.08682385               -0.00498574                0.01242833                0.01139902
               1.05650732                9.98070438               56.06110501                1.00000000               -0.03462129               -0.03551862                0.11728502               -0.00489083                0.01705379                0.00159077
               2.05611852                9.97434078               56.06279652                1.00000000               -0.04346660               -0.04495141                0.14723294               -0.00512410                0.01827469               -0.00143958
               3.05563799                9.96795828               56.06442083                0.99999999               -0.02478864               -0.05462943                0.17821489               -0.01141758                0.14606913               -0.00606322
               4.05562274                9.96144251               56.06866345                0.01000001               -1.13234451               -0.07995167                0.20152666                1.49492966                0.23484690               -0.00221289
               5.03299110                9.98505530               56.07202047                0.01000001               -1.69203157                0.41441100                0.18687970                1.23938882                0.23319708                0.03719126
               6.02178211                9.99663225               56.07640805                0.01000000               -0.91836916                0.27863115                0.18416801                0.45376227                0.33736571                0.07338021
               7.01462372               10.00273288               56.08157660                0.01000001               -0.65970181                0.19205412                0.18286093                0.19266016                0.52251731                0.09781017
               8.00858807               10.00502417               56.08851722                0.01000000               -0.59757684                0.20980368                0.18517315               -0.12712518                0.71413429                0.18691620
               9.00267218               10.00154667               56.09645679                1.00000000               -0.32168617               -0.05244233                0.17386509               -0.13687005                0.41123889                0.00043508
              10.00215435               10.00080888               56.09618027                0.99997719               -0.05178307               -0.05166779                0.17154149                0.00065893                0.00042221               -0.00042402
              -0.04102518                0.00067378               57.04471075                0.99610260               -0.02312535               -0.02266869                0.07318550                0.00205728               -0.00812722                0.00765134
               0.95874357               -0.00250727               57.04784617                0.99999999               -0.02429506               -0.02516229                0.08123000                0.00127982               -0.00870666               -0.00153131
               1.95848892               -0.00567144               57.05096914                0.01001995                0.05214734               -0.02765712                0.08926540                0.08571737               -0.05014095               -0.00349125
               2.95978651               -0.00712871               57.05327053                0.01000003                0.10752912               -0.05063670                0.10456763                0.05697373               -0.07578124                0.02051163
               3.96063950               -0.00516212               57.05532414                0.01000000                0.03443329               -0.00820367                0.09769865                0.16468424               -0.10974070                0.01809837
               4.96047518                0.00133129               57.05699020                0.01000000               -0.16853661                0.02741306                0.11007583                0.32058233               -0.13377166                0.01605796
               5.95726877                0.01307354               57.05834200                0.01000002               -0.67871715                0.13573533                0.11014772                0.76842172               -0.14902193                0.01554408
               6.94690084                0.03210471               57.05963825                0.97205012               -0.53270526               -0.02989747                0.09303629                0.83476133               -0.07890559               -0.00173545
               7.94661466                0.03449474               57.06253317                1.00000000               -0.02940954               -0.03124959                0.09839326                0.00093240                0.00124694               -0.00100008
               8.94631265                0.03692262               57.06543149                1.00000000               -0.03098427               -0.03274922                0.10369712                0.00086967                0.00123467                0.00050174
               9.94599498                0.03938846               57.06832169                1.00000000               -0.03176667               -0.03484085                0.10900635               -0.00107566                0.00104007                0.00148272
              -0.03782355                1.00044710               57.04534299                1.00000000               -0.02474706               -0.02341981                0.07843407                0.00085737                0.00138754                0.00813530
               0.96192898                0.99724111               57.04848038                0.01000000               -0.02598178               -0.02600647                0.08647763                0.00007825                0.00424848               -0.00446505
               1.96165681                0.99405199               57.05167638                0.01000000               -0.09136926               -0.05502979                0.09451264                0.03301661               -0.03437583                0.00350669
               2.96010159                0.99236493               57.05403833                0.01000001               -0.18002314               -0.03350171                0.09631595                0.16384143               -0.09913751                0.01702099
               3.95805635                0.99475585               57.05613806                0.01000000               -0.27692092                0.00160599                0.09802296                0.39368687               -0.11427619                0.02277733
               4.95456317                1.00160542               57.05772497                0.01000000               -0.42450373                0.03177252                0.10747234                0.69706807               -0.15396252                0.03072906
               5.94956627                1.01443090               57.05887106                0.01000001               -0.50126606                0.00341611                0.11116980                1.09397917               -0.18770516                0.04520900
               6.94453785                1.03180574               57.05976525                0.91438278               -0.26756200               -0.03186751                0.10559497                0.75190917               -0.10009181               -0.00317281
               7.94421503                1.03418225               57.06265937                0.99999999               -0.03316841               -0.03273849                0.11055994               -0.00003879                0.00083066                0.00200252
               8.94387448                1.03659513               57.06556589                0.99999999               -0.03483253               -0.03420258                0.11583903               -0.00004547                0.00124172                0.00311254
               9.94351838                1.03904005               57.06845961                0.99999999               -0.03560997               -0.03703158                0.12145003               -0.00183206                0.00098025                0.00121613
              -0.03459605                2.00020539               57.04598771                0.01000001               -0.02637085                0.06443152                0.08369059                0.08083573                0.00335300                0.09576188
               0.96514024                1.99697260               57.04905400                0.01000000               -0.06892574               -0.07120141                0.09173360                0.03553409                0.02300315                0.07016066
               1.96402543                1.99322797               57.05251696                0.01000001               -0.13903753               -0.11338352                0.09634750                0.14083973                0.00582011                0.03755725
               2.96235949                1.99220126               57.05509039                0.01000000               -0.23763409               -0.07208892                0.09971932                0.46501471               -0.05722681                0.03829227
               3.95927275                1.99487000               57.05716891                0.01000000               -0.38089989               -0.03478164                0.10530048                0.83257213               -0.10528542                0.04334556
               4.95474149                2.00196674               57.05881392                0.01000001               -0.51623589               -0.03339209                0.11058136                1.22236539               -0.15248445                0.06607864
               5.94894803                2.01314187               57.05998811                0.01000000               -0.62769090               -0.11856250                0.11636426                1.74578000               -0.24272955                0.09322718
               6.94218767                2.03146736               57.05986863                0.01000000               -0.35617676               -0.42956220                0.11803854                1.28892111               -0.14775877                0.13969519
               7.94182450                2.03383997               57.06286104                0.59676370               -0.03668709               -0.02229908                0.12277520               -0.00942402                0.00414716                0.06526503
               8.94145393                2.03623857               57.06576101                0.99999999               -0.03780025               -0.03739710                0.12768937                0.00070315               -0.00077922                0.00760401
               9.94106849                2.03864783               57.06859628                0.99999999               -0.03854379               -0.04112936                0.13410053               -0.00206612               -0.00302562               -0.00125518
              -0.02974127                3.00173573               57.04837748                0.01000000               -0.06416552                0.13895121                0.09038045                0.07230275                0.00219472                0.18355199
               0.96961708                2.99581708               57.05118070                0.01000001               -0.05068939               -0.14998389                0.09600171                0.16800846               -0.00154821                0.13978306
               1.96924495                2.99178432               57.05389585                0.01000000               -0.09286152               -0.21354603                0.10189023                0.46988318               -0.01471871                0.07978239
               2.96775985                2.99092315               57.05639334                0.01000000               -0.21513160               -0.19646940                0.10795757                0.85922139               -0.04453447                0.06640962
               3.96494231                2.99406021               57.05852505                0.01007895               -0.35106161               -0.16128627                0.11380762                1.27652325               -0.08566606                0.07635971
               4.96073862                3.00093757               57.06030454                0.01000000               -0.49805332               -0.15908715                0.11934037                1.72117102               -0.13756764                0.10385929
               5.95498125                3.01205965               57.06162199                0.01000001               -0.55602244               -0.23139853                0.12305151                2.01869398               -0.18083724                0.14727347
               6.94961817                3.02321449               57.06285827                0.01000001               -0.78629513               -0.62298845                0.12293531                2.11478942               -0.19395986                0.24500946
               7.93925534                3.03373626               57.06427580                0.01000006               -0.52687396               -0.41588593                0.11076187                1.60400508               -0.13561833                0.19209042
               8.93908069                3.03584719               57.06598430                0.01016757               -0.02984015               -0.44974178                0.13936844                1.14587127               -0.06010571                0.19040133
               9.93865854                3.03821747               57.06870434                0.99999999               -0.04221461               -1.01568020                0.14659926                1.36193508               -0.00980720                0.25289457
              -0.02131270                4.00298441               57.05065351                0.01000000               -0.02354835                0.06008182                0.09781466                0.18238086               -0.00357607                0.17488379
               0.97845181                3.99397292               57.05319050                0.01000000               -0.01851359               -0.25653189                0.10340237                0.42126925               -0.00742550                0.13587992
               1.97831702                3.98895705               57.05564912                0.01000000               -0.05918957               -0.34852458                0.10939635                0.85321081               -0.01655448                0.10462049
               2.97726802                3.98827187               57.05800191                0.01007844               -0.17641183               -0.33216012                0.11692398                1.27141304               -0.03352375                0.09242641
               3.97478879                3.99164428               57.06017645                0.01000000               -0.30512734               -0.31233240                0.12442359                1.69367637               -0.06226602                0.10775187
               4.97116547                3.99878499               57.06213460                0.01000001               -0.38718981               -0.29522526                0.12998675                2.06159458               -0.10375866                0.14641916
               5.96704499                4.00851390               57.06383842                0.01000001               -0.41793164               -0.39453620                0.13007913                2.34745213               -0.15998678                0.20753687
               6.96280684                4.01900759               57.06529270                0.01014078               -0.28865440               -0.51392937                0.11265982                2.32713979               -0.21367697                0.26496914
               7.96127190                4.02552225               57.06691942                0.01000001               -0.14583445               -0.76872743                0.06177945                2.34703604               -0.21165716                0.34871681
               8.95989015                4.02724374               57.06976997                0.01000000                0.11473665               -0.89048739                0.07021544                1.64264913               -0.08528619                0.39754771
               9.96356664                4.01833423               57.07395242                0.01000000                0.36764838               -1.51092978                0.34477109                1.22582527               -0.05320744                0.43391067
              -0.00807067                5.00293736               57.05291662                0.01000000                0.01405015               -0.18886202                0.10385135                0.36709993               -0.00616989                0.17192296
               0.99206983                4.99068644               57.05526378                0.01000000                0.00404425               -0.40258259                0.11193254                0.77359227               -0.01002876                0.13950549
               1.99201021                4.98481383               57.05753745                0.01000001               -0.07844761               -0.45405404                0.11916417                1.25498790               -0.01415632                0.11279446
               2.99050088                4.98427995               57.05979497                0.01000000               -0.18537465               -0.46619740                0.12777781                1.67872234               -0.01629630                0.10706879
               3.98830272                4.98781357               57.06207534                0.01000001               -0.26999942               -0.42157829                0.13691067                1.99989755               -0.02508510                0.13137109
               4.98510089                4.99503307               57.06431579                0.01000001               -0.32975147               -0.41704366                0.14341084                2.27959259               -0.05167397                0.18650240
               5.98170769                5.00416892               57.06643276                0.01005390               -0.29741420               -0.46153470                0.14278799                2.38441258               -0.09940320                0.26209139
               6.97915260                5.01293591               57.06838546                0.01000001               -0.18738830               -0.59164691                0.12611186                2.27458570               -0.15538940                0.36420151
               7.97795992                5.01836172               57.07049551                0.01000000               -0.00154533               -0.68721126                0.10494561                1.84410600               -0.17398749                0.45846485
               8.97912170                5.01803744               57.07328297                0.01000000                0.15170707               -0.79657216                0.08797228                1.16546871               -0.14536823                0.50999687
               9.98099407                5.00799887               57.07731360                0.01000002                0.18723673               -0.71345142                0.15386116                0.53419562               -0.08512561                0.42538389
               0.01053114                5.99920717               57.05524522                0.01000001                0.15160536               -0.79165283                0.10364605                0.88725700               -0.00914418                0.17686410
               1.01204719                5.98592127               57.05741283                0.01000001               -0.03539309               -0.48724396                0.11819177                1.22647039               -0.01367502                0.14459593
               2.00982328                5.97987596               57.05948851                0.01000000               -0.21022303               -0.50161900                0.13014970                1.82760668               -0.01216336                0.11235782
               3.00784273                5.97894792               57.06167751                0.01000001               -0.28948308               -0.46951830                0.14162234                1.89264409                0.00620513                0.10183332
               4.00403362                5.98321271               57.06409615                0.01000001               -0.37203819               -0.49672804                0.15084188                2.16525765                0.02323294                0.13788828
               5.00040197                5.99044412               57.06670492                0.01005031               -0.36016045               -0.45997854                0.15850520                2.30148562                0.02193466                0.20564237
               5.99683041                5.99928320               57.06933474                0.01000002               -0.31481022               -0.45830286                0.15854739                2.26758390                0.00112143                0.30163904
               6.99410576                6.00717466               57.07200221                0.01000000               -0.18889581               -0.51466566                0.15219266                1.97650140               -0.02503773                0.42259516
               7.99305249                6.01177803               57.07475536                0.01000000               -0.02716954               -0.58634311                0.13923652                1.49762055               -0.05168596                0.53835553
               8.99356237                6.01131229               57.07758087                0.01010544                0.06375994               -0.56661827                0.14062965                0.81867640               -0.04378546                0.57174530
               9.99432769                6.00406520               57.08065883                0.01000000                0.07653161               -0.25332933                0.18732945                0.37110046               -0.01168742                0.41553133
               0.03624627                6.98710431               57.05776230                0.94876768               -0.03158243               -0.61833439                0.08953297                0.98004565               -0.01327907                0.09445483
               1.03593044                6.98094156               57.05970691                0.67291984               -0.03552871               -0.26702170                0.12037013                0.88908155               -0.02276630                0.07449519
               2.03553569                6.97478145               57.06147063                0.01000000               -0.54567153               -0.27743787                0.14417730                1.29382887               -0.02201764                0.05724834
               3.02501701                6.97488958               57.06343542                0.01000001               -0.77120083               -0.54104816                0.15102520                1.82224135                0.02119136                0.07706615
               4.02011168                6.97787900               57.06607159                0.01012477               -0.49784509               -0.52925992                0.16989997                1.98610085                0.07866203                0.11462647
               5.01506011                6.98583350               57.06906446                0.01000001               -0.48914216               -0.45001291                0.17147025                2.22544007                0.10791693                0.19929013
               6.01032883                6.99500287               57.07234831                0.01000000               -0.44361522               -0.32172265                0.17389708                2.02132699                0.12733374                0.30629422
               7.00618781                7.00264259               57.07590745                0.01000000               -0.32770674               -0.33511489                0.17114585                1.55391537                0.13544239                0.43470990
               8.00377470                7.00663485               57.07950143                0.01013632               -0.14898745               -0.41099633                0.16823881                0.99227162                0.11217248                0.56781556
               9.00320806                7.00670507               57.08265384                0.01000002               -0.04322176               -0.38217251                0.17252805                0.47043471                0.05978513                0.61301527
              10.00291026                7.00293228               57.08509767                0.01000000               -0.02977939               -0.03812862                0.19251246                0.17901206                0.03208428                0.51953645
               0.04245754                7.98684048               57.05860558                1.00000000               -0.03058601               -0.02628945                0.08828070               -0.00003383               -0.00381119                0.01344192
               1.04215168                7.98058084               57.06055605                0.99999999               -0.03528527               -0.03581296                0.11854418                0.00097337               -0.00517444                0.00350444
               2.04175184                7.97432721               57.06248030                0.30370207               -0.04808390               -0.04620195                0.15183404                0.00394258                0.02452319                0.00309873
               3.04119000                7.96812696               57.06501795                0.01000007               -0.44700610               -0.37082665                0.24216203                1.04230396                0.07732686               -0.01938775
               4.03281171                7.97262751               57.06770800                0.01000001               -0.67015480               -0.83815630                0.17694332                2.02052902                0.12152838                0.08971997
               5.02778691                7.98144386               57.07120091                0.01000000               -0.61819311               -0.26539498                0.18345804                2.08914152                0.18430803                0.17521120
               6.02044785                7.99284875               57.07518874                0.01000000               -0.71174118               -0.05962601                0.18490640                1.67007316                0.25092519                0.25897511
               7.01355208                8.00047236               57.07965597                0.01012768               -0.58062053               -0.07964128                0.18567047                1.02043198                0.31468417                0.36922701
               8.00883544                8.00355810               57.08455985                0.01000002               -0.34392232               -0.16700211                0.18213638                0.41306424                0.31438400                0.51370341
               9.00667364                8.00366884               57.08855358                0.01000002               -0.16909643               -0.21780700                0.18168364               -0.06233421                0.22224599                0.84013516
              10.00545351                8.00330263               57.09124144                0.01000001               -0.12201246               -0.06688828                0.19136450               -0.09745007                0.16637357                0.63221670
               0.04876488                8.98657852               57.05950901                1.00000000               -0.03016966               -0.02590761                0.08665433                0.00009035                0.00210740                0.01338190
               1.04846319                8.98022530               57.06143041                0.99999999               -0.03482310               -0.03555211                0.11750402               -0.00030934                0.00352342                0.00323468
               2.04806842                8.97385741               57.06337284                0.99999999               -0.04502001               -0.04609135                0.15093808               -0.00105708                0.00370739               -0.00186484
               3.04756279                8.96747305               57.06527701                0.23345719               -0.04315325               -0.06066577                0.18883176                0.00376579                0.10856598               -0.03875150
               4.04720536                8.96111588               57.06929050                0.01000000               -0.54705405               -0.61070811                0.18501234                1.69521526                0.18688259                0.02388982
               5.03662170                8.98052560               57.07300432                0.01000000               -1.12517773                0.15141226                0.19565237                1.80739449                0.23326985                0.10443711
               6.02470180                8.99381035               57.07733468                0.01010910               -1.03673061                0.18090336                0.19250958                1.01640029                0.32569031                0.15423569
               7.01588709                9.00104977               57.08240315                0.01000002               -0.79311510                0.11144545                0.19152163                0.48432039                0.44936744                0.21446998
               8.00883950                9.00329481               57.08849491                0.01000002               -0.68351215                0.07388580                0.18924562                0.03652684                0.75135195                0.33181987
               9.00221685                9.00234893               57.09847701                1.00000000               -0.35729020               -0.09222247                0.17551381               -0.27046283                0.51366871                0.51069037
              10.00169369                9.00159452               57.09817681                0.99999994               -0.05231548               -0.11123180                0.17309366               -0.22578326               -0.00044201                0.36038801
               0.05516578                9.98632233               57.06035471                1.00000000               -0.02991758               -0.02561868                0.08570936               -0.00516404                0.01054424                0.01039662
               1.05486660                9.97986979               57.06227433                0.99999995               -0.03414142               -0.03555079                0.11667455               -0.00550590                0.01469464                0.00173047
               2.05448295                9.97340538               57.06426841                0.99999989               -0.04298757               -0.04520295                0.14658145               -0.00635456                0.01625041               -0.00139948
               3.05400685                9.96691365               57.06620797                0.99999999               -0.04097411               -0.05594019                0.17789793               -0.00519497                0.11983783               -0.00544822
               4.05366347                9.96041335               57.07027215                0.01000002               -1.13832607               -0.07025275                0.18024955                1.52373427                0.19546079               -0.00196825
               5.03124033                9.98447211               57.07402593                0.01000001               -1.67058891                0.39465080                0.19661383                1.26453572                0.21320289                0.04760791
               6.02025169                9.99646682               57.07828216                0.01000000               -0.87431514                0.26564697                0.18965174                0.46644679                0.31552215                0.07863045
               7.01375403               10.00270127               57.08340793                0.01000001               -0.59924390                0.16514987                0.18800549                0.21514349                0.50551764                0.10202995
               8.00826681               10.00503582               57.09039005                0.01000000               -0.53946762                0.17410065                0.18794048               -0.10111248                0.70508940                0.19167757
               9.00296467               10.00182439               57.09819582                0.99999994               -0.29100649               -0.05245426                0.17394250               -0.12310898                0.40572656                0.00043174
              10.00244668               10.00107799               57.09789561                0.99998508               -0.05179929               -0.05165289                0.17151925                0.00065834                0.00043341               -0.00042247
              -0.04428203                0.00009174               58.04544387                0.99706526               -0.02308187               -0.02280786                0.07343821                0.00199694               -0.00811363                0.00763778
               0.95548715               -0.00318306               58.04865597                0.99999999               -0.02413937               -0.02506669                0.08072865                0.00116420               -0.00869724               -0.00153607
               1.95523519               -0.00643980               58.05185551                0.01000000                0.05795052               -0.02732549                0.08800892                0.09216925               -0.04967461               -0.00348628
               2.95664616               -0.00785705               58.05424270                0.01000000                0.12220419               -0.05046346                0.09593130                0.07569825               -0.09030280                0.00726314
               3.95767927               -0.00580017               58.05634007                0.01000000                0.04663353               -0.01419592                0.10094141                0.16728777               -0.10947428                0.01339007
               4.95757884                0.00077688               58.05805473                0.01000000               -0.16247226                0.02464257                0.10603673                0.32483695               -0.13954708                0.01899784
               5.95442982                0.01267512               58.05940674                0.01000002               -0.67950063                0.13552548                0.10576715                0.77640559               -0.16260147                0.01558743
               6.94398882                0.03189859               58.06057180                0.97267381               -0.53629996               -0.03006581                0.09316922                0.84365968               -0.08821710               -0.00139256
               7.94370382                0.03429814               58.06351684                1.00000000               -0.02921094               -0.03242030                0.09797730                0.00077323                0.00127926               -0.00018106
               8.94340460                0.03673319               58.06646809                0.99999997               -0.03069469               -0.03349505                0.10310435                0.00092653                0.00149848                0.00106765
               9.94308993                0.03920614               58.06941126                1.00000000               -0.03146731               -0.03503892                0.10816745               -0.00088193                0.00153441                0.00259636
              -0.04098726                0.99986366               58.04613040                1.00000000               -0.02481703               -0.02361397                0.07904599                0.00091027                0.00139186                0.00812619
               0.95876457                0.99656628               58.04934445                0.01000000               -0.02594310               -0.02595796                0.08633677                0.00007690                0.00424855               -0.00446555
               1.95849388                0.99328694               58.05261703                0.01000000               -0.08406200               -0.05504260                0.09361786                0.04342286               -0.03468720                0.00242464
               2.95708333                0.99163831               58.05504942                0.01000001               -0.17293493               -0.03627901                0.10016660                0.17515962               -0.08290170                0.01662281
               3.95503518                0.99405787               58.05713279                0.01000000               -0.27468834               -0.00298749                0.10198157                0.40076309               -0.11659842                0.02488017
               4.95158956                1.00102331               58.05880892                0.01000000               -0.42010759                0.02858265                0.10853853                0.70741792               -0.15773200                0.03533569
               5.94663303                1.01403037               58.05998686                0.01000001               -0.49878265                0.00015812                0.11144660                1.10491961               -0.19514789                0.04517846
               6.94161391                1.03159793               58.06082192                0.90615818               -0.26693862               -0.03179263                0.10610256                0.76006011               -0.10505767               -0.00165488
               7.94129425                1.03397393               58.06377233                0.99999999               -0.03270219               -0.03495735                0.11153016               -0.00033478                0.00072410                0.00026644
               8.94095987                1.03639824               58.06672623                0.99999999               -0.03430482               -0.03508189                0.11596565                0.00179619                0.00053622                0.00185574
               9.94060816                1.03885576               58.06967185                0.99999997               -0.03517073               -0.03755694                0.12089852                0.00019025                0.00031424                0.00389107
              -0.03766905                1.99961946               58.04682947                0.01000002               -0.02655349                0.06766888                0.08466084                0.08936941                0.00334885                0.09670155
               0.96206541                1.99629778               58.04997243                0.01000000               -0.06496701               -0.07224515                0.09195246                0.04423572                0.02190372                0.06952773
               1.96103161                1.99245934               58.05349014                0.01000001               -0.13434945               -0.11431279                0.09762799                0.15380539                0.00468640                0.03471742
               2.95937843                1.99141736               58.05610399                0.01000000               -0.23610372               -0.07542035                0.10338789                0.47776363               -0.06196845                0.04132360
               3.95630953                1.99414008               58.05824556                0.01000000               -0.38118654               -0.03617111                0.10960979                0.84852556               -0.10717218                0.05438448
               4.95175469                2.00134853               58.05994870                0.01000001               -0.51779702               -0.03465415                0.11561296                1.23508270               -0.15506965                0.07411287
               5.94595359                2.01267828               58.06117499                0.01000000               -0.62541162               -0.12248063                0.12043804                1.75499543               -0.24648688                0.09560519
               6.93924646                2.03126273               58.06106850                0.01000000               -0.35283888               -0.43331833                0.12121008                1.27762924               -0.15200602                0.14180226
               7.93889682                2.03359899               58.06403719                0.60729670               -0.03438779               -0.03645395                0.11792845                0.00218645                0.00099931                0.00496075
               8.93855871                2.03603155               58.06699769                0.99999999               -0.03590551               -0.03623123                0.12380554                0.00776816                0.00025257                0.00203889
               9.93817871                2.03845501               58.06995242                0.99999999               -0.03799997               -0.04214021                0.13592023                0.00252813               -0.00016869                0.00383791
              -0.03255652                3.00121704               58.04929248                0.01000035               -0.06340798                0.14092353                0.09150428                0.07781810                0.00222644                0.18656288
               0.96680940                2.99512137               58.05214075                0.01000001               -0.04965383               -0.15124104                0.09513974                0.17799981               -0.00011087                0.13905211
               1.96645040                2.99100068               58.05491680                0.01000000               -0.09257692               -0.21433217                0.10224792                0.48426529               -0.01308243                0.08040036
               2.96495786                2.99012990               58.05748257                0.01000000               -0.21879421               -0.19593604                0.11051782                0.87905011               -0.04343458                0.07263684
               3.96207452                2.99333445               58.05968697                0.01008165               -0.36024222               -0.15877986                0.11919414                1.29679032               -0.08651133                0.08720745
               4.95775302                3.00033022               58.06153417                0.01000000               -0.51278926               -0.15441362                0.12679471                1.73551928               -0.14146053                0.11490044
               5.95181874                3.01158076               58.06288300                0.01000001               -0.57536183               -0.22439784                0.13159029                2.01882681               -0.18618110                0.15145908
               6.94624578                3.02293156               58.06419667                0.01000001               -0.76247858               -0.62160162                0.13869238                2.06221406               -0.25781276                0.22233794
               7.93656916                3.03324486               58.06439573                0.01000002               -0.49932848               -0.37243582                0.02002202                1.49102820               -0.13875517                0.13075240
               8.93625921                3.03567362               58.06726432                0.01000000               -0.03786739               -0.42858249                0.12812584                1.04027355               -0.00570976                0.11706338
               9.93581182                3.03801295               58.07021232                0.99999998               -0.04473969               -1.02541098                0.15170274                1.20415027               -0.00232852                0.39098526
              -0.02392136                4.00243793               58.05165916                0.01000000               -0.02368774                0.05576679                0.10376999                0.18449339               -0.00280865                0.17883863
               0.97584177                3.99327296               58.05422971                0.01000000               -0.01851289               -0.25806839                0.10270461                0.42616918               -0.00512636                0.13907213
               1.97570839                3.98817270               58.05674324                0.01000000               -0.06080518               -0.34897942                0.10834737                0.86606136               -0.01213839                0.10862337
               2.97462566                3.98749864               58.05918115                0.01007887               -0.18316823               -0.33042277                0.11881649                1.29236096               -0.02944616                0.10057642
               3.97204502                3.99096448               58.06144344                0.01000000               -0.32034455               -0.30720382                0.12971359                1.72072871               -0.06160749                0.12065778
               4.96821877                3.99826026               58.06347129                0.01000001               -0.41581142               -0.28423982                0.13905764                2.08923729               -0.11024496                0.16047129
               5.96372879                4.00819032               58.06519201                0.01000001               -0.46960622               -0.37549251                0.14383349                2.36330626               -0.19013504                0.21621240
               6.95882665                4.01883070               58.06641247                0.01016803               -0.38767331               -0.47979589                0.13186691                2.34347302               -0.31300070                0.25433803
               7.95597533                4.02615027               58.06728126                0.01000001               -0.21152831               -0.69210362                0.09029056                2.25239103               -0.47897378                0.37377692
               8.95459608                4.02745990               58.06984097                0.01000000                0.08038578               -0.78344247                0.07724981                1.42133991               -0.81454319                0.76740245
               9.95758304                4.01794679               58.07824130                0.01000002                0.29869610               -1.40272678                0.05263574                0.98715137               -0.72859328                1.33118631
              -0.01053671                5.00233238               58.05400055                0.01000000                0.01347315               -0.19580232                0.11673462                0.36755109               -0.00689711                0.16858752
               0.98959802                4.98996001               58.05639889                0.01000000                0.00413329               -0.40659306                0.11375181                0.77640746               -0.01116790                0.14421081
               1.98954595                4.98402110               58.05873074                0.01000001               -0.07923599               -0.45699150                0.11727253                1.26607582               -0.01273838                0.12157837
               2.98801330                4.98352145               58.06107580                0.01000000               -0.19092373               -0.46694982                0.12829114                1.70315949               -0.01286195                0.12004537
               3.98572748                4.98719037               58.06346297                0.01000001               -0.28506855               -0.41761656                0.14118507                2.03741902               -0.02452127                0.14664805
               4.98231193                4.99464543               58.06578417                0.01000001               -0.36065284               -0.40463496                0.15235820                2.32817319               -0.06005902                0.20416565
               5.97851442                5.00407091               58.06791896                0.01007876               -0.35783179               -0.43909080                0.15865928                2.44923579               -0.13046026                0.28042573
               6.97515529                5.01333564               58.06968751                0.01000000               -0.27633192               -0.55283574                0.15437381                2.36880072               -0.22744604                0.38395470
               7.97298778                5.01940278               58.07153252                0.01000000               -0.11328963               -0.65892930                0.13768294                2.00167293               -0.36821983                0.60177253
               8.97288950                5.02000477               58.07382953                0.01000000                0.07966481               -0.73252855                0.10026209                1.28576166               -0.34816384                0.81671297
               9.97458108                5.00995842               58.07806171                0.01000000                0.16915800               -0.66982825                0.14139437                0.65713877               -0.17266805                0.46564171
               0.00817440                5.99852189               58.05632690                0.01000002                0.15067904               -0.79799035                0.11828134                0.88933742               -0.01218848                0.16094202
               1.00968119                5.98514110               58.05861336                0.01000001               -0.03529720               -0.49204503                0.12230032                1.23019430               -0.02089107                0.14752099
               2.00746846                5.97903287               58.06079592                0.01000000               -0.20808099               -0.50848108                0.12925520                1.83820710               -0.01567180                0.12452567
               3.00551957                5.97815965               58.06311160                0.01000001               -0.28995193               -0.48146039                0.14092850                1.91776853                0.00284859                0.11184349
               4.00166942                5.98261215               58.06560990                0.01000001               -0.38089373               -0.49775537                0.15375175                2.21443724                0.01886488                0.15742668
               4.99790170                5.99016756               58.06831391                0.01007129               -0.38230651               -0.45123605                0.16572413                2.36875824                0.01055880                0.22469087
               5.99402329                5.99940851               58.07095888                0.01000001               -0.35154564               -0.44358373                0.17130526                2.35763289               -0.02459253                0.32218928
               6.99087079                6.00777399               58.07358234                0.01000000               -0.23418147               -0.50297250                0.17125517                2.10966947               -0.08071515                0.46432199
               7.98933966                6.01297169               58.07617750                0.01000000               -0.05575534               -0.59182526                0.16392772                1.66864163               -0.12067257                0.62327340
               8.98975568                6.01280933               58.07897292                0.01000005                0.07394286               -0.62655123                0.16631383                0.97529683               -0.07930718                0.69803172
               9.99081852                6.00455022               58.08253566                0.01000000                0.10628389               -0.35338346                0.18852053                0.47664013               -0.01586922                0.51703262
               0.03401160                6.98637257               58.05866306                0.95369918               -0.03206814               -0.62089559                0.09139022                0.98145763               -0.01294198                0.08553130
               1.03369092                6.98011911               58.06091787                0.62874168               -0.03600259               -0.26900856                0.12104909                0.88983970               -0.02696300                0.07438341
               2.03329155                6.97385147               58.06290134                0.01000000               -0.54507672               -0.28122739                0.14338034                1.29563528               -0.04100763                0.06860237
               3.02278939                6.97389224               58.06486932                0.01000000               -0.76416209               -0.56651495                0.15684380                1.86356929                0.01390572                0.13550892
               4.01800831                6.97723527               58.06777949                0.01014652               -0.49493232               -0.53002718                0.16421699                2.04821476                0.07291024                0.12803636
               5.01289074                6.98562071               58.07077916                0.01000000               -0.49738267               -0.44959428                0.17574488                2.29744317                0.09333189                0.21525599
               6.00806065                6.99519923               58.07410884                0.01000000               -0.45526200               -0.31972069                0.18180332                2.11364679                0.10815167                0.32689094
               7.00378550                7.00327619               58.07765721                0.01000000               -0.33676925               -0.33959013                0.18370246                1.67104598                0.10606502                0.46425980
               8.00132527                7.00756628               58.08120405                0.01001872               -0.14842986               -0.43635705                0.18182020                1.11305350                0.08398410                0.61413637
               9.00081690                7.00747374               58.08442117                0.01000002               -0.03465824               -0.43090823                0.18727067                0.55072580                0.04134615                0.66043253
              10.00063210                7.00289075               58.08702566                0.01000000               -0.01847975               -0.07302665                0.20222457                0.21811654                0.02506044                0.53222074
               0.04031048                7.98610397               58.05949355                1.00000000               -0.03114003               -0.02666441                0.08982804                0.00021745               -0.00541244                0.01224338
               1.03999908                7.97976093               58.06173798                0.99999998               -0.03512259               -0.03565653                0.11873720                0.00077208               -0.00464719                0.00261439
               2.03960803                7.97340832               58.06401370                0.53925683               -0.02959569               -0.04432924                0.14656717               -0.00994405                0.06700580                0.00868802
               3.03940717                7.96682935               58.06770170                0.01000007               -0.43513906               -0.36763625                0.15485498                1.06852973                0.04418095                0.01853269
               4.03090525                7.97201161               58.06938181                0.01000001               -0.67602867               -0.85397963                0.17879874                2.07851612                0.06529502                0.10683883
               5.02588660                7.98117568               58.07305559                0.01000000               -0.61322553               -0.27229012                0.18317378                2.14625219                0.18320337                0.18290367
               6.01864074                7.99301409               58.07704015                0.01000000               -0.69809661               -0.06809975                0.18860588                1.74720543                0.23615467                0.27557152
               7.01192466                8.00098218               58.08150964                0.01000590               -0.56187779               -0.09632068                0.18973774                1.10825769                0.30248136                0.38929468
               8.00740318                8.00424455               58.08641788                0.01000002               -0.32394682               -0.19169758                0.19157104                0.50515568                0.29866331                0.53750597
               9.00544573                8.00419117               58.09041346                0.01000003               -0.15281712               -0.24155384                0.19149475                0.02764733                0.21134575                0.84835749
              10.00434684                8.00308969               58.09315492                0.01000001               -0.10988857               -0.05058009                0.19300923               -0.04167716                0.16075798                0.62227038
               0.04670204                8.98583928               58.06037635                0.99999997               -0.03000219               -0.02624701                0.08782224                0.00027434                0.00055047                0.01189730
               1.04640201                8.97940598               58.06260088                0.99999999               -0.03388920               -0.03548930                0.11685598                0.00070240                0.00325380                0.00378050
               2.04602425                8.97296489               58.06488493                0.99999999               -0.04226605               -0.04433305                0.14700598                0.00176970                0.00942362               -0.00186674
               3.04555669                8.96653952               58.06719778                0.30836402               -0.03959748               -0.04209795                0.18335340               -0.00926890                0.10329853               -0.07557433
               4.04523230                8.96015567               58.07128217                0.01000000               -0.53716962               -0.62858770                0.19903484                1.72220667                0.16869562                0.05032588
               5.03481330                8.98017490               58.07491690                0.01000000               -1.10170233                0.13942759                0.18926089                1.85200586                0.21277039                0.10906950
               6.02319825                8.99383724               58.07926183                0.01000005               -1.00465508                0.16479106                0.19303036                1.06223490                0.31820228                0.16179021
               7.01472020                9.00134978               58.08433826                0.01000002               -0.74894282                0.08908714                0.19627071                0.52983019                0.44104793                0.22441282
               8.00821940                9.00373233               58.09042129                0.01000000               -0.60977457                0.04114420                0.19507684                0.08958374                0.73268785                0.34204253
               9.00252471                9.00264267               58.10023229                1.00000000               -0.31089388               -0.10367353                0.17553595               -0.20088788                0.50632898                0.50619300
              10.00200152                9.00187915               58.09990738                1.00000000               -0.05231859               -0.08634295                0.17300873               -0.15552294               -0.00043723                0.35200920
               0.05318258                9.98557903               58.06120983                1.00000000               -0.02950595               -0.02602468                0.08675928               -0.00473423                0.00823811                0.00880898
               1.05288752                9.97905115               58.06343850                0.99989928               -0.03363479               -0.03548295                0.11579723               -0.00431779                0.01126374                0.00252517
               2.05250989                9.97252166               58.06572815                1.00000000               -0.04282573               -0.04432287                0.14570930               -0.00462438                0.01411570               -0.00210508
               3.05203101                9.96598739               58.06797879                0.99999999               -0.03979454               -0.05521257                0.18152558               -0.00665879                0.11463907               -0.01332543
               4.05171399                9.95943986               58.07226844                0.01000001               -1.13929299               -0.07158181                0.19894231                1.54701126                0.18530206               -0.00071136
               5.02924515                9.98396423               58.07595275                0.01000001               -1.65017166                0.37893244                0.19114117                1.28668767                0.19344145                0.05154755
               6.01871056                9.99630991               58.08020109                0.01000001               -0.83094835                0.24726745                0.19400277                0.49121556                0.31519109                0.07787423
               7.01262618               10.00276393               58.08533671                0.01000001               -0.54042938                0.14141465                0.19898919                0.22847410                0.48964747                0.10907611
               8.00790197               10.00506743               58.09227603                0.01000000               -0.46725151                0.13351052                0.19114026               -0.06405395                0.69281622                0.19018624
               9.00328115               10.00211770               58.09993564                1.00000000               -0.25692749               -0.05249679                0.17402161               -0.10958573                0.39969828                0.00045501
              10.00276342               10.00136283               58.09961066                0.99999990               -0.05177264               -0.05163155                0.17150995                0.00070346                0.00038115               -0.00043720
              -0.04761164               -0.00054652               59.04617951                0.99804329               -0.02303784               -0.02294646                0.07368708                0.00193697               -0.00810135                0.00762281
               0.95215798               -0.00391496               59.04946074                0.99999999               -0.02398335               -0.02497061                0.08022508                0.00104872               -0.00868891               -0.00154098
               1.95190869               -0.00726420               59.05272932                0.01000001                0.06689629               -0.02699414                0.08675236                0.10084431               -0.04949085               -0.00348141
               2.95349590               -0.00859689               59.05518915                0.01000001                0.13646472               -0.05670171                0.09486832                0.08241153               -0.08876341                0.00866215
               3.95463798               -0.00647976               59.05734297                0.01000000                0.05608296               -0.01722836                0.09929418                0.17267804               -0.11379379                0.01550141
               4.95461756                0.00020287               59.05911093                0.01000000               -0.15691581                0.02152955                0.10509827                0.32893120               -0.14458753                0.02100938
               5.95149967                0.01222506               59.06045734                0.01000003               -0.67955829                0.13411623                0.10732982                0.78375323               -0.17869339                0.01724583
               6.94102640                0.03157664               59.06150164                0.97175402               -0.53778518               -0.03006935                0.09243133                0.85023694               -0.09661793               -0.00087054
               7.94074396                0.03398014               59.06449271                1.00000000               -0.02891053               -0.03129212                0.09689911                0.00067734                0.00148712                0.00090219
               8.94044819                0.03642770               59.06749358                0.99999999               -0.03023233               -0.03250568                0.10137777                0.00070397                0.00190137                0.00174388
               9.94013932                0.03891922               59.07048504                0.99997603               -0.03088693               -0.03425040                0.10569806               -0.00143785                0.00213097                0.00392044
              -0.04422382                0.99922402               59.04692391                0.99999999               -0.02488646               -0.02380766                0.07965512                0.00096322                0.00139609                0.00811581
               0.95552731                0.99583533               59.05020712                0.01000000               -0.02590402               -0.02590906                0.08619515                0.00007478                0.00424925               -0.00446536
               1.95525809                0.99246585               59.05354874                0.01000000               -0.07997553               -0.05566224                0.09272473                0.05398388               -0.03511584                0.00191638
               2.95392780                0.99083610               59.05604166                0.01000001               -0.16466048               -0.04042632                0.10013275                0.18754452               -0.08766632                0.01607719
               3.95196489                0.99334795               59.05817769                0.01000000               -0.26866676               -0.00583593                0.10419450                0.41143438               -0.12040644                0.02961222
               4.94855446                1.00041817               59.05989574                0.01000000               -0.41572837                0.02604362                0.10752415                0.71556886               -0.16112987                0.04162887
               5.94365032                1.01356622               59.06109999                0.01000001               -0.49516188               -0.00336173                0.11051261                1.11282990               -0.20353534                0.04836589
               6.93865123                1.03127595               59.06188730                0.90206298               -0.26625558               -0.03239915                0.10736984                0.76799711               -0.10912015                0.00016624
               7.93832521                1.03366722               59.06488997                0.99999995               -0.03327705               -0.03321780                0.11133038               -0.00009848                0.00061638               -0.00159637
               8.93798569                1.03610265               59.06788520                0.99999999               -0.03458919               -0.03432257                0.11546658                0.00025321               -0.00033300                0.00058807
               9.93763342                1.03857672               59.07087758                0.99991541               -0.03522638               -0.03675543                0.12007783               -0.00177645               -0.00054232                0.00705447
              -0.04081500                1.99897733               59.04768093                0.01000000               -0.02673609                0.07066359                0.08562998                0.10048000                0.00334445                0.09697866
               0.95891764                1.99556685               59.05089305                0.01000000               -0.05986997               -0.07472422                0.09217212                0.05542288                0.02137785                0.06774109
               1.95798760                1.99162255               59.05446952                0.01000001               -0.12764714               -0.11633142                0.09915206                0.17055589                0.00682233                0.03145308
               2.95636470                1.99059459               59.05715815                0.01000000               -0.23515009               -0.07686835                0.10738683                0.49870774               -0.05938476                0.04283217
               3.95328460                1.99340352               59.05936110                0.01000000               -0.38270122               -0.03707346                0.11402490                0.86623815               -0.10713833                0.06233607
               4.94871067                2.00072375               59.06112618                0.01000001               -0.51930551               -0.03525879                0.11880545                1.24566039               -0.15573156                0.08562564
               5.94289849                2.01215782               59.06239687                0.01000000               -0.62126649               -0.12472083                0.12291772                1.75748585               -0.24730738                0.10497674
               6.93628534                2.03092866               59.06229283                0.01000000               -0.34915975               -0.44793312                0.12252535                1.27279581               -0.15725705                0.14717975
               7.93591529                2.03331578               59.06521961                0.36790275               -0.03707952               -0.02799875                0.12478737               -0.00500116               -0.00308984               -0.04786544
               8.93554375                2.03574125               59.06823712                1.00000000               -0.03798226               -0.03787364                0.12865568                0.00162718                0.00101082               -0.00371030
               9.93515565                2.03818411               59.07131468                0.99999999               -0.03881035               -0.04142119                0.13501331               -0.00158676                0.00279150                0.00963969
              -0.03539327                3.00063729               59.05020756                0.01000000               -0.06161791                0.14378957                0.09155235                0.08560716                0.00380034                0.18989503
               0.96399055                2.99434085               59.05308349                0.01000001               -0.04826235               -0.15353123                0.09404994                0.19247496                0.00636807                0.13135399
               1.96364148                2.99013923               59.05594080                0.01000000               -0.09347799               -0.21534877                0.10367339                0.50465504               -0.00305174                0.07408230
               2.96212099                2.98929873               59.05860370                0.01000000               -0.22404955               -0.19522079                0.11508327                0.90407301               -0.03450224                0.07385198
               3.95916049                2.99260648               59.06090893                0.01008665               -0.37038112               -0.15610463                0.12595683                1.31980809               -0.07990828                0.09632651
               4.95471337                2.99971299               59.06284043                0.01000000               -0.52826825               -0.14896645                0.13482369                1.74833272               -0.13676366                0.12762749
               5.94859512                3.01107180               59.06425380                0.01000001               -0.58820910               -0.21778179                0.14213036                2.00034545               -0.18067903                0.16272607
               6.94294918                3.02231728               59.06563212                0.01000000               -0.75912686               -0.61625704                0.14284783                2.01038359               -0.30229427                0.22574666
               7.93341259                3.03310724               59.06467624                0.01003957               -0.48996418               -0.37273905                0.12106929                1.26882617               -0.15626406                0.13258779
               8.93314990                3.03534517               59.06854682                0.04988380               -0.03483101                0.01426608                0.14106545                0.08682753                0.04032775                0.11313595
               9.93271597                3.03774829               59.07173839                0.99999997               -0.04339335               -0.05377737                0.14969723                0.09223497                0.00591984                0.15199241
              -0.02650996                4.00185312               59.05272891                0.01000000               -0.02248311                0.05020443                0.10249942                0.18370956                0.00382544                0.18411912
               0.97326521                3.99249623               59.05524460                0.01000000               -0.01836088               -0.25769222                0.09768721                0.42940934                0.00795345                0.13322850
               1.97312282                3.98731557               59.05781606                0.01000000               -0.06431524               -0.34732512                0.10720089                0.88154975                0.00648474                0.10230346
               2.97197890                3.98669017               59.06037824                0.01008386               -0.19281604               -0.32741626                0.12226549                1.31781301               -0.01242705                0.10215921
               3.96926650                3.99028142               59.06277072                0.01000000               -0.33834470               -0.30132081                0.13695862                1.74988395               -0.04925175                0.12960407
               4.96521201                3.99774442               59.06491575                0.01000001               -0.44826949               -0.27196154                0.14994338                2.11255590               -0.10185690                0.17332853
               5.96030111                4.00780219               59.06671509                0.01000001               -0.53772151               -0.35306169                0.16194768                2.37295609               -0.18701884                0.22809278
               6.95445758                4.01860351               59.06793004                0.01000000               -0.60185902               -0.44360754                0.17073753                2.30498759               -0.31956935                0.25821735
               7.94826393                4.02586100               59.06872523                0.01000001               -1.09091615               -0.58031554                0.21261677                2.52319862               -0.49060224                0.43536104
               8.93263925                4.03602657               59.07131497                0.01000000               -0.80349086               -0.50527121                0.09780036                2.18634473               -0.99777042                0.70069664
               9.93219411                4.03710856               59.07500514                0.01000001               -0.04451425               -1.23654733               -0.14699331                1.92621806               -1.10079815                1.34224142
              -0.01300530                5.00164138               59.05525131                0.01000003                0.01215794               -0.20448110                0.13657741                0.36578211               -0.00220226                0.17632095
               0.98711628                4.98918700               59.05753881                0.01000000                0.00419156               -0.40717619                0.10839713                0.77232445                0.00059981                0.14592409
               1.98707853                4.98319272               59.05988290                0.01000001               -0.08024414               -0.45598506                0.10985769                1.27260967                0.00751464                0.12190844
               2.98551140                4.98275040               59.06236079                0.01000000               -0.19873056               -0.46494506                0.12870700                1.72470810                0.00712233                0.12525885
               3.98310392                4.98658007               59.06489904                0.01000001               -0.30338392               -0.41183474                0.14732907                2.07327310               -0.00974887                0.15808036
               4.97944372                4.99427376               59.06736296                0.01000001               -0.39543878               -0.39007329                0.16376502                2.37413315               -0.05028950                0.21747596
               5.97519515                5.00401057               59.06960594                0.01009474               -0.42267996               -0.41325387                0.17751044                2.49701940               -0.12131829                0.29238670
               6.97099012                5.01344513               59.07147293                0.01002795               -0.43708231               -0.50560604                0.19705155                2.51528137               -0.21423439                0.38140169
               7.96645350                5.02150093               59.07324917                0.01000000               -0.26804448               -0.56445153                0.19827988                2.43895727               -0.36962058                0.60436757
               8.96562923                5.02523975               59.07528822                0.01000000                0.13114224               -1.06726426                0.21847772                2.22476155               -0.32214215                0.79510751
               9.96907635                5.01301735               59.08014148                0.01000001                0.34471139               -1.58333311                0.19164879                1.51229549               -0.12494831                0.65946537
               0.00571444                5.99776350               59.05761085                0.01000002                0.14459145               -0.79965500                0.15463767                0.88307538               -0.01641560                0.12959865
               1.00716035                5.98435271               59.05985883                0.01000001               -0.03514136               -0.49411930                0.12403055                1.22344962               -0.02372916                0.14642745
               2.00501161                5.97819587               59.06207361                0.01000000               -0.20373158               -0.51285058                0.12177023                1.83620597               -0.00936884                0.13803110
               3.00308572                5.97739127               59.06449608                0.01000001               -0.29015037               -0.48703761                0.13757216                1.93772165                0.01479137                0.13324225
               3.99920860                5.98204473               59.06717118                0.01000001               -0.39107765               -0.49561187                0.15776031                2.25539024                0.02890299                0.16670464
               4.99526417                5.98994295               59.07001940                0.01008918               -0.40692380               -0.44384135                0.17536179                2.43230292                0.01540665                0.23924605
               5.99107013                5.99953711               59.07276084                0.01000000               -0.39956621               -0.42755759                0.18800820                2.44835559               -0.02391113                0.33009944
               6.98727284                6.00849139               59.07542732                0.01000000               -0.29108347               -0.47223200                0.19607408                2.26293175               -0.08300328                0.46299073
               7.98524846                6.01457197               59.07803391                0.01000000               -0.08273861               -0.64118658                0.20668238                1.92134047               -0.11924124                0.62151301
               8.98561807                6.01468129               59.08090714                0.01003427                0.08181855               -0.83832826                0.21269502                1.17270340               -0.08148668                0.70313166
               9.98688483                6.00544190               59.08442924                0.01000000                0.12667576               -0.50299526                0.20224905                0.53236880               -0.02860942                0.49510023
               0.03147780                6.98564828               59.05959010                0.96036352               -0.03248974               -0.61957213                0.09420105                0.97293339               -0.01278994                0.06745931
               1.03115290                6.97930461               59.06212789                0.58006174               -0.03568542               -0.27012930                0.12108640                0.88328328               -0.02954596                0.07253933
               2.03076409                6.97293571               59.06433824                0.01000000               -0.53679620               -0.28392461                0.14055427                1.29108276               -0.04376048                0.07661564
               3.02041698                6.97300965               59.06657230                0.01000000               -0.75520215               -0.56110545                0.15629141                1.86759590                0.00259316                0.10136476
               4.01566005                6.97666783               59.06935593                0.01016682               -0.49097890               -0.53915608                0.16131191                2.09712040                0.05718624                0.14521941
               5.01059740                6.98539693               59.07257936                0.01001956               -0.50231157               -0.44893796                0.18297106                2.36600274                0.08603064                0.22972221
               6.00561382                6.99545942               59.07598438                0.01000000               -0.46917515               -0.31649621                0.19247400                2.21251667                0.10207056                0.33171229
               7.00121390                7.00400049               59.07958149                0.01000000               -0.34616994               -0.34570981                0.19928848                1.80844590                0.10172259                0.46570357
               7.99869042                7.00867720               59.08313784                0.01000002               -0.15002636               -0.47404948                0.20494582                1.25645581                0.08022808                0.61502690
               8.99821337                7.00847318               59.08639925                0.01000002               -0.02439613               -0.49282057                0.20776395                0.64128436                0.04305529                0.65687990
               9.99820249                7.00295744               59.08914217                0.01000000               -0.00108746               -0.12877947                0.21144442                0.26347240                0.02745451                0.52643093
               0.03786043                7.98537206               59.06040214                1.00000000               -0.03218494               -0.02740459                0.09277055                0.00025829               -0.00549925                0.01080169
               1.03753858                7.97895012               59.06293079                0.99999998               -0.03661033               -0.03521120                0.11868418                0.00060550               -0.00849181                0.00103400
               2.03712823                7.97251738               59.06541164                0.51140572               -0.04165326               -0.04150424                0.13908197                0.00574721                0.00047259                0.01021518
               3.03670552                7.96616916               59.06811505                0.01000933               -0.41822507               -0.36625864                0.08426230                1.07793801                0.02276061                0.03387176
               4.02876373                7.97126161               59.07128397                0.01000001               -0.64564438               -0.87160360                0.17583389                2.09975636                0.10752410                0.10840172
               5.02379263                7.98096419               59.07486438                0.01000000               -0.60234123               -0.27935497                0.18388389                2.21228152                0.17029242                0.18895799
               6.01671690                7.99320719               59.07896086                0.01000000               -0.67843270               -0.07871042                0.19328535                1.83218388                0.23269805                0.27745731
               7.01022398                8.00157720               59.08345072                0.01003320               -0.54060105               -0.11447690                0.20030882                1.21092468                0.29609916                0.39229847
               8.00590488                8.00509098               59.08839127                0.01000002               -0.30302311               -0.21998429                0.20146927                0.60782460                0.29661809                0.54187073
               9.00416352                8.00482488               59.09238347                0.01000004               -0.13595592               -0.27612817                0.20061624                0.12096505                0.20652530                0.83839366
              10.00318576                8.00286631               59.09510163                0.01000000               -0.09777538               -0.03892390                0.19914783                0.01075700                0.15354794                0.59808841
               0.04432684                8.98510019               59.06126546                1.00000000               -0.03071521               -0.02702482                0.09102517                0.00065799               -0.00084557                0.01055425
               1.04401969                8.97860039               59.06376753                0.99999999               -0.03334228               -0.03525350                0.11650206                0.00202026                0.00040073                0.00232907
               2.04365999                8.97210563               59.06631296                1.00000000               -0.03940880               -0.04202764                0.13969505                0.00904195                0.00741967                0.00185844
               3.04323151                8.96568448               59.06894408                0.40403387               -0.03999249               -0.05420210                0.17600439                0.00919747                0.10102617               -0.00628089
               4.04286014                8.95923576               59.07327120                0.01000000               -0.51670296               -0.64175153                0.18774095                1.73785896                0.15655630                0.03748439
               5.03289745                8.97980984               59.07678954                0.01000000               -1.06078285                0.12335890                0.18232060                1.90166669                0.19798102                0.11095244
               6.02164449                8.99388521               59.08119529                0.01003540               -0.96744287                0.14693005                0.19647332                1.11778840                0.31124047                0.16378495
               7.01354859                9.00171095               59.08632856                0.01000002               -0.70226281                0.06543508                0.20124336                0.58201810                0.43691245                0.23049973
               8.00759923                9.00427751               59.09239644                0.01000000               -0.53456279                0.00195408                0.20002352                0.14294950                0.72237307                0.34085363
               9.00285734                9.00295062               59.10198773                1.00000000               -0.26322341               -0.11990426                0.17561556               -0.13190278                0.49671690                0.49643296
              10.00233476                9.00217896               59.10163699                0.99999999               -0.05225760               -0.06018106                0.17293934               -0.08124074               -0.00046285                0.34191852
               0.05087319                9.98483156               59.06208990                0.99997365               -0.02996372               -0.02686269                0.09014679               -0.00401613                0.00527620                0.00754232
               1.05057355                9.97824505               59.06459028                0.99999999               -0.03241050               -0.03553406                0.11555428               -0.00235016                0.00878749                0.00189537
               2.05022498                9.97167683               59.06718259                0.99999998               -0.04071064               -0.04287980                0.14097081               -0.00149802                0.01733612                0.00151181
               3.04975934                9.96508512               59.06983848                1.00000000               -0.04147151               -0.05993598                0.18570183               -0.00972979                0.11326061               -0.00127382
               4.04939555                9.95842658               59.07425099                0.01000001               -1.12914126               -0.08091797                0.18786084                1.57085303                0.17142888                0.01147078
               5.02717651                9.98343137               59.07784876                0.01000001               -1.61119987                0.36215339                0.18487489                1.31386666                0.18111935                0.04936189
               6.01717155                9.99614579               59.08216222                0.01000001               -0.78522389                0.22605773                0.20143029                0.52543297                0.30471588                0.08027844
               7.01147204               10.00288590               59.08738771                0.01000001               -0.48236735                0.11749456                0.20663790                0.24155796                0.48720969                0.11131097
               8.00752420               10.00513006               59.09421286                0.01000000               -0.39240119                0.08525488                0.20017064               -0.03045803                0.67569466                0.18564272
               9.00362401               10.00242679               59.10167625                0.99999999               -0.22099704               -0.05238291                0.17408804               -0.09670121                0.39093776                0.00032989
              10.00310426               10.00166269               59.10132581                0.99999999               -0.05197483               -0.05162711                0.17141495                0.00054012                0.00066809               -0.00037612
              -0.05100652               -0.00124461               60.04691761                0.99907640               -0.02299137               -0.02308292                0.07392548                0.00187596               -0.00809035                0.00760605
               0.94876357               -0.00470662               60.05026047                0.99999999               -0.02382613               -0.02487171                0.07971599                0.00093221               -0.00868092               -0.00154665
               1.94851696               -0.00814828               60.05359056                0.01000000                0.07468397               -0.02666488                0.08550170                0.10989527               -0.04808287               -0.00347732
               2.95025725               -0.00938883               60.05614007                0.01000000                0.14823264               -0.06203080                0.09642239                0.09381567               -0.09105194                0.00948243
               3.95148161               -0.00715958               60.05832595                0.01000000                0.06577339               -0.02084347                0.10107353                0.17995042               -0.12148538                0.01833401
               4.95157271               -0.00037254               60.06015670                0.01000000               -0.15081791                0.02131809                0.09578640                0.33191050               -0.16425777                0.03402288
               5.94846525                0.01173473               60.06155334                0.01000003               -0.67758127                0.13234271                0.11432175                0.78467099               -0.19780514                0.02365532
               6.93802109                0.03110986               60.06242043                0.97063700               -0.53618122               -0.02997945                0.09167961                0.85139076               -0.10721140               -0.00049848
               7.93774163                0.03352167               60.06545482                1.00000000               -0.02853917               -0.03065601                0.09534450                0.00045294                0.00177176                0.00001674
               8.93745031                0.03598482               60.06849564                0.99999998               -0.02960026               -0.03183581                0.09894140                0.00042028                0.00204768                0.00119888
               9.93714962                0.03849948               60.07152522                1.00000000               -0.03006824               -0.03322778                0.10246526               -0.00223914                0.00227153                0.00430735
              -0.04752575                0.99852456               60.04772350                1.00000000               -0.02495300               -0.02400036                0.08025855                0.00101504                0.00139988                0.00810477
               0.95222472                0.99504466               60.05106835                0.01000000               -0.02586201               -0.02585722                0.08604754                0.00006623                0.00425099               -0.00446448
               1.95195701                0.99158507               60.05447153                0.01000000               -0.07618350               -0.05776885                0.09183349                0.06661029               -0.03381242                0.00288500
               2.95070105                0.98999086               60.05705208                0.01000000               -0.15920217               -0.04495976                0.10358308                0.20444035               -0.08907678                0.01844304
               3.94877297                0.99263198               60.05921668                0.01000000               -0.26281956               -0.00924270                0.10751019                0.42834492               -0.13231793                0.03786803
               4.94544466                0.99984064               60.06095940                0.01000000               -0.41011041                0.02444483                0.10025130                0.72288762               -0.18010822                0.05962223
               5.94057076                1.01305816               60.06219711                0.01000001               -0.49015684               -0.00553601                0.10243542                1.11724846               -0.20418253                0.05890780
               6.93564153                1.03081006               60.06296931                0.90037129               -0.26310429               -0.03241731                0.10861365                0.77072220               -0.11284657               -0.00045668
               7.93530868                1.03321511               60.06599893                1.00000000               -0.03379630               -0.03331294                0.11170815                0.00027492               -0.00007948               -0.00036344
               8.93496560                1.03566646               60.06903556                0.99999999               -0.03480557               -0.03445431                0.11534332               -0.00071762                0.00012503                0.00128876
               9.93461257                1.03816721               60.07207340                0.99999999               -0.03530347               -0.03562490                0.11900323               -0.00343577                0.00020009                0.00669270
              -0.04402641                1.99827538               60.04854207                0.01000001               -0.02692040                0.07211975                0.08660394                0.11475385                0.00333886                0.09663217
               0.95570438                1.99477623               60.05181587                0.01000000               -0.05353120               -0.08238749                0.09239217                0.06998785                0.02232905                0.06544112
               1.95490296                1.99069634               60.05547318                0.01000001               -0.12026200               -0.12246449                0.10344694                0.19239455                0.01132522                0.02889810
               2.95329914                1.98971197               60.05825173                0.01000000               -0.23521149               -0.08020082                0.11340290                0.52789287               -0.05652661                0.04531726
               3.95019873                1.99265556               60.06052606                0.01000000               -0.38474246               -0.03903116                0.12045462                0.89355128               -0.10968370                0.07465641
               4.94560429                2.00011635               60.06232480                0.01000001               -0.51789672               -0.03737182                0.12374162                1.25983302               -0.16091858                0.10606415
               5.93984080                2.01162401               60.06363334                0.01000000               -0.61628565               -0.12705468                0.12214001                1.75939328               -0.25462870                0.12825126
               6.93327858                2.03046151               60.06351901                0.01000003               -0.34750343               -0.45003894                0.12454188                1.26836625               -0.15860447                0.14847209
               7.93289073                2.03285541               60.06653294                0.36776831               -0.03973624               -0.04120568                0.13143011                0.00273620               -0.00219816               -0.01399886
               8.93248386                2.03529573               60.06957080                0.99999993               -0.04056568               -0.04039851                0.13408883               -0.00152020               -0.00063618               -0.00067715
               9.93207942                2.03778698               60.07265269                0.99999999               -0.04044398               -0.04024316                0.13457426               -0.00414940                0.00050368                0.00768536
              -0.03823237                2.99996696               60.05112353                0.01000001               -0.05641123                0.14005918                0.09172925                0.10050494                0.00384346                0.18371618
               0.96120352                2.99339691               60.05402175                0.01000000               -0.04492355               -0.16470103                0.09851683                0.21890612                0.01457235                0.11488913
               1.96086916                2.98913578               60.05699027                0.01000000               -0.09519152               -0.22098335                0.11022203                0.53957024                0.01193220                0.06171232
               2.95929969                2.98838684               60.05978423                0.01000000               -0.23147734               -0.19636197                0.12365383                0.94194483               -0.02090543                0.07256930
               3.95623962                2.99185136               60.06220610                0.01009202               -0.38134069               -0.15445537                0.13524907                1.35150503               -0.07019152                0.10560923
               4.95167288                2.99909320               60.06423064                0.01000000               -0.54130726               -0.14560217                0.14364623                1.76493379               -0.12775509                0.14555968
               5.94541347                3.01051706               60.06572561                0.01000001               -0.59477140               -0.21119881                0.15084922                1.99247053               -0.17232604                0.18448488
               6.93977745                3.02180928               60.06705362                0.01000000               -0.74421459               -0.61536390                0.15153625                1.95102364               -0.26416486                0.26066666
               7.93052918                3.03239099               60.06681712                0.01004976               -0.48869149               -0.32854217                0.19266132                1.14684166               -0.15027547                0.18435947
               8.93000362                3.03485849               60.07008563                0.05869506               -0.04910550               -0.02816449                0.15425090                0.04241281                0.00720198                0.05617871
               9.92954707                3.03736234               60.07320627                0.99483371               -0.04565505               -0.06992316                0.14956628                0.05575124               -0.00173867                0.08359753
              -0.02887622                4.00107657               60.05370915                0.01000000               -0.02100992                0.05049485                0.09885697                0.19439454                0.01510687                0.18856426
               0.97091368                3.99148221               60.05618345                0.01000000               -0.02096735               -0.25663294                0.09509670                0.44875065                0.03339165                0.09686617
               1.97070443                3.98627668               60.05888726                0.01000000               -0.07456093               -0.34670333                0.11240117                0.91538129                0.04173330                0.07527139
               2.96942246                3.98578473               60.06162646                0.01008413               -0.20909780               -0.32390287                0.13186149                1.35648440                0.01522536                0.09559681
               3.96652248                3.98956646               60.06418262                0.01000000               -0.35925976               -0.29499174                0.14710576                1.78551459               -0.02954661                0.13592688
               4.96223727                3.99720431               60.06647015                0.01000001               -0.47741746               -0.26009504                0.16098286                2.13799660               -0.08189950                0.18553026
               5.95697413                4.00740003               60.06843097                0.01000001               -0.59060727               -0.33220843                0.17583939                2.37572636               -0.15548781                0.24369575
               6.95042512                4.01815423               60.06982722                0.01000005               -0.70978853               -0.41714399                0.19922699                2.31672285               -0.21535537                0.28537580
               7.94277836                4.02628457               60.07153360                0.01000001               -1.10321784               -0.51047701                0.23869628                2.39145590               -0.33870070                0.43285117
               8.92836076                4.03473244               60.07179698                0.01000000               -0.72958108               -0.42718740                0.08582760                1.98273398               -0.19110333                0.30046926
               9.92818674                4.03638852               60.07530143                0.01000001               -0.01740290               -1.18193614                0.06692351                1.80703328               -0.02877789                0.37241720
              -0.01515576                5.00097685               60.05673209                0.01000003                0.01341896               -0.21507498                0.11064026                0.34005710                0.04060954                0.16420725
               0.98497843                4.98826425               60.05856683                0.01000000                0.00150147               -0.40008176                0.09062609                0.75275141                0.06593486                0.11128000
               1.98487427                4.98220172               60.06092789                0.01000001               -0.09194131               -0.44692620                0.11040988                1.27919693                0.06721212                0.09723727
               2.98313960                4.98190879               60.06364994                0.01000000               -0.21719667               -0.45858751                0.13426651                1.75225918                0.04973631                0.12106483
               3.98053033                4.98595152               60.06640956                0.01000001               -0.32701834               -0.40385495                0.15687008                2.10921004                0.01623615                0.16439262
               4.97659923                4.99389130               60.06905947                0.01000001               -0.42761283               -0.37341159                0.17440107                2.41521379               -0.02813556                0.22675949
               5.97197808                5.00387289               60.07146917                0.01011578               -0.46859303               -0.38839867                0.19137343                2.53690634               -0.08372929                0.29493984
               6.96722737                5.01346640               60.07362854                0.01004801               -0.50989940               -0.46144958                0.21543620                2.59105457               -0.15174904                0.37942823
               7.96178009                5.02218145               60.07549812                0.01000000               -0.38365146               -0.53856410                0.22846366                2.57724961               -0.18018445                0.46411351
               8.95955434                5.02631474               60.07819909                0.01000000                0.02977429               -0.94857548                0.24852119                2.24560078               -0.16746634                0.59368722
               9.96237557                5.01372362               60.08189469                0.01000001                0.28212305               -1.54684884                0.15100427                1.49165759               -0.15265006                0.55966679
               0.00335013                5.99677507               60.05941965                0.01000002                0.13937202               -0.80231947                0.25385878                0.86235046                0.02194738                0.09997315
               1.00474385                5.98348058               60.06109397                0.01000001               -0.03531462               -0.48831580                0.11079002                1.19682609               -0.00828764                0.15021987
               2.00264383                5.97733815               60.06323132                0.01000000               -0.20130057               -0.50779776                0.09631041                1.81150348                0.04296197                0.13509566
               3.00071784                5.97661298               60.06586304                0.01000001               -0.29598356               -0.48041082                0.13899966                1.94175792                0.05146145                0.14112239
               3.99672416                5.98148936               60.06876511                0.01000001               -0.40488314               -0.49623305                0.16474966                2.28688645                0.05036928                0.17338271
               4.99262017                5.98973608               60.07182114                0.01010874               -0.42935062               -0.42605656                0.18279380                2.47631848                0.03446530                0.24607033
               5.98813715                5.99963206               60.07471904                0.01002273               -0.43412607               -0.41197163                0.19883274                2.51555083               -0.00290940                0.32816431
               6.98393765                6.00892524               60.07750382                0.01000000               -0.33310702               -0.44497710                0.21136325                2.36601724               -0.03514084                0.42861269
               7.98147501                6.01551328               60.08031115                0.01000000               -0.11035186               -0.63360000                0.22775081                2.05838387               -0.06054753                0.54702302
               8.98173061                6.01576093               60.08322682                0.01006264                0.08635600               -0.85898656                0.23063326                1.30287981               -0.04821106                0.57283367
               9.98320213                6.00545154               60.08658064                0.01000000                0.14715165               -0.54883192                0.20472467                0.63505077               -0.01903900                0.43702557
               0.02868023                6.98493046               60.06054708                0.96874399               -0.03283649               -0.60652082                0.09724232                0.94640066               -0.01181598                0.02507060
               1.02835186                6.97849794               60.06333960                0.52802749               -0.03541505               -0.26693036                0.12084302                0.85955966               -0.03298060                0.07036722
               2.02797193                6.97204576               60.06571243                0.01000001               -0.52641549               -0.28501253                0.13490506                1.27960142               -0.05717401                0.08876230
               3.01782356                6.97230057               60.06799515                0.01000000               -0.74134800               -0.57389904                0.14566320                1.86266594                0.00281241                0.10147446
               4.01314497                6.97602686               60.07100573                0.01000000               -0.49203266               -0.56124909                0.16621938                2.13259161                0.06681921                0.14428514
               5.00798290                6.98537017               60.07443858                0.01005223               -0.50225186               -0.44957087                0.18594360                2.43009902                0.08362922                0.24277096
               6.00309993                6.99563346               60.07795832                0.01000000               -0.46582044               -0.31398662                0.19837667                2.28839502                0.11013502                0.32021940
               6.99866649                7.00456686               60.08164298                0.01000000               -0.34939280               -0.34220779                0.20885574                1.91772879                0.11861941                0.44345507
               7.99611208                7.00950945               60.08530297                0.01006674               -0.14964068               -0.48449651                0.21778998                1.37479655                0.09742721                0.56890543
               8.99567368                7.00913501               60.08857645                0.01000002               -0.02083559               -0.51951854                0.21840599                0.71863948                0.05049835                0.60170691
               9.99569536                7.00274698               60.09125455                0.01000000                0.00216843               -0.14474562                0.20948236                0.30016512                0.02256792                0.48764487
               0.03514320                7.98464465               60.06134896                0.99999999               -0.03234540               -0.02839269                0.09646132               -0.00023079               -0.00634661                0.01022308
               1.03481975                7.97814197               60.06411166                0.99999999               -0.03549860               -0.03524327                0.11793326                0.00019546               -0.01069985               -0.00122542
               2.03443323                7.97163790               60.06679534                0.49442192               -0.04148471               -0.04073253                0.13654171                0.00086008               -0.01758527                0.00961837
               3.03399005                7.96513500               60.06938695                0.01000004               -0.40634151               -0.38050550                0.13634783                1.07109478                0.02368258                0.03181396
               4.02630640                7.97026437               60.07289848                0.01000001               -0.61872476               -0.90442618                0.16494262                2.14913286                0.12341099                0.10584331
               5.02161556                7.98074466               60.07673327                0.01000000               -0.57990187               -0.29802968                0.18327764                2.29769383                0.17453283                0.18671533
               6.01470836                7.99335233               60.08090586                0.01000000               -0.65996610               -0.08609392                0.19704714                1.90602647                0.23394470                0.26972726
               7.00841623                8.00208108               60.08551581                0.01005328               -0.51527834               -0.12720379                0.20650298                1.30309143                0.29635122                0.37555356
               8.00440279                8.00582335               60.09044727                0.01000002               -0.27751784               -0.23908198                0.20738380                0.70925470                0.29627846                0.51499693
               9.00286588                8.00537056               60.09442579                0.01000000               -0.12106507               -0.29282300                0.20577596                0.21390501                0.20567351                0.80233503
              10.00198149                8.00255663               60.09713787                0.01000000               -0.08843856               -0.01268254                0.20250073                0.06852631                0.14863420                0.56788977
               0.04168098                8.98436261               60.06219685                0.99999999               -0.03184548               -0.02818244                0.09554832                0.00025302               -0.00180053                0.00990293
               1.04136252                8.97779307               60.06493092                0.99999999               -0.03424415               -0.03492059                0.11654307                0.00096642               -0.00239351                0.00117932
               2.04099610                8.97123111               60.06767883                0.99999999               -0.03717734               -0.04126330                0.13629540                0.00362830                0.01053551               -0.00050957
               3.04061898                8.96469046               60.07071786                0.76595327               -0.02390637               -0.04809497                0.15797305               -0.00275017                0.08634353                0.01403787
               4.04051797                8.95793834               60.07503699                0.01000000               -0.48850751               -0.62773462                0.11032090                1.77725070                0.10838215                0.03792477
               5.03084883                8.97940958               60.07856331                0.01000000               -1.03169657                0.10441817                0.18123811                1.96569996                0.18554915                0.10439415
               6.01988404                8.99391158               60.08319130                0.01005968               -0.92957665                0.13146549                0.19884191                1.15853875                0.30687349                0.16143644
               7.01225729                9.00202279               60.08836313                0.01000002               -0.64381719                0.03953838                0.20477753                0.63598654                0.42680727                0.21866881
               8.00700769                9.00472781               60.09442176                0.01008189               -0.45193967               -0.03379453                0.20166841                0.19901504                0.70494926                0.32822457
               9.00321850                9.00327855               60.10374460                1.00000000               -0.21569734               -0.13116505                0.17502089               -0.05567066                0.48328180                0.48408490
              10.00269375                9.00249333               60.10336617                0.99999999               -0.05247540               -0.02894868                0.17300233               -0.00371379               -0.00158770                0.32618657
               0.04828734                9.98408100               60.06301276                0.99999815               -0.03167668               -0.02816081                0.09491943               -0.00310819                0.00477344                0.00702038
               1.04797058                9.97744356               60.06574959                1.00000000               -0.03394700               -0.03495122                0.11629426               -0.00261323                0.00605782                0.00174899
               2.04760840                9.97081264               60.06854757                0.99999996               -0.03713791               -0.04184737                0.13707999               -0.00229203                0.02256920                0.00079482
               3.04722782                9.96417310               60.07169282                0.99999998               -0.02380529               -0.05173567                0.16208382                0.00573636                0.09886503                0.00843185
               4.04713230                9.95770968               60.07602566                0.01000000               -1.11357524               -0.02286573                0.11157855                1.59442881                0.12079957                0.01492492
               5.02495631                9.98283302               60.07965024                0.01000001               -1.59331854                0.34234486                0.18304920                1.32434623                0.16940218                0.04125847
               6.01526593                9.99598164               60.08422969                0.01000001               -0.73182898                0.20700536                0.20626727                0.54013024                0.29542294                0.07832276
               7.01031973               10.00287185               60.08946946                0.01000001               -0.40692981                0.08490669                0.21041779                0.26453525                0.47649113                0.10225264
               8.00712733               10.00514746               60.09627944                0.01000000               -0.31663924                0.04196487                0.20323891                0.00573400                0.64953917                0.17970481
               9.00398695               10.00274726               60.10341740                0.99999999               -0.18248367               -0.05312900                0.17403126               -0.08164542                0.37785329                0.00203419
              10.00347766               10.00197766               60.10303896                0.99999998               -0.05092924               -0.05156709                0.17198099                0.00143085                0.00183916               -0.00183898
              -0.05445916               -0.00200617               61.04765802                1.00000000               -0.02294280               -0.02321724                0.07417056                0.00181223               -0.00805879                0.00760957
               0.94531141               -0.00556167               61.05105506                1.00000000               -0.02367042               -0.02476945                0.07921478                0.00081325               -0.00866637               -0.00154335
               1.94506743               -0.00909569               61.05443935                0.01001110                0.08140324               -0.02633827                0.08426579                0.11958973               -0.04434917               -0.00347976
               2.94693948               -0.01023126               61.05711760                0.01000002                0.15621077               -0.06754416                0.09995297                0.10622062               -0.08720961                0.01281832
               3.94819165               -0.00789455               61.05936444                0.01000000                0.05827726               -0.02002538                0.10735424                0.19741495               -0.13725151                0.01951784
               4.94810502               -0.00072207               61.06102666                0.01000000               -0.14559069                0.01645821                0.10474187                0.35194308               -0.18467368                0.03003517
               5.94527983                0.01141062               61.06274377                0.01000004               -0.65621669                0.12537537                0.05887152                0.78724130               -0.30632584                0.11204343
               6.93498069                0.03046891               61.06333523                0.97045660               -0.52878231               -0.03006699                0.09130895                0.83525934               -0.12259971               -0.00101987
               7.93470419                0.03289224               61.06639960                1.00000000               -0.02809769               -0.03104146                0.09406588                0.00046605                0.00173725                0.00007973
               8.93441873                0.03537186               61.06947240                1.00000000               -0.02892990               -0.03185911                0.09687275                0.00033664                0.00212982                0.00119337
               9.93412559                0.03790901               61.07253435                1.00000000               -0.02931458               -0.03259007                0.09973356               -0.00267080                0.00225766                0.00367740
              -0.05088554                0.99776166               61.04852908                0.99999999               -0.02501611               -0.02419432                0.08087071                0.00106423                0.00141213                0.00810119
               0.94886430                0.99419063               61.05192807                0.01000000               -0.02581706               -0.02580236                0.08589651                0.00004849                0.00425610               -0.00446029
               1.94859812                0.99064093               61.05538541                0.01000000               -0.07315948               -0.06112689                0.09093775                0.08067445               -0.02914636                0.00719911
               2.94740111                0.98909330               61.05811332                0.01000000               -0.15934590               -0.04999823                0.10926183                0.22530406               -0.08486420                0.02337839
               3.94541120                0.99190520               61.06032789                0.01000000               -0.27146207               -0.00991155                0.11812485                0.45877044               -0.14744041                0.04354041
               4.94197187                0.99944251               61.06190077                0.01000000               -0.39272243                0.01479319                0.11104617                0.75195853               -0.23200203                0.08532999
               5.93755676                1.01266437               61.06314870                0.01000001               -0.46897003               -0.01081357                0.09721712                1.10288045               -0.32448267                0.15068615
               6.93259247                1.03016824               61.06405957                0.89755357               -0.26496916               -0.03275601                0.10953419                0.75752096               -0.10756766               -0.00115879
               7.93225737                1.03258183               61.06712413                1.00000000               -0.03393767               -0.03373089                0.11268724                0.00001892                0.00012714               -0.00009655
               8.93191372                1.03505326               61.07019207                0.99999999               -0.03478217               -0.03471107                0.11558249               -0.00030854                0.00019996                0.00165426
               9.93156173                1.03758311               61.07325764                0.99987511               -0.03519880               -0.03520265                0.11811288               -0.00319776                0.00022374                0.00543219
              -0.04729583                1.99750994               61.04941301                0.01000000               -0.02710633                0.06914384                0.08759123                0.12986854                0.00332790                0.09574670
               0.95243311                1.99392228               61.05274090                0.01000000               -0.04629584               -0.09597913                0.09260556                0.08613964                0.02662745                0.06754099
               1.95177825                1.98968178               61.05653845                0.01000001               -0.11259098               -0.13407685                0.11073486                0.21830074                0.01879318                0.03421217
               2.95018129                1.98876878               61.05942620                0.01000000               -0.23802033               -0.08589570                0.12251909                0.56556893               -0.05267961                0.05174244
               3.94701785                1.99190722               61.06177020                0.01000000               -0.38981331               -0.04215436                0.13131491                0.93520308               -0.11279709                0.08643645
               4.94238502                1.99957379               61.06360101                0.01000001               -0.52030672               -0.04818356                0.13562061                1.29770034               -0.17752585                0.14360927
               5.93661171                2.01119435               61.06483967                0.01000000               -0.60856841               -0.13502476                0.13183724                1.75044305               -0.24955267                0.16499675
               6.93021365                2.02981379               61.06478367                0.01000003               -0.33960882               -0.44729167                0.12762680                1.25025929               -0.15734013                0.15603147
               7.92981954                2.03221762               61.06784822                0.36846788               -0.04011856               -0.03940260                0.13186416               -0.00092265               -0.00150802               -0.00262482
               8.92941128                2.03467763               61.07091890                1.00000000               -0.04087937               -0.04053467                0.13495434               -0.00107977               -0.00042711                0.00107235
               9.92900195                2.03720495               61.07400617                0.99999997               -0.04093329               -0.04058051                0.13610114               -0.00335853                0.00010842                0.00546188
              -0.04111284                2.99914453               61.05204215                0.01001469               -0.04718959                0.12529511                0.09707139                0.11962192                0.00769959                0.17586296
               0.95841526                2.99227105               61.05505383                0.01000000               -0.03847584               -0.20169030                0.11084684                0.25683403                0.02105992                0.10378726
               1.95811764                2.98795939               61.05814524                0.01000000               -0.09641093               -0.23991982                0.12461324                0.59202807                0.02129684                0.05631567
               2.95648704                2.98737539               61.06107677                0.01000000               -0.24036942               -0.20161865                0.13700384                0.99547433               -0.01171674                0.07603144
               3.95331025                2.99106211               61.06361391                0.01009249               -0.39241442               -0.15553573                0.14704565                1.39587354               -0.06376300                0.11655506
               4.94863875                2.99847884               61.06571336                0.01000000               -0.54923166               -0.14737985                0.15397644                1.79212036               -0.11945320                0.16216317
               5.94232562                3.00996388               61.06727078                0.01000001               -0.60321871               -0.21309010                0.15885316                1.99830698               -0.16145093                0.20928953
               6.93657438                3.02122240               61.06866284                0.01000000               -0.74752743               -0.60388343                0.16187288                1.93320394               -0.25132881                0.29240069
               7.92737507                3.03179377               61.06852947                0.01013755               -0.48347957               -0.31903000                0.16665589                1.13603941               -0.16443305                0.21126053
               8.92690479                3.03424257               61.07163184                0.05868830               -0.04675764               -0.03775662                0.15482538                0.03078962               -0.00019442                0.03473197
               9.92643992                3.03677150               61.07472972                0.99999997               -0.04648710               -0.06682327                0.15422669                0.03327698               -0.00115838                0.04797363
              -0.03115643                4.00001584               61.05470605                0.01000000               -0.00886470                0.00352467                0.09915882                0.24977624                0.00487531                0.14749522
               0.96875493                3.98988847               61.05714653                0.01000000               -0.01645472               -0.28844863                0.11852190                0.53457290                0.04460086                0.04600774
               1.96851448                3.98488338               61.06006409                0.01000000               -0.08834366               -0.35829924                0.13388791                1.00349780                0.06947181                0.04665466
               2.96698805                3.98473640               61.06301547                0.01009010               -0.23413067               -0.32201342                0.15007609                1.42252730                0.03776581                0.08921194
               3.96383187                3.98879651               61.06571284                0.01000000               -0.38311944               -0.28883441                0.16014843                1.82993253               -0.01509849                0.14190282
               4.95932567                3.99662619               61.06813541                0.01000001               -0.49987906               -0.25104370                0.17033194                2.16593381               -0.06483050                0.19560447
               5.95383429                4.00693254               61.07023188                0.01000001               -0.61389155               -0.31712943                0.18163459                2.38678997               -0.11857618                0.25670811
               6.94704784                4.01773612               61.07191458                0.01002207               -0.71570648               -0.39326527                0.19771923                2.31281436               -0.15780223                0.30585976
               7.93952016                4.02583702               61.07349916                0.01000001               -1.09992417               -0.48940597                0.19242571                2.35452883               -0.25353989                0.40440465
               8.92504935                4.03392250               61.07303152                0.01000000               -0.74552588               -0.42794607                0.16549276                1.95050082               -0.17570899                0.34849572
               9.92460964                4.03586849               61.07634361                0.01000001               -0.04397128               -1.19200105                0.15523449                1.80421000               -0.02470312                0.36121362
              -0.01586258                4.99921503               61.05746412                0.01000003                0.01017626               -0.20339326                0.09699391                0.42676315                0.07510111                0.19313536
               0.98423919                4.98650208               61.05935133                0.01000000               -0.03988772               -0.36520703                0.09476754                0.80031903                0.15330338               -0.04003500
               1.98333967                4.98079341               61.06209109                0.01000001               -0.16073628               -0.43850639                0.14665745                1.35101712                0.16640145                0.01801111
               2.98102446                4.98093512               61.06504612                0.01000000               -0.26602770               -0.44339488                0.15487387                1.80425617                0.08592966                0.11590021
               3.97801911                4.98528542               61.06803644                0.01000001               -0.36015321               -0.39401487                0.16988174                2.14744309                0.03553601                0.16845993
               4.97382140                4.99345796               61.07085098                0.01000001               -0.45338103               -0.35704713                0.18185079                2.45048665               -0.00738472                0.22969663
               5.96895149                5.00362129               61.07343341                0.01013577               -0.49476027               -0.36606484                0.19619330                2.56970553               -0.04849806                0.29367568
               6.96392619                5.01335710               61.07578166                0.01008140               -0.53361154               -0.43434543                0.21087579                2.61572270               -0.09187943                0.36242525
               7.95827926                5.02200565               61.07781845                0.01000000               -0.40214258               -0.50647177                0.21942726                2.55604501               -0.10095093                0.42002148
               8.95588334                5.02568365               61.08025864                0.01000000                0.01764405               -0.90809517                0.19720358                2.21304125               -0.07387210                0.56094959
               9.95863214                5.01293148               61.08316157                0.01001298                0.27488057               -1.55229680                0.14431225                1.48412102               -0.06011802                0.52886440
               0.00280474                5.99594798               61.06268803                0.01000003                0.03781909               -0.74973223                0.12540723                0.73958610                0.38735142               -0.35379347
               1.00318293                5.98258433               61.06207463                0.01000001               -0.08514757               -0.44039031                0.22268798                1.06270147                0.43996229               -0.09672585
               2.00110178                5.97611325               61.06399982                0.01000000               -0.23008823               -0.48232353                0.10591294                1.74547811                0.17815136                0.14528486
               2.99858116                5.97586851               61.06727607                0.01000001               -0.34219503               -0.47099430                0.15892127                1.94792116                0.10584689                0.14369588
               3.99425788                5.98091621               61.07046617                0.01000001               -0.42908126               -0.49326337                0.17422539                2.30753169                0.06964890                0.17420995
               4.98999954                5.98948525               61.07367528                0.01012740               -0.44643109               -0.40588672                0.18709738                2.50955164                0.05066051                0.24129608
               5.98532926                5.99961125               61.07673750                0.01005433               -0.45108069               -0.39721461                0.20122136                2.56122912                0.02514110                0.31452557
               6.98097792                6.00904921               61.07965458                0.01000000               -0.35073786               -0.42497480                0.21259564                2.42058933                0.00834209                0.39865374
               7.97831450                6.01570759               61.08258893                0.01000000               -0.12967838               -0.60432325                0.22132629                2.10688075               -0.00485468                0.48583926
               8.97838436                6.01576060               61.08551981                0.01000002                0.07409519               -0.81876469                0.21689094                1.32516905               -0.01456457                0.50829788
               9.97979641                6.00482255               61.08852374                0.01000000                0.14120531               -0.53891855                0.18788044                0.63947104               -0.01750168                0.44074427
               0.02565644                6.98422038               61.06153495                0.97792233               -0.03284930               -0.60106178                0.09993344                0.81755712               -0.01070112               -0.08814785
               1.02532794                6.97769427               61.06454475                0.47304342               -0.03456883               -0.26250201                0.11997538                0.78109184               -0.03664981                0.08050081
               2.02496506                6.97114694               61.06703634                0.01000001               -0.50740100               -0.26849519                0.12967042                1.21102052               -0.06288758                0.11692603
               3.01517992                6.97151523               61.06948556                0.01000000               -0.72060275               -0.58928895                0.15328634                1.83840441                0.01625026                0.10394839
               4.01055300                6.97542016               61.07268032                0.01000005               -0.49312652               -0.57844999                0.17207186                2.17263701                0.07975641                0.14596491
               5.00531739                6.98534023               61.07629823                0.01007895               -0.49704437               -0.44557433                0.18707594                2.47666090                0.10539408                0.22517962
               6.00061212                6.99567700               61.07995191                0.01000000               -0.45378775               -0.31212482                0.19867009                2.34006829                0.12733216                0.30573794
               6.99624164                7.00485760               61.08375861                0.01000000               -0.34533143               -0.33405451                0.20990538                1.99369308                0.14084568                0.41391250
               7.99370549                7.00991919               61.08749364                0.01000002               -0.14849423               -0.47177306                0.21517911                1.45283623                0.11874760                0.52612795
               8.99327175                7.00930836               61.09076737                0.01000002               -0.02039160               -0.50285843                0.21539775                0.77179696                0.05957724                0.55567250
               9.99329766                7.00215310               61.09333181                0.01000000                0.00259035               -0.13550318                0.20671017                0.33136805                0.02366108                0.46600582
               0.03220810                7.98392674               61.06233137                1.00000000               -0.03298916               -0.02929677                0.09964783               -0.00093180               -0.00639367                0.01103892
               1.03187821                7.97733429               61.06528946                0.99999995               -0.03534316               -0.03541091                0.11765054               -0.00107475               -0.01207411               -0.00267548
               2.03150124                7.97074335               61.06814248                0.46880107               -0.04010884               -0.04018639                0.13335728               -0.00664343               -0.02441245                0.01033427
               3.03107603                7.96408273               61.07084200                0.01000001               -0.38078046               -0.39279337                0.14361451                1.05120797                0.02137860                0.03007599
               4.02388563                7.96934721               61.07458282                0.01000001               -0.59000567               -0.92765417                0.16574542                2.15601851                0.12854097                0.06004777
               5.01927592                7.98057376               61.07852993                0.01000000               -0.56361862               -0.31797417                0.18058536                2.35791367                0.17401746                0.18109761
               6.01261325                7.99336875               61.08290180                0.01000000               -0.63331629               -0.09434485                0.19805333                1.95821902                0.24017858                0.25557438
               7.00660959                8.00236812               61.08758078                0.01000002               -0.48463895               -0.13634615                0.20438589                1.37580078                0.30452283                0.35327320
               8.00292047                8.00627213               61.09253895                0.01000002               -0.25116062               -0.24546796                0.20758122                0.79732846                0.30213908                0.48558098
               9.00158638                8.00570343               61.09649899                0.01000001               -0.10931010               -0.28338240                0.20559968                0.30735891                0.20697060                0.76449594
              10.00073427                8.00211249               61.09915164                0.01000000               -0.08521062                0.03242536                0.19849072                0.12901658                0.14191953                0.53977645
               0.03882270                8.98363445               61.06317642                0.99999999               -0.03328559               -0.02932943                0.09981575               -0.00049394               -0.00155199                0.01089937
               1.03848984                8.97698605               61.06609839                0.99999999               -0.03694712               -0.03458000                0.11696269               -0.00047706               -0.00151511                0.00098879
               2.03808376                8.97034321               61.06903887                0.99999995               -0.04448130               -0.03940512                0.13444616               -0.00473991                0.00468217                0.00004533
               3.03760022                8.96365936               61.07210354                0.78118584               -0.04507098               -0.03894433                0.13479480               -0.01468103                0.02357963                0.01286857
               4.03718234                8.95686707               61.07547762                0.01000000               -0.45730459               -0.62997388                0.06856477                1.76449370                0.10031152               -0.00368822
               5.02845413                8.97898074               61.08041430                0.01000000               -0.96000982                0.07544575                0.17807929                2.00038153                0.23372086                0.10003685
               6.01798214                8.99379010               61.08517213                0.01000002               -0.87999239                0.11333492                0.19618758                1.18987353                0.30729620                0.14904613
               7.01085428                9.00213068               61.09042411                0.01000002               -0.58326977                0.01750816                0.20435037                0.67811256                0.42520038                0.20388264
               8.00631675                9.00500983               61.09642981                0.01000006               -0.36378558               -0.06316656                0.19857874                0.25783042                0.69034168                0.31204301
               9.00357857                9.00364071               61.10548815                1.00000000               -0.16284385               -0.12907774                0.17295166                0.03134834                0.46929421                0.46894366
              10.00305987                9.00280161               61.10509704                1.00000000               -0.05186978                0.00839221                0.17327769                0.07427321               -0.00271183                0.31108163
               0.04549501                9.98334015               61.06398828                1.00000000               -0.03351043               -0.02942914                0.09950806               -0.00251551                0.00658213                0.00817910
               1.04515990                9.97664269               61.06691616                0.99999998               -0.03809396               -0.03433597                0.11693746               -0.00223971                0.00950868                0.00164162
               2.04473313                9.96995524               61.06992419                1.00000000               -0.04506784               -0.03879652                0.13630844               -0.00200572                0.01932497                0.00126166
               3.04425855                9.96330384               61.07308016                0.99999998               -0.04395042               -0.03555233                0.13531217                0.00545716                0.03651797                0.00407191
               4.04385412                9.95674773               61.07648256                0.01000000               -1.09490110               -0.01193405                0.07113255                1.60611999                0.11249217               -0.00752779
               5.02236052                9.98208268               61.08150974                0.01000001               -1.52966644                0.31019334                0.17836908                1.33502547                0.22061306                0.03099353
               6.01326079                9.99563545               61.08628756                0.01000001               -0.67042061                0.18453509                0.20438387                0.55964505                0.30382260                0.06660234
               7.00895211               10.00271828               61.09159607                0.01000001               -0.33468683                0.05876032                0.21299757                0.27845049                0.46260343                0.09451263
               8.00656705               10.00500879               61.09827763                0.01000000               -0.22652737               -0.00010355                0.19743329                0.04521040                0.62756450                0.16780034
               9.00442156               10.00312188               61.10515687                1.00000000               -0.13345620               -0.05188328                0.17375306               -0.05212336                0.36735417                0.00373818
              10.00389793               10.00228033               61.10476543                0.99990257               -0.05236340               -0.05212781                0.17408223               -0.00034814                0.00300981               -0.00330140
              -0.05796178               -0.00283455               62.04840102                1.00000000               -0.02293134               -0.02338539                0.07454720                0.00173579               -0.00799289                0.00766095
               0.94180891               -0.00648350               62.05184476                1.00000000               -0.02353917               -0.02468802                0.07878507                0.00068889               -0.00862728               -0.00152474
               1.94156744               -0.01010999               62.05527588                0.01000001                0.08895307               -0.02600545                0.08303318                0.13011886               -0.03740449               -0.00349141
               2.94358797               -0.01112391               62.05813913                0.01000001                0.16300410               -0.07262634                0.10281851                0.11802501               -0.07474582                0.01862127
               3.94482752               -0.00869614               62.06047303                0.01000000                0.04559690               -0.02068306                0.11553140                0.20111334               -0.12362666                0.02661169
               4.94449991               -0.00152005               62.06225154                0.01000001               -0.23986748                0.04929347                0.11564126                0.44148509               -0.21869917                0.01194060
               5.94003017                0.01316575               62.06273077                0.01409481               -0.62933207                0.08102344                0.07788582                0.74725499               -0.29134515                0.17708876
               6.93191326                0.02964078               62.06424661                0.97062668               -0.41954848               -0.03023289                0.09097081                0.70557045               -0.07762550               -0.00128922
               7.93163920                0.03207420               62.06733614                1.00000000               -0.02775517               -0.03096378                0.09321732                0.00038117                0.00165318                0.00000244
               8.93135816                0.03456936               62.07043310                1.00000000               -0.02841521               -0.03163030                0.09537974                0.00040518                0.00191928                0.00118204
               9.93107089                0.03712644               62.07351990                1.00000000               -0.02872661               -0.03224126                0.09761431               -0.00279102                0.00195421                0.00315714
              -0.05429547                0.99693160               62.04934091                0.99998677               -0.02510125               -0.02441002                0.08155750                0.00110917                0.00143664                0.00813072
               0.94545352                0.99326962               62.05278628                0.01000000               -0.02578505               -0.02576039                0.08577854                0.00004642                0.00427410               -0.00444372
               1.94518883                0.98962995               62.05629028                0.01000000               -0.06961151               -0.06346264                0.09001592                0.09531437               -0.02049529                0.01600351
               2.94406129                0.98814983               62.05923732                0.01000000               -0.15760553               -0.05463576                0.11380080                0.24464618               -0.06960057                0.03189583
               3.94203672                0.99109703               62.06157918                0.01000000               -0.30387360               -0.01027954                0.12768633                0.48817621               -0.13266382                0.04817733
               4.93798382                0.99897289               62.06318032                0.01000000               -0.50572071                0.03479974                0.14639758                0.86816691               -0.22371750                0.06906151
               5.93192231                1.01397598               62.06414145                0.01000001               -0.42345385               -0.11819418                0.11903008                1.20012421               -0.32255492                0.19145613
               6.92951474                1.02933845               62.06516000                0.89250930               -0.13717920               -0.03309549                0.11048791                0.64992786               -0.10327276               -0.00151273
               7.92917872                1.03176457               62.06825268                1.00000000               -0.03393230               -0.03383134                0.11294943                0.00003721                0.00041245                0.00013188
               8.92883609                1.03425305               62.07134721                1.00000000               -0.03464116               -0.03459728                0.11534051               -0.00006670                0.00027032                0.00184911
               9.92848590                1.03680403               62.07443566                0.99999999               -0.03501949               -0.03511475                0.11749068               -0.00309479                0.00014700                0.00466190
              -0.05061564                1.99667725               62.05029390                0.01000001               -0.02728807                0.06297861                0.08858351                0.14209084                0.00331115                0.09942088
               0.94911148                1.99300129               62.05366799                0.01000000               -0.03954225               -0.11012997                0.09279550                0.10058032                0.03542316                0.07701655
               1.94859352                1.98862075               62.05768788                0.01000001               -0.10488367               -0.14467456                0.11750604                0.24327028                0.02935292                0.05490603
               2.94701381                1.98778337               62.06070211                0.01000000               -0.24127686               -0.09158111                0.13010684                0.60064612               -0.04616345                0.06549817
               3.94376798                1.99109827               62.06315236                0.01000000               -0.40147551               -0.04286090                0.14238643                0.98418127               -0.10366648                0.09180465
               4.93898430                1.99917595               62.06503722                0.01000001               -0.50504450               -0.05854097                0.14819253                1.36733576               -0.16970387                0.14052928
               5.93366709                2.01080186               62.06627009                0.01000000               -0.59305317               -0.23326664                0.15421467                1.85577926               -0.25268683                0.17090207
               6.92712324                2.02897887               62.06607154                0.01000003               -0.34708756               -0.44060333                0.12985502                1.22865807               -0.16498380                0.16330472
               7.92672534                2.03139758               62.06917022                0.37539346               -0.04029359               -0.03996505                0.13281742               -0.00043281               -0.00048118                0.00301788
               8.92631736                2.03387741               62.07226989                1.00000000               -0.04091467               -0.04062731                0.13541005               -0.00050188               -0.00021440                0.00173181
               9.92590705                2.03642415               62.07537471                0.99999996               -0.04103171               -0.04098287                0.13722649               -0.00321403               -0.00005534                0.00454374
              -0.04410173                2.99819117               62.05306496                0.01000001               -0.03766455                0.09636258                0.10641571                0.13538288                0.01071887                0.17482342
               0.95552162                2.99106702               62.05623869                0.01000000               -0.03130579               -0.24482164                0.12614476                0.29407326                0.02076204                0.13110741
               1.95527215                2.98673646               62.05948253                0.01000000               -0.09624672               -0.26784171                0.13960873                0.64412948                0.01762407                0.07977103
               2.95359669                2.98631820               62.06252431                0.01000000               -0.24721916               -0.20918738                0.14967161                1.05092863               -0.01477483                0.09456077
               3.95032777                2.99023982               62.06514701                0.01009343               -0.39848730               -0.15581463                0.15629339                1.44082267               -0.06308236                0.12600451
               4.94562694                2.99780207               62.06731017                0.01000000               -0.55464008               -0.15985833                0.16293380                1.82540741               -0.11593644                0.16576846
               5.93923497                3.00931065               62.06890267                0.01000001               -0.60673793               -0.22151486                0.16382046                1.99403282               -0.15877013                0.21456847
               6.93349219                3.02052638               62.07029108                0.01000000               -0.74817231               -0.59131283                0.16287801                1.92665911               -0.24735898                0.30557378
               7.92427152                3.03096526               62.07015024                0.01000001               -0.48463499               -0.31569468                0.16023684                1.13897031               -0.16692134                0.21824263
               8.92379949                3.03344051               62.07318214                0.06306309               -0.04716895               -0.04009279                0.15577940                0.03519376               -0.00455127                0.05162246
               9.92332814                3.03598437               62.07629080                0.99999998               -0.04713411               -0.06216027                0.15716976                0.01245882               -0.00132621                0.06283946
              -0.03365968                3.99860451               62.05569233                0.01000000                0.01073348               -0.06667939                0.11036196                0.28371311                0.01105285                0.15236664
               0.96644766                3.98810486               62.05855389                0.01000000               -0.00576994               -0.42657864                0.15151332                0.62776528                0.03328335                0.05881392
               1.96622492                3.98326392               62.06156502                0.01000000               -0.09593162               -0.40551293                0.16608652                1.13650608                0.04641180                0.08145357
               2.96452903                3.98359963               62.06462798                0.01009769               -0.25621776               -0.31760064                0.16779236                1.50171091                0.02229653                0.10715036
               3.96110057                3.98798198               62.06738558                0.01000000               -0.40537048               -0.28362139                0.17119177                1.87437897               -0.02194273                0.15087557
               4.95642162                3.99597878               62.06987679                0.01000001               -0.51385685               -0.24283496                0.17498349                2.19086042               -0.06044323                0.19943137
               5.95082343                4.00637156               62.07206366                0.01000001               -0.62099086               -0.30349280                0.18086983                2.40081485               -0.10584377                0.26106382
               6.94400180                4.01715261               62.07378160                0.01000001               -0.71164054               -0.37757372                0.18431635                2.31123418               -0.14001395                0.31206190
               7.93659062                4.02508368               62.07538211                0.01000000               -1.09998339               -0.47365760                0.17768339                2.34677541               -0.23969724                0.40422125
               8.92200213                4.03307555               62.07510683                0.01000000               -0.77610646               -0.41975316                0.23224941                1.95157755               -0.18260871                0.37194176
               9.92106849                4.03518094               62.07840612                0.01000001               -0.09336389               -1.19317961                0.22868702                1.81249912               -0.01087407                0.37093953
              -0.01742818                4.99685758               62.05867197                0.01000003                0.08456925               -0.64880691                0.10500510                0.86696720               -0.01442382                0.11649702
               0.98341752                4.98253545               62.06046218                0.01000000               -0.00321569               -0.58761068                0.18787128                1.37761280                0.10132307                0.07429661
               1.98250751                4.97862620               62.06386104                0.01000001               -0.22523346               -0.39826567                0.18873327                1.61056192                0.13992132                0.02584566
               2.97891285                4.97996619               62.06674742                0.01000000               -0.35356567               -0.42760829                0.18451804                1.88902911                0.05288098                0.12774329
               3.97543620                4.98456739               62.06980719                0.01000001               -0.39291383               -0.38261507                0.18009180                2.17982748                0.02527780                0.17033253
               4.97105457                4.99294537               62.07269649                0.01000001               -0.46793803               -0.34320181                0.18399524                2.48069236               -0.00253764                0.22717386
               5.96607744                5.00324079               62.07539304                0.01015318               -0.50249096               -0.34837479                0.19209119                2.59333869               -0.02909568                0.28939046
               6.96100475                5.01297491               62.07784605                0.01011289               -0.53966732               -0.41156241                0.19988365                2.62512924               -0.06209848                0.35141019
               7.95528409                5.02149211               62.07988667                0.01000000               -0.41354859               -0.47644024                0.20416870                2.54963021               -0.08193262                0.41179623
               8.95273378                5.02504544               62.08214316                0.01000000                0.00416321               -0.88286979                0.18765491                2.20655244               -0.06661238                0.56129394
               9.95536735                5.01212078               62.08478093                0.01004363                0.26335746               -1.55423769                0.17094482                1.49632101               -0.05684097                0.51665526
               0.01232394                5.98562837               62.06192780                0.03713371               -0.00926443               -0.66667090               -0.02662964                1.06616710                0.66632515               -0.36583637
               1.01223130                5.97635265               62.06554773                0.01000001               -0.56592602               -0.28211592                0.17652411                1.41851010                0.45614045               -0.09546363
               2.00100542                5.97529861               62.06534958                0.01000000               -0.79314371               -0.41922878                0.22381952                1.89803337                0.04381622                0.12705653
               2.99636842                5.97504746               62.06904146                0.01000001               -0.46437397               -0.45762897                0.18016547                1.93114037                0.09423059                0.13596991
               3.99171794                5.98032968               62.07224962                0.01000001               -0.45031803               -0.48689387                0.18107595                2.32792566                0.05975441                0.16850459
               4.98736206                5.98911474               62.07556309                0.01014830               -0.45286372               -0.39631325                0.18728955                2.54195033                0.05817937                0.23053096
               5.98266067                5.99940407               62.07874347                0.01008272               -0.45544999               -0.38284391                0.20018925                2.59576911                0.04427416                0.29810129
               6.97825306                6.00892136               62.08175573                0.01000000               -0.35739881               -0.40279980                0.20587405                2.45438708                0.03013998                0.37914088
               7.97551269                6.01555488               62.08473767                0.01000000               -0.13742743               -0.57050604                0.20745940                2.13454865                0.01705214                0.46200162
               8.97550451                6.01541816               62.08756464                0.01000001                0.06657751               -0.78880840                0.20198156                1.34172896                0.00045083                0.49486093
               9.97684424                6.00409619               62.09033825                0.01000000                0.13397275               -0.53407941                0.18627576                0.65142023               -0.00816548                0.44866722
               0.02244661                6.98352417               62.06254575                0.98585890               -0.03291287               -0.12022064                0.10171493                0.17565673               -0.00954526                0.00172275
               1.02211748                6.97689313               62.06573911                0.41426207               -0.03366223                0.00910852                0.11892718                0.16266591               -0.04090885               -0.03418307
               2.02177336                6.97024163               62.06830583                0.01000003               -0.48064491               -0.27282751                0.12397749                1.06537464               -0.06078913                0.11462655
               3.01250458                6.97081361               62.07106088                0.01000000               -0.69229686               -0.59644570                0.15974457                1.80983687                0.02354919                0.08420761
               4.00792743                6.97482951               62.07444716                0.01001701               -0.48426962               -0.58308246                0.17606158                2.18384186                0.08568405                0.13489214
               5.00281919                6.98501910               62.07818010                0.01011186               -0.48706135               -0.44320985                0.18643041                2.50846332                0.11832725                0.20325501
               5.99818620                6.99558391               62.08193172                0.01000000               -0.44387526               -0.30802360                0.19624392                2.38501130                0.14245618                0.28555879
               6.99394168                7.00491891               62.08584108                0.01000000               -0.33539655               -0.32201599                0.20535023                2.05572813                0.15757113                0.38956903
               7.99147827                7.01008199               62.08960655                0.01000001               -0.14573170               -0.44780407                0.20728107                1.51825175                0.13524507                0.49850404
               8.99102705                7.00926928               62.09288441                0.01000002               -0.02192837               -0.47392288                0.20765583                0.81226405                0.07119618                0.53470710
               9.99103970                7.00143919               62.09538875                0.01000000                0.00126513               -0.12546247                0.20351981                0.35050871                0.02845832                0.46220056
               0.02909915                7.98322395               62.06334192                0.99999999               -0.03319954               -0.03002424                0.10186524               -0.00094393               -0.00586179                0.01286197
               1.02876715                7.97653482               62.06646467                1.00000000               -0.03533590               -0.03534953                0.11715234               -0.00147999               -0.01217110               -0.00321495
               2.02839243                7.96984206               62.06946249                0.43687896               -0.03949394               -0.03956630                0.13118169               -0.00525206               -0.02820958                0.01262351
               3.02797728                7.96311855               62.07225924                0.01007542               -0.36015729               -0.40519676                0.13563528                1.04866080                0.02126886                0.02009297
               4.02118929                7.96866803               62.07621339                0.01000000               -0.56001742               -0.94323380                0.16209642                2.17090071                0.12562365                0.02688752
               5.01677693                7.98025055               62.08034498                0.01000000               -0.53641007               -0.32942995                0.18206464                2.37925545                0.17850831                0.15813190
               6.01046108                7.99324360               62.08486692                0.01000000               -0.59536909               -0.10385827                0.19225975                2.00322218                0.24653864                0.23707393
               7.00486955                8.00248104               62.08960353                0.01000001               -0.44668608               -0.14168801                0.19949430                1.44585679                0.31180134                0.33305167
               8.00152736                8.00659880               62.09459889                0.01000002               -0.22384752               -0.24260018                0.20172759                0.88654414                0.30899991                0.46321669
               9.00039260                8.00593970               62.09853778                0.01000001               -0.10063897               -0.26348665                0.20050635                0.39491276                0.20690295                0.73353389
               9.99951458                8.00158694               62.10110769                0.01000000               -0.08780116                0.08309903                0.19512512                0.18382547                0.13472928                0.51694345
               0.03580600                8.98292368               62.06419317                1.00000000               -0.03362275               -0.03015454                0.10259434               -0.00055033               -0.00042130                0.01288641
               1.03546978                8.97618614               62.06727017                0.99999999               -0.03607066               -0.03469846                0.11687826               -0.00078466                0.00067891                0.00138867
               2.03508459                8.96945030               62.07036775                0.99999998               -0.04089777               -0.03874165                0.13041417               -0.00189947                0.00137486                0.00079854
               3.03465182                8.96270968               62.07341376                0.66601727               -0.04355763               -0.04086217                0.13852978               -0.00314687                0.00090964                0.01011282
               4.03421344                8.95596484               62.07640829                0.01000000               -0.44115452               -0.65593996                0.13988450                1.77420499                0.13327254               -0.03646794
               5.02582873                8.97843050               62.08212490                0.01000000               -0.90966466                0.05057311                0.16925974                2.01642812                0.27517924                0.08121007
               6.01602015                8.99350675               62.08711505                0.01000001               -0.81625563                0.09196127                0.19172411                1.22248078                0.31575956                0.13593629
               7.00950362                9.00208515               62.09245014                0.01000002               -0.51348263               -0.00314218                0.19921118                0.72177119                0.42566836                0.19352921
               8.00575049                9.00522999               62.09839333                0.01000000               -0.27832280               -0.08954845                0.19428980                0.32524202                0.67797497                0.29545163
               9.00393716                9.00399954               62.10720363                1.00000000               -0.11643789               -0.12275640                0.17020569                0.11624111                0.45601564                0.45199808
              10.00342174                9.00310117               62.10683172                0.99999999               -0.05154272                0.04939491                0.17368651                0.15047044               -0.00273535                0.29903332
               0.04256323                9.98262086               62.06500292                1.00000000               -0.03383870               -0.03028184                0.10245370               -0.00227917                0.00980449                0.01009021
               1.04222484                9.97584085               62.06808834                0.99987320               -0.03661619               -0.03452918                0.11687160               -0.00217550                0.01499691                0.00176388
               2.04183091                9.96906722               62.07127374                0.99999997               -0.04125191               -0.03830778                0.13126782               -0.00234581                0.02043853                0.00097962
               3.04139980                9.96230130               62.07439907                0.99999998               -0.04391742               -0.04083731                0.14050096               -0.00110134                0.01782257               -0.00290095
               4.04095256                9.95554923               62.07744831                0.01688046               -1.09181131               -0.04156035                0.14374697                1.62194715                0.14815768               -0.01473096
               5.01956358                9.98126201               62.08321763                0.01000001               -1.48482522                0.28315049                0.17002394                1.35016418                0.26742244                0.01977985
               6.01125605                9.99508282               62.08831737                0.01000001               -0.59909249                0.15760751                0.20000599                0.58140023                0.31696087                0.05855667
               7.00758173               10.00241820               62.09372941                0.01000000               -0.25691199                0.03330481                0.20914975                0.29406122                0.45628173                0.08881719
               8.00611781               10.00480783               62.10022811                0.01000000               -0.13677473               -0.04221605                0.19522634                0.09005062                0.60644129                0.15696020
               9.00484623               10.00348457               62.10689246                0.99999999               -0.08985397               -0.05149693                0.17335053               -0.02074247                0.35540716                0.00361214
              10.00432073               10.00257484               62.10652060                0.99998881               -0.05255000               -0.05263354                0.17684695               -0.00107385                0.00329548               -0.00323907
              -0.06150650               -0.00373274               63.04914896                1.00000000               -0.02294896               -0.02358664                0.07504337                0.00164754               -0.00798147                0.00767377
               0.93826401               -0.00747521               63.05263076                1.00000000               -0.02342632               -0.02462524                0.07842232                0.00056048               -0.00862496               -0.00151799
               1.93802498               -0.01119433               63.05610002                0.01000000                0.09916945               -0.02566750                0.08180475                0.14222104               -0.02877646               -0.00349772
               2.94024740               -0.01205521               63.05917397                0.01000001                0.17908644               -0.07765550                0.10139463                0.12826711               -0.05540306                0.02618406
               3.94160671               -0.00957460               63.06167507                0.01000000                0.06129521               -0.02359807                0.11357035                0.20653978               -0.10907204                0.02934882
               4.94147331               -0.00234084               63.06333949                0.01000001               -0.20744248                0.03788970                0.11076088                0.43147498               -0.16235050                0.05778577
               5.93745786                0.01213102               63.06430149                0.01000002               -0.63252485                0.08231525                0.11261954                0.71467238               -0.12062038               -0.10075529
               6.92882281                0.02861635               63.06515465                0.97072808               -0.44535473               -0.03032999                0.09066104                0.70570676               -0.11183723               -0.00133858
               7.92855076                0.03105920               63.06826395                1.00000000               -0.02747248               -0.03088268                0.09237613                0.00031168                0.00148826               -0.00001645
               8.92827336                0.03356728               63.07138000                1.00000000               -0.02798403               -0.03138238                0.09402969                0.00034893                0.00169384                0.00116443
               9.92799108                0.03614062               63.07448663                0.99998770               -0.02822794               -0.03190879                0.09576599               -0.00299866                0.00171158                0.00288550
              -0.05774755                0.99603140               63.05016023                1.00000000               -0.02520397               -0.02464753                0.08230873                0.00114927                0.00144139                0.00813317
               0.94200042                0.99227854               63.05364364                0.01018403               -0.02576347               -0.02572900                0.08568746                0.00005842                0.00427568               -0.00443825
               1.94173719                0.98854900               63.05718573                0.01000000               -0.06401040               -0.06090107                0.08906887                0.10979567               -0.00956652                0.02769558
               2.94072021                0.98716824               63.06038934                0.01000000               -0.14611336               -0.05765235                0.11283312                0.25932824               -0.04986100                0.04322149
               3.93881492                0.99018942               63.06288162                0.01000000               -0.28924805               -0.01249622                0.12643382                0.49362626               -0.09456379                0.05166501
               4.93493525                0.99803806               63.06482872                0.01000000               -0.48444668                0.02976849                0.14383368                0.85823324               -0.14079047                0.05108455
               5.92912599                1.01295417               63.06552930                0.01000001               -0.42597293               -0.11399288                0.14124199                1.16703933               -0.11545256               -0.02861333
               6.92641579                1.02831305               63.06626933                0.88631650               -0.15237868               -0.03337771                0.11137638                0.64936144               -0.11805040               -0.00160700
               7.92607841                1.03075037               63.06938312                1.00000000               -0.03398234               -0.03393888                0.11320141                0.00006080                0.00058115                0.00016853
               8.92573614                1.03325346               63.07249888                1.00000000               -0.03453265               -0.03449718                0.11503609                0.00001518                0.00033593                0.00186969
               9.92538776                1.03582153               63.07560745                0.99999999               -0.03483824               -0.03499645                0.11680832               -0.00318703                0.00015021                0.00435343
              -0.05397779                1.99577431               63.05118468                0.01000000               -0.02746290                0.06055847                0.08957763                0.14867055                0.00330454                0.10658346
               0.94574758                1.99201021               63.05459681                0.01000000               -0.03455118               -0.11356209                0.09295789                0.11129260                0.04711095                0.09391593
               1.94533119                1.98758765               63.05888857                0.01000001               -0.09770220               -0.14356605                0.11813680                0.26144247                0.04009477                0.08607189
               2.94379354                1.98679174               63.06202834                0.01000000               -0.23608904               -0.09137524                0.13060746                0.61973417               -0.03946809                0.08578720
               3.94060941                1.99017548               63.06461792                0.01000000               -0.39601612               -0.04202214                0.14205047                0.99553075               -0.08680684                0.09624386
               4.93587322                1.99825453               63.06656486                0.01000001               -0.50428795               -0.05417140                0.14896699                1.36524033               -0.13362495                0.09319880
               5.93052365                2.00985116               63.06792397                0.01000000               -0.59296897               -0.22462505                0.15300781                1.83687921               -0.27746637                0.13120517
               6.92401384                2.02794879               63.06738077                0.01000003               -0.34560412               -0.43446163                0.13198006                1.22465555               -0.18268662                0.16918027
               7.92361157                2.03038042               63.07050456                0.38502306               -0.04056655               -0.04018187                0.13411223               -0.00021400                0.00014317                0.00540313
               8.92320251                2.03287734               63.07362710                1.00000000               -0.04101855               -0.04076911                0.13610495               -0.00013394               -0.00004197                0.00187922
               9.92279120                2.03544069               63.07675070                0.99999999               -0.04113109               -0.04123288                0.13780732               -0.00324960               -0.00009699                0.00437482
              -0.04724592                2.99724257               63.05417046                0.01000001               -0.03411459                0.08409249                0.11099165                0.14243741                0.01783516                0.19467373
               0.95241293                2.99000729               63.05757672                0.01000000               -0.02847895               -0.25844741                0.13150731                0.31177125                0.01524462                0.18376650
               1.95218450                2.98567767               63.06093742                0.01000000               -0.09429353               -0.27268534                0.14368263                0.66854379                0.00145592                0.13107233
               2.95052706                2.98534073               63.06407021                0.01000000               -0.24608760               -0.20677191                0.15172750                1.07455929               -0.02876231                0.12576653
               3.94726275                2.98934898               63.06673978                0.01009820               -0.39813478               -0.15108165                0.15670168                1.45743431               -0.06759235                0.13439545
               4.94256437                2.99695463               63.06897203                0.01000000               -0.55467216               -0.15130134                0.16213340                1.83391021               -0.11981587                0.16075625
               5.93616930                3.00846167               63.07054719                0.01000001               -0.60923631               -0.20938525                0.16255017                1.99790679               -0.15996985                0.20160935
               6.93037964                3.01962382               63.07192040                0.01000000               -0.75118583               -0.57632056                0.16176811                1.92001621               -0.25315159                0.31122765
               7.92114559                3.02994674               63.07173421                0.01000268               -0.48532216               -0.30977034                0.15793989                1.13018378               -0.17200641                0.21498678
               8.92067320                3.03243808               63.07474743                0.10290390               -0.04747607               -0.02385107                0.15736070                0.01103971               -0.00666419                0.09161687
               9.92019607                3.03499687               63.07787311                1.00000000               -0.04771307               -0.03217695                0.15895076                0.00599844               -0.00156403                0.09905707
              -0.03665849                3.99745616               63.05691329                0.01000000                0.02063933               -0.09665338                0.11927830                0.31423219                0.00368081                0.17751356
               0.96354790                3.98684126               63.06017680                0.01000000                0.00135596               -0.45065644                0.16179668                0.66707138               -0.00183088                0.19417025
               1.96336863                3.98213394               63.06338582                0.01000000               -0.09672405               -0.40759567                0.17406836                1.17417031               -0.01419170                0.16612783
               2.96161342                3.98265631               63.06637132                0.01009679               -0.26122158               -0.31321179                0.17082313                1.53143841               -0.03057295                0.15066091
               3.95814420                3.98715384               63.06913667                0.01000000               -0.40873471               -0.27604681                0.17176319                1.89425252               -0.04667814                0.16241481
               4.95343873                3.99522850               63.07163508                0.01000001               -0.51657992               -0.23197438                0.17315672                2.20650226               -0.06942106                0.19740819
               5.94781260                4.00566346               63.07384928                0.01000001               -0.62548139               -0.28661956                0.17601051                2.41222943               -0.10596847                0.25702282
               6.94092910                4.01642238               63.07560091                0.01000000               -0.72058074               -0.36063213                0.17984848                2.31662535               -0.14801290                0.31216958
               7.93340098                4.02418502               63.07705282                0.01000000               -1.12779667               -0.45303587                0.17927463                2.35879257               -0.22912654                0.42495351
               8.91837317                4.03240032               63.07767651                0.01000000               -0.78037050               -0.39931773                0.18551678                1.97978798               -0.15598154                0.34933218
               9.91779357                4.03479715               63.08091735                0.01000001               -0.05795928               -1.18322083                0.18129645                1.84086877                0.00150394                0.34030352
              -0.01973147                4.99530950               63.05956422                0.01000000                0.08080514               -0.63493433                0.09238795                0.84595902               -0.00782018                0.17573479
               0.98107658                4.98099417               63.06310876                0.01000000               -0.02078352               -0.57215627                0.21161900                1.37761535               -0.04681956                0.23546398
               1.97985286                4.97752576               63.06586576                0.01000001               -0.24703271               -0.39621780                0.19468421                1.65990396               -0.07351137                0.19239324
               2.97613593                4.97907650               63.06873648                0.01000000               -0.36386297               -0.41909318                0.18951435                1.91272988               -0.03195143                0.14614824
               3.97257560                4.98382804               63.07163828                0.01000001               -0.39755653               -0.37537584                0.17992365                2.20128973               -0.01413244                0.17158692
               4.96818480                4.99231514               63.07453088                0.01000001               -0.46777941               -0.33081225                0.18012510                2.50658904               -0.01332395                0.22045213
               5.96322001                5.00272928               63.07727524                0.01017514               -0.49971034               -0.33144356                0.18418276                2.61527684               -0.03194837                0.28176426
               6.95819059                5.01241117               63.07977933                0.01014961               -0.54382533               -0.38926940                0.19105085                2.64070791               -0.07074079                0.35335123
               7.95234351                5.02088602               63.08190182                0.01000000               -0.42668832               -0.44786397                0.19691703                2.57431017               -0.09206162                0.42293651
               8.94965682                5.02445172               63.08401174                0.01000000               -0.00618645               -0.87418730                0.19506082                2.24330324               -0.07512400                0.51632148
               9.95221978                5.01133246               63.08658047                0.01000000                0.25629530               -1.58045354                0.18975093                1.50268869               -0.06090809                0.46870789
               0.00889136                5.98475748               63.06215543                0.01913370               -0.00074108               -0.62343928               -0.02104688                1.00457968               -0.29608289                0.30747601
               1.00888395                5.97539813               63.06560512                0.01000001               -0.52034910               -0.24502470                0.10436886                1.35626036               -0.33019893                0.18426505
               1.99848438                5.97420959               63.06847621                0.01000000               -0.76591057               -0.40995991                0.24090935                1.87254771               -0.12437510                0.09770349
               2.99356574                5.97427444               63.07087938                0.01000001               -0.47765163               -0.45474437                0.18236990                1.94051948               -0.03680515                0.11668569
               3.98893135                5.97964633               63.07408769                0.01000001               -0.44482345               -0.48369084                0.17857616                2.34548407                0.03176345                0.15539888
               4.98466927                5.98861226               63.07742107                0.01017283               -0.44546211               -0.38458496                0.18170927                2.57014225                0.05352631                0.21159065
               5.98002210                5.99903459               63.08074128                0.01011926               -0.45413737               -0.37322805                0.19609327                2.63024888                0.05397090                0.28711111
               6.97558652                6.00863700               63.08377206                0.01000000               -0.35877318               -0.38049944                0.20020717                2.48603956                0.04720819                0.36122031
               7.97284664                6.01522774               63.08673811                0.01000000               -0.13968632               -0.54289838                0.19897778                2.16515695                0.02932212                0.44897812
               8.97279280                6.01491657               63.08955944                0.01000001                0.06196198               -0.77111822                0.19701850                1.36084950                0.00627042                0.48580456
               9.97408588                6.00318808               63.09224925                0.01000000                0.12930842               -0.53523895                0.19321445                0.65906841               -0.00648326                0.44052654
               0.01907881                6.98284071               63.06356925                0.99232519               -0.03291300               -0.11104580                0.10255727                0.17299518               -0.00845187                0.04268312
               1.01874968                6.97609367               63.06692329                0.35173474               -0.03256515                0.01703979                0.11776439                0.15580569               -0.04637941                0.02136067
               2.01842751                6.96932656               63.06951589                0.01000000               -0.46200523               -0.26378427                0.11741532                1.02730180               -0.05313776                0.02237444
               3.00950958                6.96998161               63.07268045                0.01000000               -0.66400203               -0.60713694                0.15618596                1.80062142                0.01916530                0.04394715
               4.00514747                6.97415423               63.07620155                0.01000001               -0.46550967               -0.58612437                0.17006163                2.20114256                0.08124950                0.11398854
               5.00019938                6.98462344               63.08002684                0.01014839               -0.46736068               -0.44103295                0.18257309                2.53168896                0.12404363                0.17300180
               5.99580025                6.99526472               63.08387679                0.01000000               -0.42405746               -0.30538444                0.19287695                2.42205565                0.14555426                0.27181390
               6.99171823                7.00480118               63.08786561                0.01000000               -0.32165915               -0.31084471                0.19668997                2.11452286                0.16385628                0.36779045
               7.98936707                7.01002805               63.09163926                0.01000001               -0.14023802               -0.42390325                0.19885403                1.57738770                0.14314785                0.47970014
               8.98891347                7.00902936               63.09492049                0.01003478               -0.02544699               -0.44308444                0.20055954                0.85112351                0.07906367                0.51686250
               9.98885813                7.00062768               63.09740221                0.01000003               -0.00553425               -0.10898447                0.20056399                0.36999012                0.03148633                0.45208023
               0.02584535                7.98253656               63.06436867                1.00000000               -0.03311357               -0.03047724                0.10303564               -0.00069020               -0.00556343                0.01470996
               1.02551421                7.97573893               63.06763250                0.99999995               -0.03514366               -0.03517534                0.11642914               -0.00117493               -0.01198221               -0.00404847
               2.02514248                7.96893390               63.07076611                0.39867061               -0.03818558               -0.03893150                0.12921573               -0.00335335               -0.03526420                0.01540652
               3.02475050                7.96213170               63.07355471                0.01000001               -0.34150577               -0.41299071                0.12760515                1.05291201                0.02390584                0.00780847
               4.01831236                7.96792384               63.07782475                0.01000000               -0.52789753               -0.96257155                0.16047799                2.18245399                0.13898445                0.02241862
               5.01419255                7.97979160               63.08217123                0.01000000               -0.50134442               -0.34455724                0.18015394                2.40273117                0.19410980                0.12177756
               6.00828547                7.99292690               63.08674700                0.01000000               -0.55394520               -0.11031738                0.18691919                2.04001731                0.25431452                0.22108681
               7.00311365                8.00242010               63.09157067                0.01000001               -0.40596261               -0.14629038                0.19297716                1.50969506                0.31646373                0.31297088
               8.00016622                8.00674967               63.09657350                0.01000002               -0.19490041               -0.23692031                0.19358988                0.96952310                0.31030545                0.44085550
               8.99921564                8.00605488               63.10050912                0.01000001               -0.09385893               -0.23516827                0.19460903                0.48028690                0.20534692                0.70751177
               9.99828904                8.00100839               63.10305414                0.01000000               -0.09265975                0.13708445                0.19489635                0.23989331                0.13110683                0.49897691
               0.03266027                8.98223117               63.06522831                1.00000000               -0.03314265               -0.03070540                0.10399179               -0.00035463                0.00016685                0.01474839
               1.03232884                8.97539016               63.06843596                0.99999999               -0.03463007               -0.03486430                0.11618526               -0.00042126                0.00060911                0.00141431
               2.03196767                8.96854793               63.07164715                0.99999999               -0.03754831               -0.03855174                0.12772301                0.00101598                0.00264193               -0.00149399
               3.03157788                8.96172179               63.07487413                0.75972936               -0.04155083               -0.04282465                0.14228844                0.00223895                0.01371499                0.01529716
               4.03113665                8.95490279               63.07827531                0.01000000               -0.41634644               -0.67753896                0.16446302                1.78484274                0.12950186               -0.03630552
               5.02325095                8.97773230               63.08379949                0.01000000               -0.85822770                0.02506118                0.17179593                2.04014690                0.27590441                0.05826456
               6.01397210                8.99305837               63.08900661                0.01000001               -0.75807926                0.07375194                0.18592613                1.24729120                0.32342272                0.12432927
               7.00808936                9.00187538               63.09440834                0.01000002               -0.44246729               -0.02420172                0.19289455                0.76423164                0.42198459                0.18199461
               8.00512275                9.00528965               63.10031561                0.01000001               -0.19144340               -0.11356105                0.18957155                0.39086140                0.65906482                0.27970461
               9.00426049                9.00432599               63.10889226                1.00000000               -0.06868842               -0.11192102                0.16751231                0.20506467                0.44179579                0.43568043
              10.00374898                9.00336937               63.10857077                1.00000000               -0.05115113                0.09147014                0.17411302                0.22526298               -0.00272713                0.28652043
               0.03952027                9.98192245               63.06603736                0.99998942               -0.03312421               -0.03087165                0.10410951               -0.00208084                0.01184564                0.01166045
               1.03918903                9.97504164               63.06925359                1.00000000               -0.03445506               -0.03485203                0.11616740               -0.00196084                0.01618083                0.00196899
               2.03883117                9.96816287               63.07254955                1.00000000               -0.03743033               -0.03850668                0.12771893               -0.00197158                0.02383702               -0.00034438
               3.03844042                9.96127521               63.07589018                1.00000000               -0.04162274               -0.04465834                0.14472073               -0.00323573                0.03384270                0.00014053
               4.03799871                9.95437306               63.07935750                0.01737240               -1.08002542               -0.05297333                0.16744053                1.63708689                0.14574376               -0.00408942
               5.01683991                9.98029282               63.08491022                0.01000001               -1.44552476                0.25605249                0.17473496                1.36034039                0.27367954                0.00682483
               6.00908822                9.99440194               63.09028768                0.01000001               -0.53364510                0.13435648                0.19428996                0.59377438                0.32539506                0.05204689
               7.00616701               10.00193607               63.09577906                0.01000000               -0.17776913                0.00606895                0.20169780                0.31159049                0.44889658                0.08130704
               8.00553284               10.00447845               63.10218216                0.01000000               -0.04648981               -0.08111942                0.19353173                0.13502825                0.57975915                0.14753405
               9.00523721               10.00381646               63.10862388                1.00000000               -0.04126402               -0.05095297                0.17293317                0.01563910                0.34179775                0.00363394
              10.00470755               10.00283779               63.10830237                0.99999998               -0.05296588               -0.05315734                0.17953080               -0.00200968                0.00324120               -0.00325178
              -0.06508501               -0.00470361               64.04990189                1.00000000               -0.02296358               -0.02378374                0.07554115                0.00155656               -0.00798208                0.00767142
               0.93468535               -0.00853961               64.05341321                1.00000000               -0.02331450               -0.02455797                0.07806619                0.00042997               -0.00862498               -0.00151843
               1.93444870               -0.01235138               64.05691197                0.01000000                0.11097506               -0.02533196                0.08059045                0.15574174               -0.02120048               -0.00349877
               2.93690486               -0.01303097               64.06016702                0.01000001                0.20159299               -0.08091464                0.09535433                0.13778785               -0.04461104                0.03244498
               3.93848056               -0.01052226               64.06274444                0.01000003                0.08608086               -0.02902577                0.10259117                0.20695931               -0.10448923                0.03769404
               4.93862647               -0.00334279               64.06446675                0.01000420               -0.13389787                0.01119948                0.10392271                0.35024942               -0.18453731                0.03991568
               5.93580260                0.00869502               64.06498316                0.01000005               -0.64562066                0.10862196                0.10322336                0.77337587               -0.16031026               -0.05282629
               6.92571406                0.02738464               64.06605983                0.97080835               -0.51794955               -0.03044533                0.09044028                0.81561081               -0.10150290               -0.00134019
               7.92544361                0.02983553               64.06918366                1.00000000               -0.02723514               -0.03082079                0.09161054                0.00023046                0.00131105               -0.00005110
               8.92516936                0.03235488               64.07231369                1.00000000               -0.02758748               -0.03115362                0.09272976                0.00026125                0.00150338                0.00114351
               9.92489186                0.03494251               64.07543522                1.00000000               -0.02774949               -0.03154735                0.09394536               -0.00324847                0.00155534                0.00275884
              -0.06123345                0.99505855               64.05098709                1.00000000               -0.02530158               -0.02488473                0.08306291                0.00118633                0.00144125                0.00813192
               0.93851354                0.99121481               64.05450003                0.01012110               -0.02573770               -0.02569330                0.08558965                0.00006008                0.00427777               -0.00443651
               1.93825180                0.98739531               64.05807166                0.01000000               -0.05726787               -0.05290609                0.08811581                0.12301257               -0.00010317                0.03779965
               2.93736818                0.98615989               64.06149398                0.01000000               -0.12728663               -0.05753898                0.10641697                0.26912078               -0.03600678                0.05510148
               3.93570607                0.98918748               64.06410785                0.01000000               -0.24239262               -0.01563715                0.11528918                0.48120385               -0.08608937                0.05938365
               4.93252033                0.99676920               64.06605700                0.01000000               -0.37667106                0.01196999                0.11181614                0.74865217               -0.12685270                0.04574154
               5.92817264                1.00978124               64.06696629                0.01000001               -0.46102078               -0.01434708                0.12778072                1.09051220               -0.14398748               -0.01318687
               6.92329991                1.02708019               64.06738752                0.87973316               -0.26059247               -0.03366205                0.11227608                0.74604663               -0.13467446               -0.00166955
               7.92296079                1.02952732               64.07051671                1.00000000               -0.03407149               -0.03404879                0.11353124                0.00007109                0.00064240                0.00014038
               8.92261848                1.03204335               64.07364793                1.00000000               -0.03445203               -0.03442181                0.11478953                0.00003736                0.00036843                0.00186225
               9.92227175                1.03462703               64.07677183                1.00000000               -0.03467268               -0.03482611                0.11604480               -0.00332894                0.00016381                0.00425585
              -0.05737381                1.99479869               64.05208545                0.01000001               -0.02763915                0.06487413                0.09058386                0.14857841                0.00330327                0.11356122
               0.94234980                1.99094653               64.05552714                0.01000000               -0.03311573               -0.10262265                0.09311233                0.11689169                0.05721443                0.10831187
               1.94196388                1.98659050               64.06005062                0.01000001               -0.09273519               -0.12673204                0.11262108                0.27138590                0.04852771                0.11463657
               2.94049510                1.98581825               64.06331426                0.01000000               -0.22342793               -0.08346660                0.12311049                0.62126978               -0.03736051                0.10610995
               3.93749532                1.98916499               64.06599337                0.01000000               -0.37446705               -0.03892515                0.13077878                0.97231922               -0.08211553                0.10609438
               4.93300576                1.99689661               64.06801656                0.01000001               -0.50967300               -0.04111128                0.13696294                1.30729862               -0.13141706                0.09626005
               5.92730186                2.00840808               64.06933024                0.01000000               -0.60584259               -0.11818560                0.13309819                1.73646775               -0.27731328                0.11899094
               6.92088891                2.02671140               64.06871114                0.01000003               -0.34099935               -0.42746969                0.13402065                1.23443537               -0.18694331                0.17226531
               7.92048187                2.02915456               64.07185247                0.39501933               -0.04092564               -0.04052912                0.13547600               -0.00006872                0.00050357                0.00604289
               8.92007039                2.03166645               64.07499199                1.00000000               -0.04119809               -0.04099567                0.13689172                0.00001235                0.00010410                0.00194040
               9.91965791                2.03424599               64.07813086                1.00000000               -0.04124814               -0.04140874                0.13815278               -0.00335937               -0.00005852                0.00439552
              -0.05055755                2.99635603               64.05528479                0.01000000               -0.03828941                0.09811636                0.10733982                0.14366913                0.02179496                0.21094265
               0.94905956                2.98916236               64.05886883                0.01000000               -0.03173325               -0.22451496                0.12204111                0.30466699                0.00922072                0.23327664
               1.94880779                2.98486066               64.06235618                0.01000000               -0.09202382               -0.24661836                0.13280887                0.65554408               -0.01325298                0.17321684
               2.94721908                2.98449055               64.06555886                0.01000000               -0.23668476               -0.19358418                0.14116748                1.06099618               -0.04333066                0.15402536
               3.94407409                2.98840897               64.06828105                0.01009521               -0.38979345               -0.14166067                0.14758752                1.44321752               -0.07604773                0.14784295
               4.93942322                2.99594698               64.07055284                0.01000000               -0.54934447               -0.12642551                0.15206272                1.81616936               -0.12261833                0.16249415
               5.93308721                3.00741752               64.07215368                0.01000001               -0.60905386               -0.18120495                0.15617878                2.00100965               -0.16171377                0.20233831
               6.92724214                3.01853079               64.07352644                0.01000000               -0.75414164               -0.55871629                0.15859340                1.91241520               -0.25513244                0.31716783
               7.91800437                3.02871674               64.07330903                0.01012007               -0.48574203               -0.28697075                0.15806444                1.10716302               -0.17457075                0.22171623
               8.91752730                3.03122343               64.07632935                0.11731648               -0.04794400               -0.04342809                0.15909599                0.00148509               -0.00721926                0.05874984
               9.91704549                3.03379886               64.07946982                0.99999997               -0.04818051               -0.04831638                0.16031700                0.00549123               -0.00169242                0.06427807
              -0.04011308                3.99676102               64.05807789                0.01000000                0.00515874               -0.06129492                0.10991369                0.26371469                0.00384243                0.20142994
               0.95993851                3.98645623               64.06178982                0.01000000               -0.00701785               -0.36729758                0.13755274                0.60085682               -0.03287773                0.26745290
               1.95974657                3.98165814               64.06504639                0.01000000               -0.08859000               -0.37384958                0.14892889                1.10460562               -0.06819606                0.23231803
               2.95816671                3.98194657               64.06804444                0.01009765               -0.24216597               -0.30547306                0.15571383                1.49779297               -0.07083324                0.18234849
               3.95490325                3.98633178               64.07082085                0.01000000               -0.39230584               -0.26804330                0.16070841                1.88532899               -0.06821615                0.17333671
               4.95032059                3.99436810               64.07333993                0.01000001               -0.50825062               -0.21892756                0.16530261                2.20900577               -0.07885861                0.19748176
               5.94473823                4.00478398               64.07558387                0.01000001               -0.62413006               -0.27167268                0.17031172                2.41358963               -0.10693772                0.25238754
               6.93783799                4.01553707               64.07737857                0.01001192               -0.74028709               -0.33300078                0.17616135                2.31761880               -0.13814160                0.31330695
               7.92993249                4.02341514               64.07896761                0.01000000               -1.14100089               -0.42255944                0.18550135                2.32334449               -0.25051890                0.42625694
               8.91501798                4.03079789               64.07881717                0.01000000               -0.76578030               -0.38672473                0.13779278                1.94449366               -0.17171686                0.33298548
               9.91461689                4.03327966               64.08203205                0.01000000               -0.04010886               -1.18179123                0.13574819                1.84648923               -0.00207612                0.30949315
              -0.02467366                4.99513014               64.06051973                0.01000003                0.08532462               -0.44940812                0.08919100                0.64942703               -0.07639072                0.18863959
               0.97617958                4.98181641               64.06469456                0.01000000                0.00416121               -0.51164060                0.12859199                1.08107823               -0.16192535                0.39594752
               1.97540956                4.97738367               64.06775472                0.01000001               -0.18391413               -0.40277935                0.15506877                1.50308837               -0.18508782                0.25389736
               2.97250130                4.97838109               64.07053770                0.01000000               -0.30252073               -0.42546835                0.16296680                1.87592824               -0.09795912                0.16371177
               3.96935915                4.98304811               64.07340566                0.01000001               -0.36750833               -0.37286963                0.16812063                2.20478070               -0.04527539                0.17077980
               4.96515113                4.99156843               64.07629899                0.01000001               -0.45845631               -0.32587494                0.17292999                2.51971841               -0.02639508                0.21309121
               5.96019002                5.00198407               64.07907669                0.01000000               -0.50938915               -0.31196207                0.17673418                2.64766036               -0.03789673                0.27366830
               6.95496335                5.01187078               64.08166707                0.01000000               -0.54897846               -0.37387943                0.18262501                2.68219395               -0.08647827                0.36200657
               7.94921045                5.02026555               64.08382501                0.01000000               -0.42053487               -0.43090688                0.18603067                2.59987125               -0.09931781                0.41838542
               8.94655265                5.02348894               64.08604438                0.01000000               -0.00993580               -0.82861930                0.19156907                2.24991463               -0.07355462                0.52246315
               9.94901173                5.01016303               64.08857595                0.01000000                0.24590815               -1.55973411                0.18938502                1.50331267               -0.06473287                0.47511818
              -0.00049708                5.98777286               64.06150686                0.01000000               -0.01963799               -0.64827727               -0.00084247                0.85721280               -0.42189368                0.58592979
               0.99930654                5.97622342               64.06763511                0.01000001               -0.31296341               -0.32617260                0.10267740                1.24466780               -0.53704029                0.35993306
               1.99324365                5.97360255               64.07016777                0.01000000               -0.46428493               -0.44922270                0.13343100                1.83788355               -0.27387336                0.07203305
               2.99002084                5.97343720               64.07268886                0.01000001               -0.37160610               -0.46819309                0.15963980                1.94863814               -0.09070078                0.09916398
               3.98581153                5.97887439               64.07582114                0.01000001               -0.41209197               -0.48379433                0.16711646                2.36301388                0.00401881                0.14079639
               4.98177900                5.98785060               64.07919728                0.01000000               -0.42112197               -0.39197228                0.17282422                2.60720167                0.04581070                0.19576625
               5.97738909                5.99854473               64.08266534                0.01015571               -0.42893045               -0.34847989                0.18110231                2.66386897                0.05604586                0.27677888
               6.97320039                6.00805949               64.08575988                0.01000000               -0.35386661               -0.36973309                0.19332546                2.53726292                0.05279207                0.35261794
               7.97031176                6.01479700               64.08871723                0.01000000               -0.15408031               -0.52124710                0.19567710                2.21209580                0.03239293                0.43738765
               8.97011879                6.01422550               64.09150501                0.01000001                0.05115976               -0.74160477                0.19441255                1.37903458                0.00613916                0.46249171
               9.97133495                6.00208498               64.09420254                0.01000000                0.12161665               -0.52435660                0.19646809                0.67065986               -0.00724501                0.42076140
               0.01556948                6.98216459               64.06459689                0.99788579               -0.03262307               -0.29568849                0.10263681                0.46070178               -0.00746311                0.12728062
               1.01524325                6.97529296               64.06809440                0.28495461               -0.03080172               -0.06411166                0.11607523                0.45290812               -0.05402316               -0.02245307
               2.01495345                6.96839922               64.07065414                0.01000002               -0.45205121               -0.27918133                0.10856127                1.11227831               -0.04799951                0.00021627
               3.00620222                6.96901723               64.07418460                0.01000000               -0.63737090               -0.61780836                0.14075874                1.81744569                0.02528741                0.00273840
               4.00220603                6.97337222               64.07784840                0.01000000               -0.42887032               -0.59158707                0.15856423                2.21263389                0.08183514                0.09689858
               4.99762482                6.98372898               64.08183156                0.01000000               -0.44737581               -0.44685759                0.17341059                2.58000643                0.13971723                0.14116938
               5.99325851                6.99501447               64.08578926                0.01000000               -0.40842384               -0.30046117                0.18624555                2.47529915                0.15114270                0.25810450
               6.98945634                7.00447612               64.08977488                0.01000000               -0.29860793               -0.29308744                0.18770385                2.14990316                0.16685525                0.34982354
               7.98728635                7.00984061               64.09358363                0.01000001               -0.13054849               -0.40287234                0.19164522                1.63319951                0.14739984                0.46162076
               8.98684537                7.00865684               64.09689560                0.01006956               -0.02901851               -0.40536699                0.19433334                0.88676981                0.08113469                0.49851833
               9.98670598                6.99967590               64.09940003                0.01000003               -0.01393895               -0.08435282                0.19691961                0.38749171                0.03164735                0.43471355
               0.02246022                7.98185909               64.06540263                1.00000000               -0.03301489               -0.03073132                0.10364173               -0.00056220               -0.00536240                0.01617233
               1.02213007                7.97494118               64.06879326                0.99999997               -0.03476395               -0.03498116                0.11560822               -0.00101492               -0.01212735               -0.00502523
               2.02176494                7.96801892               64.07204680                0.35121419               -0.03666611               -0.03811175                0.12723996               -0.00571707               -0.04288765                0.02127607
               3.02139675                7.96108103               64.07481134                0.01000001               -0.32062428               -0.41685406                0.12092369                1.05597324                0.02750963               -0.00190257
               4.01535246                7.96704265               64.07942295                0.01000000               -0.48299360               -0.98331243                0.15353308                2.17522507                0.15969634               -0.00247879
               5.01173688                7.97891345               64.08394806                0.01000000               -0.46022611               -0.34360891                0.16975545                2.42417810                0.21180304                0.09099427
               6.00614793                7.99253551               64.08860531                0.01000000               -0.51822801               -0.12809118                0.18365206                2.09527681                0.25996301                0.20594259
               7.00137232                8.00219774               64.09346307                0.01000001               -0.36764577               -0.14797339                0.18622299                1.56910079                0.31727198                0.29768686
               7.99879502                8.00673956               64.09847069                0.01000002               -0.16767147               -0.23125955                0.18732653                1.05409682                0.30971388                0.42336763
               8.99801889                8.00611816               64.10242996                0.01008324               -0.08741742               -0.20292291                0.18739060                0.56654567                0.20440660                0.67636414
               9.99704667                8.00039792               64.10500562                0.01000002               -0.09722182                0.19537253                0.18695694                0.29318596                0.12733004                0.47152814
               0.02939405                8.98154996               64.06627300                1.00000000               -0.03309322               -0.03115563                0.10507240               -0.00029061               -0.00011897                0.01612260
               1.02906312                8.97459333               64.06959388                0.99999999               -0.03473991               -0.03481157                0.11581639               -0.00033915                0.00006319                0.00104657
               2.02869925                8.96763698               64.07292221                0.99999983               -0.03825756               -0.03816892                0.12674157               -0.00035320                0.00079038               -0.00257549
               3.02829797                8.96068015               64.07625953                0.78784615               -0.04105673               -0.04045038                0.13693146               -0.00295291                0.00620842                0.02021254
               4.02787812                8.95370597               64.07969755                0.01000000               -0.38412262               -0.68697978                0.14196935                1.78357927                0.13343559               -0.04772911
               5.02061551                8.97685680               64.08556082                0.01000000               -0.79991804                0.01318032                0.17008081                2.05583950                0.28571344                0.04356989
               6.01187976                8.99245265               64.09083357                0.01000001               -0.69906002                0.05130561                0.18080669                1.27035130                0.32469651                0.11219578
               7.00663431                9.00151665               64.09630803                0.01000002               -0.37159452               -0.04474221                0.18732957                0.80278152                0.41886978                0.17173846
               8.00444787                9.00521542               64.10218477                0.01000001               -0.10581959               -0.13570752                0.18452541                0.45774462                0.64162700                0.26701868
               9.00451792                9.00459839               64.11055388                1.00000000               -0.02188403               -0.10120765                0.16481170                0.29555118                0.42734396                0.41944418
              10.00401019                9.00358335               64.11031398                0.99999999               -0.05077366                0.13243351                0.17453174                0.29759223               -0.00272724                0.27282890
               0.03636767                9.98123598               64.06708511                1.00000000               -0.03314007               -0.03139872                0.10568650               -0.00174057                0.01215116                0.01269730
               1.03603627                9.97424495               64.07041168                0.99999998               -0.03483039               -0.03483826                0.11618532               -0.00170647                0.01622373                0.00187969
               2.03567106                9.96725554               64.07382811                0.99999999               -0.03837837               -0.03814399                0.12734286               -0.00146512                0.02280376               -0.00055700
               3.03526870                9.96027203               64.07729348                0.99999994               -0.04118362               -0.04081223                0.13882651               -0.00055114                0.02720060                0.00131018
               4.03484739                9.95330305               64.08079712                0.01458943               -1.05808549               -0.04029239                0.14401808                1.64217858                0.15048947               -0.00250900
               5.01410699                9.97917705               64.08671232                0.01000001               -1.39761385                0.23202512                0.17485105                1.36207653                0.29113176               -0.00112860
               6.00689511                9.99356162               64.09220317                0.01000001               -0.47209067                0.11089744                0.18904843                0.60782769                0.33015294                0.04522235
               7.00466518               10.00130289               64.09776337                0.01000000               -0.10134694               -0.02137560                0.19582477                0.32627559                0.44081607                0.07475712
               8.00486817               10.00402541               64.10409874                0.01000000                0.04483995               -0.11900138                0.18959123                0.18158654                0.55770374                0.13998035
               9.00556198               10.00409401               64.11035112                0.99999999                0.00802041               -0.05043789                0.17251442                0.05546481                0.32824171                0.00362868
              10.00502858               10.00304659               64.11011122                0.99996033               -0.05333958               -0.05367641                0.18223480               -0.00290218                0.00324967               -0.00324750
              -0.06868878               -0.00574970               65.05065979                1.00000000               -0.02297910               -0.02398168                0.07603840                0.00146389               -0.00798233                0.00767139
               0.93108143               -0.00967923               65.05419209                1.00000000               -0.02320341               -0.02448980                0.07770940                0.00029759               -0.00862612               -0.00151796
               1.93084716               -0.01358368               65.05771183                0.01000001                0.12206392               -0.02499736                0.07938002                0.17035256               -0.01654198               -0.00349925
               2.93352271               -0.01406023               65.06108106                0.01000000                0.21850160               -0.08167466                0.08867566                0.14592390               -0.04030265                0.03743992
               3.93521719               -0.01154754               65.06372689                0.01000003                0.10105664               -0.03242921                0.09502984                0.19815281               -0.11583788                0.04038090
               4.93554384               -0.00472302               65.06541794                0.01000001               -0.12793072                0.01261005                0.09925721                0.33237944               -0.19260441                0.03466256
               5.93265857                0.00710823               65.06636596                0.01000000               -0.64757967                0.12351250                0.12450909                0.75857235               -0.24636284                0.02270429
               6.92259225                0.02593416               65.06696345                0.97107755               -0.51677266               -0.03058136                0.09033115                0.82215579               -0.12604426               -0.00137778
               7.92232312                0.02839208               65.07009616                1.00000000               -0.02701902               -0.03077089                0.09091637                0.00014969                0.00112534               -0.00010201
               8.92205187                0.03092168               65.07323459                1.00000000               -0.02719886               -0.03092724                0.09144994                0.00017631                0.00133585                0.00112869
               9.92177914                0.03352257               65.07636554                1.00000000               -0.02727274               -0.03115636                0.09209801               -0.00350217                0.00144188                0.00268648
              -0.06474461                0.99401048               65.05182149                1.00000000               -0.02539906               -0.02512308                0.08381792                0.00122241                0.00144192                0.00813103
               0.93500140                0.99007587               65.05535543                0.01010204               -0.02571056               -0.02565622                0.08548964                0.00005669                0.00427841               -0.00443582
               1.93474118                0.98616634               65.05894805                0.01000000               -0.05187600               -0.04102287                0.08716112                0.13573158                0.00621493                0.04467192
               2.93396388                0.98512303               65.06251768                0.01000000               -0.11055337               -0.05453578                0.09883057                0.27713459               -0.03150693                0.06446257
               3.93253011                0.98812817               65.06518740                0.01000000               -0.22120624               -0.01641443                0.10416831                0.46638341               -0.09838458                0.06820242
               4.92953975                0.99540308               65.06706504                0.01000000               -0.38072008                0.02034535                0.10431801                0.72896729               -0.16727853                0.06513124
               5.92491571                1.00834335               65.06808492                0.01000001               -0.46839359               -0.00323153                0.11348564                1.09247422               -0.24913490                0.06872530
               6.92017188                1.02562835               65.06851485                0.87272632               -0.25424271               -0.03394890                0.11320797                0.74507566               -0.13469138               -0.00177613
               7.91983086                1.02808437               65.07165375                1.00000000               -0.03417468               -0.03415623                0.11388295                0.00008703                0.00065975                0.00008154
               8.91948839                1.03061241               65.07479467                1.00000000               -0.03438103               -0.03434800                0.11455513                0.00004828                0.00038311                0.00186739
               9.91914323                1.03321100               65.07792835                1.00000000               -0.03451543               -0.03459795                0.11523849               -0.00348330                0.00017790                0.00422358
              -0.06079511                1.99374783               65.05299635                0.01000000               -0.02781844                0.07292472                0.09159716                0.14430626                0.00330321                0.11581220
               0.93892670                1.98980764               65.05645905                0.01000000               -0.03451290               -0.08328623                0.09326953                0.11862911                0.06408643                0.11532771
               1.93851463                1.98559586               65.06114100                0.01000001               -0.09115626               -0.10100509                0.10471910                0.27648244                0.05459222                0.13019019
               2.93710358                1.98484906               65.06449055                0.01000000               -0.21249154               -0.07159867                0.11256515                0.61500077               -0.03794644                0.11999625
               3.93426480                1.98812417               65.06723350                0.01000000               -0.35977872               -0.03249039                0.11936362                0.95262689               -0.08797180                0.12092186
               4.92990800                1.99568389               65.06930412                0.01000001               -0.49910011               -0.02609719                0.12458653                1.28095214               -0.14849644                0.12768902
               5.92428280                2.00704360               65.07058593                0.01000000               -0.60776292               -0.10442693                0.12709131                1.73085011               -0.27142260                0.14397103
               6.91775275                2.02525518               65.07006118                0.01000003               -0.34710005               -0.41643014                0.13596771                1.23075557               -0.18249925                0.17176916
               7.91734080                2.02770896               65.07321408                0.40452085               -0.04132720               -0.04092234                0.13684880               -0.00000251                0.00078067                0.00601247
               8.91692620                2.03023472               65.07636493                1.00000000               -0.04142550               -0.04122589                0.13769789                0.00006464                0.00024803                0.00200956
               9.91651229                2.03283061               65.07951375                0.99999999               -0.04139156               -0.04148838                0.13839159               -0.00350860               -0.00000427                0.00446783
              -0.05397811                2.99546897               65.05631726                0.01000000               -0.04959372                0.12509944                0.09967862                0.13359792                0.02506798                0.21188019
               0.94552596                2.98841015               65.06001754                0.01000000               -0.03962406               -0.17215269                0.10707616                0.28362091                0.00803617                0.24324969
               1.94522941                2.98414624               65.06359360                0.01000000               -0.08951872               -0.21070476                0.11582698                0.62581846               -0.01647822                0.18560770
               2.94373558                2.98369105               65.06689355                0.01000000               -0.22407980               -0.17623130                0.12591287                1.03254186               -0.04642533                0.16715767
               3.94074782                2.98747836               65.06969153                0.01010601               -0.37481062               -0.13141027                0.13461283                1.42048369               -0.07956661                0.16146648
               4.93623937                2.99488114               65.07201329                0.01000000               -0.53931973               -0.11259519                0.14138173                1.79834932               -0.12182224                0.17401305
               5.92996142                3.00625481               65.07367077                0.01000001               -0.60588672               -0.16276998                0.14821469                1.98855008               -0.15859532                0.21304366
               6.92412164                3.01729974               65.07509227                0.01000000               -0.75550790               -0.53536426                0.15499273                1.90204469               -0.25075284                0.32083649
               7.91485126                3.02726592               65.07489550                0.01000001               -0.48768042               -0.27573863                0.15983865                1.10496826               -0.17376575                0.22081844
               8.91436803                3.02978789               65.07792935                0.13273200               -0.04849883               -0.04448590                0.16094075                0.00317470               -0.00708195                0.04826073
               9.91388129                3.03238124               65.08107945                1.00000000               -0.04867399               -0.04748654                0.16159681               -0.00016569               -0.00176596                0.05264056
              -0.04400550                3.99624982               65.05911156                0.01000003               -0.00726457                0.00921776                0.10020268                0.22993497               -0.00562877                0.19015892
               0.95592186                3.98636459               65.06292785                0.01000000               -0.01222050               -0.26711598                0.10306724                0.51045338               -0.03743205                0.25780002
               1.95575009                3.98138176               65.06636440                0.01000000               -0.07497789               -0.33319564                0.11862923                1.00191955               -0.06956760                0.22862082
               2.95442230                3.98132443               65.06948560                0.01010237               -0.21328519               -0.29923736                0.13402615                1.44522117               -0.07378763                0.18787076
               3.95148439                3.98549596               65.07235084                0.01000000               -0.36618808               -0.26175063                0.14535908                1.86342726               -0.07150229                0.18026269
               4.94709854                3.99343199               65.07494113                0.01000001               -0.49245948               -0.20807621                0.15457896                2.20193648               -0.07836000                0.20240084
               5.94163520                4.00378820               65.07725551                0.01000001               -0.61580031               -0.25668177                0.16283610                2.41242404               -0.10176471                0.25318606
               6.93478253                4.01454790               65.07912414                0.01000002               -0.73415927               -0.30148694                0.16947374                2.29985292               -0.12917607                0.30829711
               7.92695201                4.02219418               65.08076285                0.01000000               -1.14540735               -0.38809094                0.17310354                2.29628446               -0.22937760                0.40013962
               8.91187438                4.02934500               65.08043236                0.01000000               -0.78148655               -0.37873745                0.17119705                1.93767276               -0.17313808                0.33888751
               9.91132228                4.03188088               65.08363231                0.01000000               -0.05521013               -1.18584516                0.17040570                1.85262146               -0.00634899                0.31229584
              -0.02960894                4.99565333               65.06134804                0.01000003                0.02120266               -0.19254555                0.08238366                0.35157369               -0.05294148                0.16301635
               0.97060308                4.98306783               65.06568060                0.01000000               -0.00415482               -0.35838150                0.07743263                0.76946883               -0.13585272                0.29384876
               1.97030796                4.97748233               65.06896714                0.01000001               -0.10386400               -0.43154667                0.10661859                1.34207748               -0.15622796                0.22019033
               2.96852580                4.97770631               65.07199582                0.01000000               -0.21995768               -0.43568029                0.13365078                1.82185361               -0.09166477                0.16000219
               3.96590881                4.98224335               65.07500069                0.01000001               -0.32699686               -0.37382216                0.15185830                2.20161151               -0.04736655                0.17175248
               4.96198587                4.99071962               65.07798948                0.01000001               -0.44074065               -0.32184876                0.16334424                2.52602910               -0.02893943                0.20896878
               5.95709399                5.00112118               65.08080992                0.01000950               -0.51365790               -0.29652999                0.17027061                2.67478052               -0.03407861                0.26640708
               6.95171271                5.01127000               65.08343183                0.01001488               -0.55570748               -0.34831774                0.17439144                2.70954344               -0.06784818                0.34711972
               7.94597985                5.01950411               65.08562243                0.01000000               -0.41389615               -0.39886570                0.17782973                2.58702456               -0.09053883                0.39818123
               8.94343479                5.02221314               65.08784312                0.01000000               -0.00589391               -0.80149097                0.18012669                2.23580575               -0.07171669                0.51777559
               9.94586197                5.00866433               65.09036817                0.01000000                0.24271807               -1.55508260                0.18228046                1.50630120               -0.06367481                0.47196948
              -0.01180302                5.99239891               65.06213858                0.01000003                0.12852544               -0.70813872                0.13221732                0.75697909               -0.24100014                0.41084167
               0.98948223                5.97919696               65.06765866                0.01000001               -0.01219094               -0.42906809                0.02450954                1.06804014               -0.26327850                0.28710274
               1.98795316                5.97275083               65.07114483                0.01000000               -0.16919411               -0.50152367                0.08098076                1.72416101               -0.16502200                0.06050391
               2.98609835                5.97261083               65.07407218                0.01000001               -0.27249257               -0.48962060                0.12953636                1.97819766               -0.07209526                0.08904297
               3.98250331                5.97801952               65.07743002                0.01000001               -0.36785325               -0.48764802                0.15411656                2.38062920                0.00590184                0.13218997
               4.97874129                5.98699501               65.08087755                0.01000386               -0.39614436               -0.40117831                0.16513714                2.64525366                0.04159059                0.19046502
               5.97458042                5.99785760               65.08436333                0.01000005               -0.40754069               -0.33171677                0.16713333                2.71861573                0.05152177                0.26180485
               6.97059047                6.00758154               65.08763857                0.01000000               -0.34155284               -0.35877724                0.18098186                2.59537652                0.03864729                0.35713611
               7.96774936                6.01421687               65.09065166                0.01000000               -0.15801016               -0.49985494                0.18915690                2.24740764                0.02682162                0.42036486
               8.96743027                6.01331518               65.09344769                0.01000001                0.03982790               -0.70691853                0.19063095                1.39236672                0.00476941                0.44830612
               9.96854592                6.00077923               65.09617861                0.01000000                0.11156537               -0.50727319                0.19413141                0.67741615               -0.00804852                0.41018103
               0.01193454                6.98149055               65.06562198                1.00000000               -0.03225722               -0.56075083                0.10247096                0.83758466               -0.00661899                0.14750075
               1.01161197                6.97448647               65.06924480                0.21340853               -0.02786134               -0.25290087                0.11398458                0.75532815               -0.06528629                0.03303739
               2.01137732                6.96745185               65.07168711                0.01004329               -0.43954520               -0.28297390                0.09478986                1.18704545               -0.04820940                0.01119477
               3.00282107                6.96791390               65.07549563                0.01000000               -0.61200540               -0.62960541                0.12903768                1.84323639                0.04246706               -0.01109007
               3.99913721                6.97249039               65.07937283                0.01001111               -0.38841007               -0.59972027                0.14818246                2.23242111                0.08743167                0.08161433
               4.99505286                6.98269605               65.08349505                0.01001323               -0.41287133               -0.45563935                0.16324379                2.62507153                0.13980134                0.14118173
               5.99087978                6.99448684               65.08760170                0.01000000               -0.38959478               -0.29280798                0.17546075                2.53938520                0.16803073                0.23116067
               6.98726097                7.00409446               65.09161969                0.01000000               -0.28427132               -0.28704224                0.18218038                2.20116983                0.17365625                0.34092869
               7.98519435                7.00950701               65.09547216                0.01000001               -0.12706031               -0.38004905                0.18597150                1.68122797                0.14730335                0.43964148
               8.98471976                7.00807477               65.09880715                0.01000000               -0.03560743               -0.36956502                0.18986353                0.91752206                0.07801307                0.47744370
               9.98448221                6.99851887               65.10134060                0.01000003               -0.02375568               -0.06271123                0.19619092                0.40133051                0.02789986                0.41487737
               0.01895685                7.98118390               65.06644151                1.00000000               -0.03293543               -0.03097075                0.10423743               -0.00041511               -0.00505917                0.01763661
               1.01862750                7.97413894               65.06994467                1.00000000               -0.03451062               -0.03468984                0.11464757               -0.00118067               -0.01183428               -0.00546214
               2.01826664                7.96709135               65.07331091                0.29224225               -0.03514747               -0.03683718                0.12549015               -0.00898584               -0.05322278                0.03129994
               3.01792455                7.96001872               65.07597318                0.01000001               -0.29485311               -0.41349946                0.10929170                1.05197032                0.02879675               -0.00293474
               4.01236958                7.96602512               65.08089541                0.01000000               -0.43391438               -0.99581724                0.14125577                2.16151861                0.17258479               -0.01619005
               5.00924626                7.97788223               65.08556634                0.01000000               -0.41999295               -0.34283120                0.15860789                2.43763229                0.21262215                0.08714456
               6.00396972                7.99200144               65.09042004                0.01000000               -0.48262770               -0.13912099                0.17694722                2.13987539                0.25935276                0.18510944
               6.99959370                8.00184070               65.09529513                0.01000001               -0.32880533               -0.15423053                0.18071156                1.62345223                0.31150705                0.28370635
               7.99739361                8.00661589               65.10032003                0.01000002               -0.14124297               -0.22525208                0.18264477                1.12991366                0.30498112                0.40690511
               8.99676885                8.00592388               65.10425693                0.01000001               -0.08546373               -0.16405288                0.18142088                0.64337544                0.19381782                0.64854290
               9.99568434                7.99952500               65.10679328                0.01000002               -0.10845100                0.26007358                0.18419116                0.34471294                0.11240650                0.45139043
               0.02601614                8.98087114               65.06732976                1.00000000               -0.03352436               -0.03158556                0.10644388               -0.00018217               -0.00023909                0.01738369
               1.02568090                8.97379267               65.07075228                0.99999999               -0.03491606               -0.03476592                0.11595556               -0.00065127               -0.00029219                0.00096921
               2.02531782                8.96671511               65.07418198                0.99999999               -0.03770961               -0.03757170                0.12498307               -0.00049768               -0.00023985               -0.00367028
               3.02492671                8.95964391               65.07761276                0.81280656               -0.04068745               -0.03926040                0.13360200               -0.00250961                0.00342142                0.02883737
               4.02450407                8.95257404               65.08111469                0.01000000               -0.35487596               -0.69506940                0.14116039                1.77078012                0.13839804               -0.05128028
               5.01782919                8.97583943               65.08720111                0.01000000               -0.73926280                0.00425058                0.15841094                2.05703106                0.29443168                0.03797303
               6.00971882                8.99170442               65.09262275                0.01000001               -0.63568122                0.02828749                0.17565985                1.29204674                0.32647134                0.09993511
               7.00511556                9.00100985               65.09815493                0.01000002               -0.30046888               -0.06600880                0.18193809                0.83957983                0.41212867                0.16075215
               8.00370944                9.00500196               65.10400612                0.01000002               -0.02187038               -0.15828918                0.18050091                0.52447073                0.62213478                0.25559880
               9.00467816                9.00479371               65.11218850                1.00000000                0.02323944               -0.08146695                0.16211002                0.38695525                0.41236823                0.40540174
              10.00417423                9.00372034               65.11206140                0.99999488               -0.05039280                0.18266844                0.17495220                0.37106393               -0.00272463                0.26639702
               0.03311015                9.98055218               65.06815109                1.00000000               -0.03396500               -0.03189551                0.10780262               -0.00145533                0.01249944                0.01349484
               1.03277050                9.97344363               65.07157730                1.00000000               -0.03523516               -0.03490431                0.11717580               -0.00165339                0.01635358                0.00184927
               2.03240545                9.96633992               65.07509641                0.99999999               -0.03775378               -0.03751929                0.12602793               -0.00174332                0.02281986               -0.00094922
               3.03201542                9.95923351               65.07866671                0.99999998               -0.04078939               -0.04103950                0.13607266               -0.00193787                0.02602614                0.00151128
               4.03158966                9.95212373               65.08223787                0.01667637               -1.03794628               -0.04503129                0.14375713                1.64524473                0.15830091               -0.00343723
               5.01125650                9.97796724               65.08840724                0.01000001               -1.34747141                0.21278102                0.16440653                1.36490394                0.30472806               -0.00491284
               6.00464023                9.99256719               65.09406865                0.01000001               -0.40843690                0.08627645                0.18312697                0.61980543                0.33485071                0.03892238
               7.00308776               10.00052052               65.09969556                0.01000000               -0.02705357               -0.04893278                0.19084584                0.34136540                0.43294056                0.06831184
               8.00409916               10.00345010               65.10597399                0.01000000                0.13509067               -0.15518610                0.18616313                0.22767312                0.53553257                0.13259638
               9.00578957               10.00429454               65.11207417                0.99999320                0.05766002               -0.04991694                0.17209544                0.09755506                0.31499217                0.00362818
              10.00525236               10.00317837               65.11194707                0.99992165               -0.05372145               -0.05419710                0.18493765               -0.00380435                0.00324619               -0.00324645
              -0.07230926               -0.00687359               66.05142266                1.00000000               -0.02299489               -0.02418000                0.07653640                0.00137122               -0.00798270                0.00767137
               0.92746079               -0.01089665               66.05496740                1.00000000               -0.02309256               -0.02442153                0.07735259                0.00016528               -0.00862681               -0.00151782
               1.92722889               -0.01489380               66.05849957                0.01000000                0.13114719               -0.02466254                0.07816866                0.18555772               -0.01357817               -0.00349951
               2.93008374               -0.01515541               66.06194053                0.01000000                0.22990133               -0.08049426                0.08388481                0.15440106               -0.03842453                0.03957216
               3.93182692               -0.01263567               66.06464504                0.01000000                0.10257905               -0.03194099                0.09024354                0.19699315               -0.11725836                0.04334624
               4.93213532               -0.00594374               66.06645190                0.01000001               -0.12485407                0.01293855                0.09980401                0.33153551               -0.20147059                0.04449808
               5.92932984                0.00571119               66.06747334                0.01000000               -0.63361738                0.12245838                0.10459900                0.75093148               -0.26370409                0.02966152
               6.91946297                0.02425429               66.06786645                0.97163183               -0.50674301               -0.03073517                0.09031931                0.80778479               -0.13657043               -0.00144071
               7.91919498                0.02671832               66.07100199                1.00000000               -0.02681371               -0.03072877                0.09027449                0.00007039                0.00090536               -0.00016639
               8.91892670                0.02925731               66.07414269                0.99999998               -0.02680824               -0.03069489                0.09016220                0.00009924                0.00113998                0.00111393
               9.91865881                0.03187062               66.07727718                1.00000000               -0.02678852               -0.03073212                0.09020546               -0.00375512                0.00131355                0.00260189
              -0.06827249                0.99288461               66.05266345                1.00000000               -0.02549632               -0.02536172                0.08457322                0.00125842                0.00144204                0.00813061
               0.93147255                0.98885913               66.05620983                0.01013266               -0.02568325               -0.02561897                0.08538978                0.00005302                0.00427858               -0.00443572
               1.93121385                0.98485957               66.05981488                0.01000000               -0.04869336               -0.02787205                0.08620625                0.14879237                0.00989679                0.04757564
               2.93049868                0.98403964               66.06347059                0.01000000               -0.10114182               -0.05011423                0.09306023                0.28726376               -0.02965910                0.06949599
               3.92919101                0.98704492               66.06619122                0.01000000               -0.21107195               -0.01425116                0.09899914                0.46206984               -0.10396047                0.07612513
               4.92627724                0.99418565               66.06814336                0.01000000               -0.37254375                0.02229394                0.10678456                0.72194662               -0.17654630                0.07900056
               5.92174014                1.00693577               66.06923600                0.01000001               -0.46199959               -0.00047703                0.11402576                1.07739029               -0.24443695                0.07217805
               6.91703725                1.02394694               66.06965168                0.86519218               -0.25229831               -0.03424624                0.11418180                0.73115291               -0.13556916               -0.00192592
               7.91669417                1.02641103               66.07279437                1.00000000               -0.03428556               -0.03426313                0.11424644                0.00010905                0.00066843                0.00000729
               8.91635154                1.02895036               66.07593903                1.00000000               -0.03431090               -0.03426717                0.11430895                0.00006265                0.00039404                0.00188041
               9.91600795                1.03156329               66.07907660                1.00000000               -0.03435882               -0.03431874                0.11439261               -0.00363762                0.00019213                0.00417843
              -0.06423314                1.99261917               66.05391739                0.01001184               -0.02799718                0.07969113                0.09260990                0.13796618                0.00330298                0.11386093
               0.93548689                1.98859097               66.05739253                0.01000000               -0.03713164               -0.06502883                0.09342673                0.12004911                0.06699044                0.11434017
               1.93502423                1.98454876               66.06214500                0.01000001               -0.09216100               -0.07550767                0.09766077                0.28198510                0.05879989                0.13318095
               2.93364367                1.98384230               66.06556556                0.01000000               -0.20509570               -0.06004922                0.10410416                0.61122550               -0.03562199                0.12582462
               3.93092231                1.98707930               66.06838064                0.01000000               -0.34801344               -0.02619781                0.11137341                0.94159272               -0.08898197                0.13177422
               4.92668340                1.99450214               66.07050829                0.01000001               -0.49029805               -0.01977093                0.11875203                1.26763157               -0.14961054                0.14093641
               5.92111635                2.00570165               66.07187207                0.01000000               -0.60363154               -0.09634758                0.12779671                1.70817031               -0.27060943                0.15352228
               6.91461077                2.02356936               66.07143050                0.01000000               -0.34613076               -0.40311840                0.13788057                1.21482561               -0.17830354                0.16817130
               7.91419374                2.02603306               66.07458944                0.41365657               -0.04175402               -0.04133443                0.13821619                0.00002062                0.00109280                0.00596287
               8.91377569                2.02857196               66.07774594                1.00000000               -0.04167735               -0.04145698                0.13850062                0.00006730                0.00041493                0.00210989
               9.91336019                2.03118424               66.08089869                0.99999998               -0.04154982               -0.04150926                0.13856683               -0.00367196                0.00005959                0.00453665
              -0.05745676                2.99447843               66.05727837                0.01000000               -0.05992975                0.14571250                0.09425460                0.12675826                0.02602038                0.20131670
               0.94194395                2.98755855               66.06101036                0.01000000               -0.04705145               -0.13208972                0.09772298                0.26605703                0.01281816                0.22929383
               1.94160221                2.98334942               66.06467272                0.01000000               -0.08756509               -0.18458715                0.10467845                0.60266741               -0.00785074                0.17527144
               2.94019264                2.98283866               66.06807712                0.01000000               -0.21195935               -0.16202901                0.11338688                1.01161941               -0.03822218                0.16737224
               3.93736303                2.98652096               66.07097331                0.01010787               -0.35925556               -0.12257160                0.12314779                1.40234617               -0.07319166                0.16809606
               4.93300753                2.99379023               66.07338047                0.01000000               -0.52633551               -0.10311094                0.13270489                1.78265934               -0.11640370                0.18366997
               5.92683632                3.00500882               66.07511797                0.01000001               -0.60025905               -0.14965500                0.14242647                1.97489646               -0.15052915                0.21794076
               6.92100235                3.01588457               66.07662630                0.01000000               -0.75721678               -0.51029538                0.15217131                1.88559446               -0.24278195                0.31531908
               7.91169198                3.02558434               66.07650581                0.01000001               -0.49003250               -0.26710310                0.16251880                1.10398146               -0.16980663                0.21181798
               8.91120170                3.02812122               66.07954817                0.14944722               -0.04910107               -0.04550505                0.16285077                0.00294157               -0.00687174                0.04601355
               9.91070996                3.03073311               66.08270175                1.00000000               -0.04917416               -0.04736902                0.16284392               -0.00232015               -0.00181035                0.05021702
              -0.04785823                3.99553342               66.06008195                0.01000000               -0.02047339                0.04425063                0.09761229                0.19453217               -0.00159080                0.15990823
               0.95193704                3.98594917               66.06385117                0.01000000               -0.01721508               -0.22979918                0.09236258                0.46115384               -0.02050827                0.19827750
               1.95179747                3.98085701               66.06741897                0.01000000               -0.06162620               -0.31711882                0.10194738                0.95100590               -0.04028753                0.19391439
               2.95070451                3.98060172               66.07072496                0.01010311               -0.18899011               -0.29220530                0.11823468                1.41063318               -0.05032752                0.17864806
               3.94801767                3.98462787               66.07372803                0.01000000               -0.34278925               -0.25584910                0.13195736                1.84466606               -0.05883409                0.18333908
               4.94384873                3.99243992               66.07643151                0.01000001               -0.47488642               -0.19894225                0.14394782                2.19181280               -0.06907667                0.20692199
               5.93851994                4.00270855               66.07884059                0.01000001               -0.60507980               -0.24022111                0.15429176                2.40766584               -0.09421130                0.25411741
               6.93174713                4.01336346               66.08076805                0.01000001               -0.72416118               -0.27929161                0.16216339                2.28869847               -0.12404899                0.29815312
               7.92403671                4.02069099               66.08242968                0.01000000               -1.15306898               -0.36219863                0.16862353                2.27974054               -0.22622561                0.38625108
               8.90868575                4.02766186               66.08224111                0.01000000               -0.79733541               -0.36460476                0.18649239                1.93583747               -0.16847095                0.32487660
               9.90809001                4.03023686               66.08544017                0.01000000               -0.05957455               -1.18384925                0.18636252                1.85640878               -0.00334164                0.29993583
              -0.03439762                4.99536344               66.06216741                0.01000003                0.02410470               -0.19088365                0.10327812                0.33496234               -0.02419949                0.13996565
               0.96584343                4.98296257               66.06624321                0.01000000                0.01837002               -0.37739496                0.07398141                0.73706424               -0.04845820                0.16698143
               1.96596978                4.97700704               66.06988709                0.01000001               -0.06044907               -0.43821822                0.09443642                1.28821038               -0.06303408                0.15813519
               2.96463445                4.97699455               66.07321072                0.01000000               -0.17758170               -0.44417359                0.11894905                1.79930853               -0.05174870                0.15302629
               3.96241815                4.98140398               66.07644283                0.01000001               -0.29356665               -0.37409147                0.13888181                2.19616788               -0.03000536                0.17376690
               4.95876312                4.98981138               66.07956587                0.01000001               -0.41760256               -0.31427967                0.15254844                2.53145987               -0.02069628                0.21060619
               5.95406610                5.00020440               66.08248210                0.01002931               -0.49846219               -0.28597483                0.16241915                2.68129598               -0.02510737                0.26019827
               6.94879387                5.01029874               66.08515490                0.01000000               -0.55388562               -0.31745541                0.16824857                2.70369250               -0.05127114                0.32658607
               7.94298839                5.01834037               66.08738160                0.01000000               -0.42106430               -0.36682122                0.17469432                2.57663715               -0.07279830                0.37552486
               8.94037259                5.02082912               66.08964691                0.01000000               -0.01501214               -0.77171375                0.18188291                2.23586093               -0.06419199                0.50438184
               9.94268814                5.00705612               66.09222156                0.01000000                0.23155569               -1.54603493                0.18779570                1.50380641               -0.06072312                0.46249843
              -0.01635724                5.99171575               66.06415120                0.01000005                0.13919633               -0.72758793                0.17012500                0.79800700               -0.02469139                0.15084932
               0.98503472                5.97840127               66.06812530                0.01000001               -0.00565311               -0.46474350                0.07328196                1.12029314               -0.03430876                0.12601262
               1.98352969                5.97209265               66.07178738                0.01000000               -0.13704867               -0.52750023                0.08338836                1.75428087               -0.05645050                0.05335941
               2.98229375                5.97171825               66.07527959                0.01000001               -0.22027497               -0.50500629                0.12150907                1.98923948               -0.02021669                0.09104166
               3.97912419                5.97714604               66.07890347                0.01000001               -0.33081190               -0.49324312                0.14508579                2.39865815                0.01945626                0.13221795
               4.97567751                5.98615433               66.08250002                0.01003131               -0.37328456               -0.39737765                0.15789165                2.66359331                0.04399753                0.18937148
               5.97165850                5.99698905               66.08600800                0.01000001               -0.39962504               -0.33117109                0.16414260                2.76442050                0.05298436                0.25227155
               6.96768501                6.00701435               66.08937951                0.01000000               -0.33097164               -0.33303005                0.17006587                2.63153276                0.04287417                0.33775242
               7.96503907                6.01335457               66.09250037                0.01000000               -0.14988951               -0.46876520                0.17948930                2.26349057                0.02478826                0.40030343
               8.96468722                6.01222759               66.09531763                0.01000001                0.03365324               -0.67163233                0.18507787                1.40630998                0.00185512                0.43375359
               9.96571214                5.99931616               66.09808517                0.01000000                0.10249185               -0.48486718                0.19063561                0.68430433               -0.00953040                0.40099410
               0.00819147                6.98081168               66.06664631                1.00000000               -0.03190800               -0.56058514                0.10223120                0.87110000               -0.00600941                0.09818085
               1.00787239                6.97366770               66.07037409                0.13673670               -0.02265237               -0.25384112                0.11169824                0.78173102               -0.08318329                0.06513964
               2.00773843                6.96645704               66.07254994                0.01000106               -0.42532737               -0.29712994                0.07290657                1.21845022               -0.04269372                0.03267817
               2.99936585                6.96689443               66.07676535                0.01000000               -0.58915948               -0.64065229                0.12856220                1.85882569                0.06049585               -0.01056798
               3.99595524                6.97153912               66.08081205                0.01000002               -0.35869343               -0.60845295                0.14521125                2.25281034                0.08906995                0.07217133
               4.99219198                6.98186383               66.08509643                0.01000000               -0.37303739               -0.46020233                0.15700112                2.64145230                0.13229967                0.14241015
               5.98849449                6.99358097               66.08929847                0.01000000               -0.35664851               -0.28861962                0.16511529                2.58610007                0.16151768                0.22082763
               6.98505901                7.00363814               66.09341849                0.01000000               -0.27247650               -0.28388610                0.17576560                2.27007762                0.16886276                0.32435050
               7.98304496                7.00896507               66.09730306                0.01000001               -0.12609056               -0.35054338                0.18012793                1.73260535                0.14288956                0.41858300
               8.98253720                7.00739648               66.10069287                0.01014329               -0.04239367               -0.32599563                0.18384828                0.95642446                0.07679453                0.45710039
               9.98219708                6.99735878               66.10332385                0.01000003               -0.03401107               -0.03056170                0.19095091                0.42172836                0.02893871                0.40006010
               0.01535272                7.98050405               66.06748738                1.00000000               -0.03287339               -0.03118131                0.10478433               -0.00032220               -0.00467202                0.01912975
               1.01502398                7.97332445               66.07108621                0.99999999               -0.03403732               -0.03438087                0.11363056               -0.00106694               -0.01096613               -0.00543785
               2.01467197                7.96615005               66.07455660                0.21947999               -0.03179017               -0.03394777                0.12324516               -0.01618487               -0.06815095                0.04809049
               3.01438818                7.95890520               66.07699718                0.01000001               -0.27304863               -0.41655287                0.09928291                1.04473862                0.02810553               -0.00426911
               4.00921100                7.96497698               66.08224807                0.01000000               -0.39617421               -1.01006001                0.13669513                2.15737863                0.18304350               -0.01872174
               5.00646470                7.97695028               66.08712021                0.01000000               -0.38024003               -0.35442370                0.15259538                2.45218957                0.20736507                0.08671489
               6.00160620                7.99121666               66.09214425                0.01000000               -0.43811144               -0.13891164                0.16724214                2.16736107                0.25406509                0.16940623
               6.99770247                8.00133663               66.09707730                0.01000001               -0.28366811               -0.16534374                0.17482988                1.67807779                0.30357586                0.26681479
               7.99593284                8.00634370               66.10212358                0.01000001               -0.11402379               -0.21458135                0.17681896                1.20915432                0.29506220                0.38720170
               8.99542199                8.00570768               66.10605838                0.01000000               -0.08553695               -0.12536484                0.17784816                0.72670165                0.18723071                0.62149190
               9.99422210                7.99870493               66.10868944                0.01000002               -0.11998947                0.31993644                0.18412730                0.40036510                0.10953273                0.42961138
               0.02254422                8.98018806               66.06840188                1.00000000               -0.03391679               -0.03204162                0.10787820               -0.00017143                0.00017681                0.01875913
               1.02220505                8.97298008               66.07191299                0.99999999               -0.03551210               -0.03462744                0.11601527               -0.00079667               -0.00019467                0.00124904
               2.02183397                8.96577808               66.07542187                0.99999999               -0.03856823               -0.03711672                0.12397307               -0.00253165               -0.00057486               -0.00549823
               3.02143368                8.95856337               66.07893157                0.91047079               -0.03881217               -0.03554203                0.12572441               -0.00902910                0.00322751                0.04213017
               4.02105773                8.95133792               66.08252075                0.01000000               -0.32187944               -0.69945108                0.12387430                1.76369307                0.14052688               -0.05077743
               5.01499610                8.97477536               66.08872904                0.01000000               -0.68011839               -0.01418739                0.15293805                2.06854491                0.30073275                0.03492066
               6.00745536                8.99080274               66.09434677                0.01000001               -0.57512898                0.01158048                0.16850479                1.31267591                0.32764082                0.08921013
               7.00349352                9.00033126               66.09994679                0.01000002               -0.22991844               -0.08743762                0.17549301                0.87934417                0.40374150                0.14959552
               8.00285699                9.00467344               66.10579478                0.01000004                0.06082438               -0.18010532                0.17660845                0.59126467                0.60266291                0.24233996
               9.00471000                9.00488918               66.11379608                1.00000000                0.06764443               -0.06562286                0.15940400                0.47754085                0.39611407                0.39014268
              10.00420988                9.00375751               66.11381303                1.00000000               -0.05001201                0.22526991                0.17537310                0.44311371               -0.00272198                0.25360937
               0.02976523                9.97986321               66.06924116                1.00000000               -0.03472099               -0.03248431                0.11019868               -0.00102931                0.01361935                0.01445973
               1.02941802                9.97263190               66.07275520                0.99999997               -0.03635911               -0.03481814                0.11818285               -0.00147730                0.01699695                0.00197787
               2.02903805                9.96540772               66.07634867                0.99999998               -0.03851300               -0.03703666                0.12618754               -0.00146922                0.02382185               -0.00210160
               3.02864776                9.95819436               66.08001493                0.99999994               -0.03825886               -0.03690068                0.12870696                0.00042033                0.02675996                0.00177031
               4.02827287                9.95098796               66.08367227                0.01311397               -1.01384972               -0.03499544                0.12704530                1.64512281                0.16165518               -0.00227799
               5.00837077                9.97666653               66.09000045                0.01000001               -1.29845319                0.18911770                0.15893902                1.36048264                0.31569299               -0.00613776
               6.00230381                9.99144827               66.09586571                0.01000001               -0.34760583                0.06455246                0.17633114                0.63091181                0.34042851                0.03355455
               7.00141865                9.99958787               66.10158029                0.01000000                0.04481996               -0.07433873                0.18423695                0.35718027                0.42448788                0.06175931
               8.00320021               10.00274160               66.10782201                0.01000000                0.22350429               -0.19318429                0.18493782                0.27468877                0.51791648                0.12605742
               9.00588874               10.00439522               66.11379303                0.99999999                0.10737524               -0.04939621                0.17167585                0.14131004                0.30133047                0.00362681
              10.00534772               10.00321033               66.11380997                0.99999996               -0.05410240               -0.05471832                0.18764498               -0.00470612                0.00324467               -0.00324448
              -0.07593791               -0.00807785               67.05219051                1.00000000               -0.02301091               -0.02437867                0.07703508                0.00127861               -0.00798292                0.00767112
               0.92383198               -0.01219445               67.05573914                0.99999999               -0.02298182               -0.02435330                0.07699584                0.00003297               -0.00862747               -0.00151766
               1.92360246               -0.01628430               67.05927520                0.01000001                0.13883855               -0.02432751                0.07695658                0.20086725               -0.01164377               -0.00349984
               2.92660875               -0.01632889               67.06275875                0.01000000                0.23791001               -0.07831848                0.08019109                0.16412652               -0.03530975                0.04014030
               3.92836066               -0.01377298               67.06553176                0.01000001                0.10386886               -0.03119544                0.08613471                0.19739359               -0.11501507                0.04472213
               4.92868613               -0.00721598               67.06741402                0.01000000               -0.11953604                0.01426818                0.09275387                0.32524654               -0.20026242                0.04512741
               5.92596994                0.00417613               67.06845794                0.01000000               -0.61769679                0.12120574                0.09577061                0.73241403               -0.27002250                0.02854491
               6.91633220                0.02233489               67.06876984                0.97254149               -0.49524730               -0.03091029                0.09044634                0.78838728               -0.14065030               -0.00152021
               7.91606499                0.02480399               67.07190165                1.00000000               -0.02663580               -0.03069326                0.08972005                0.00000857                0.00059699               -0.00024079
               8.91579948                0.02735128               67.07503784                1.00000000               -0.02642715               -0.03045175                0.08886865                0.00004443                0.00083006                0.00108919
               9.91553645                0.02997576               67.07816965                1.00000000               -0.02630333               -0.03027011                0.08826353               -0.00400246                0.00107743                0.00241351
              -0.07180853                0.99167836               67.05351296                1.00000000               -0.02559365               -0.02560052                0.08532875                0.00129460                0.00144211                0.00813019
               0.92793553                0.98756202               67.05706323                0.01000000               -0.02565596               -0.02558177                0.08529014                0.00004949                0.00427864               -0.00443553
               1.92767835                0.98347243               67.06067217                0.01000000               -0.04705870               -0.01570321                0.08525101                0.16205237                0.01225298                0.04808851
               2.92699436                0.98288792               67.06437888                0.01000000               -0.09501096               -0.04560420                0.08916444                0.29946905               -0.02634568                0.07110930
               3.92577813                0.98591507               67.06716739                0.01000000               -0.20151585               -0.01247258                0.09567633                0.46102812               -0.10071051                0.07848614
               4.92296404                0.99292671               67.06920073                0.01000000               -0.36297437                0.02407404                0.10383631                0.71056768               -0.17173046                0.08086156
               5.91851865                1.00538818               67.07036543                0.01000001               -0.45309532                0.00279740                0.11149757                1.05387692               -0.24209654                0.07006290
               6.91390214                1.02202578               67.07079849                0.85721264               -0.24808844               -0.03454469                0.11516970                0.71229874               -0.13453497               -0.00212427
               7.91355688                1.02449706               67.07393868                0.99999994               -0.03440496               -0.03436086                0.11461266                0.00015993                0.00069915               -0.00007630
               8.91321404                1.02704676               67.07708085                1.00000000               -0.03424668               -0.03417498                0.11405279                0.00008900                0.00041878                0.00189911
               9.91287194                1.02967306               67.08021620                1.00000000               -0.03420951               -0.03397873                0.11350316               -0.00379332                0.00021027                0.00403234
              -0.06767934                1.99141014               67.05484855                0.01000000               -0.02817577                0.08261959                0.09362153                0.13272053                0.00330291                0.10941901
               0.93203890                1.98729392               67.05832759                0.01000000               -0.04015302               -0.05123156                0.09358403                0.12219659                0.06750364                0.11158736
               1.93151760                1.98340164               67.06309421                0.01000001               -0.09417039               -0.05473658                0.09406431                0.28961951                0.06064448                0.13151057
               2.93015550                1.98275902               67.06657263                0.01000000               -0.19875843               -0.05044124                0.09789635                0.61260631               -0.03056829                0.12562535
               3.92754243                1.98597757               67.06946097                0.01000000               -0.33655650               -0.02110870                0.10516785                0.93544905               -0.08210583                0.13389285
               4.92342437                1.99326551               67.07167916                0.01000001               -0.47970177               -0.01476929                0.11478648                1.25285460               -0.14123538                0.14348419
               5.91794840                2.00423208               67.07314186                0.01000000               -0.59775344               -0.08715385                0.12552097                1.67824267               -0.25930927                0.15222613
               6.91146930                2.02164399               67.07281879                0.01000000               -0.34505961               -0.38786047                0.13961646                1.19303613               -0.17192468                0.16191409
               7.91104721                2.02411677               67.07597841                0.42255371               -0.04220208               -0.04175027                0.13952885                0.00000885                0.00157443                0.00624613
               8.91062526                2.02666778               67.07913494                0.99999999               -0.04196081               -0.04168833                0.13930365                0.00000105                0.00066608                0.00228223
               9.91020799                2.02929619               67.08228509                0.99999999               -0.04172670               -0.04144803                0.13863881               -0.00386137                0.00014895                0.00457560
              -0.06092168                2.99333075               67.05820235                0.01000000               -0.06903538                0.15744063                0.08950459                0.12584297                0.02388230                0.19578543
               0.93838796                2.98653739               67.06197200                0.01000000               -0.05363399               -0.10983163                0.10325613                0.25913533                0.01355599                0.20572526
               1.93800564                2.98237770               67.06568717                0.01000000               -0.08587035               -0.16779794                0.10076438                0.59473257               -0.00219502                0.16246773
               2.93667056                2.98187910               67.06916129                0.01000000               -0.20125035               -0.14976140                0.10419183                1.00331948               -0.02619207                0.16088079
               3.93398063                2.98549289               67.07215449                0.01011179               -0.34519632               -0.11421732                0.11400466                1.39054765               -0.06051921                0.16830182
               4.92976663                2.99263132               67.07466739                0.01000000               -0.51378087               -0.09402396                0.12514727                1.76661453               -0.10436466                0.18558773
               5.92370501                3.00364511               67.07651930                0.01000001               -0.59442336               -0.13628304                0.13774304                1.95516418               -0.13871613                0.21584092
               6.91787816                3.01426857               67.07813570                0.01000000               -0.75858751               -0.48308173                0.15013701                1.86300542               -0.23053412                0.30544363
               7.90853326                3.02366205               67.07814587                0.01000001               -0.49217586               -0.25366815                0.16617935                1.09258297               -0.16287550                0.20317398
               8.90803464                3.02621300               67.08118636                0.16884002               -0.04976771               -0.04619941                0.16484846                0.00256325               -0.00686371                0.04797254
               9.90753791                3.02884410               67.08433633                0.99999999               -0.04967369               -0.04681990                0.16396112               -0.00442274               -0.00187934                0.05229622
              -0.05157575                3.99455895               67.06106381                0.01000000               -0.02495795                0.05263177                0.10657295                0.18769043                0.00133137                0.15250929
               0.94817467                3.98509728               67.06477510                0.01000000               -0.01768500               -0.22020338                0.09205488                0.45065002               -0.00497488                0.16246763
               1.94807055                3.98004568               67.06840334                0.01000000               -0.05339879               -0.30505378                0.09657658                0.93703238               -0.01114084                0.16724037
               2.94710669                3.97976379               67.07185029                0.01011500               -0.17346917               -0.28334449                0.10793365                1.39560414               -0.02304841                0.17054939
               3.94460116                3.98369322               67.07498999                0.01000000               -0.32511239               -0.24748247                0.12153872                1.82970743               -0.03913021                0.18393026
               4.94060444                3.99138503               67.07782009                0.01000001               -0.45933664               -0.18840464                0.13429768                2.17896147               -0.05527126                0.20882313
               5.93541443                4.00150641               67.08034135                0.01000001               -0.59459899               -0.22436890                0.14640372                2.39475691               -0.08294947                0.25025571
               6.92871246                4.01198236               67.08236740                0.01000201               -0.72299946               -0.25391560                0.15841279                2.27233108               -0.11439848                0.28604734
               7.92095444                4.01904341               67.08413532                0.01000156               -1.16089945               -0.33590693                0.17174215                2.26300224               -0.21832210                0.37213715
               8.90549447                4.02574379               67.08416221                0.01000000               -0.80485539               -0.34943693                0.19713457                1.92963604               -0.15806003                0.31065209
               9.90485733                4.02835979               67.08735956                0.01000000               -0.06371412               -1.17873980                0.19580327                1.85961404               -0.00320462                0.28964880
              -0.03824455                4.99438339               67.06341360                0.01000003                0.01587806               -0.18109779                0.12711486                0.34152897                0.00114897                0.12036844
               0.96191423                4.98213332               67.06716023                0.01000000                0.01621620               -0.37554724                0.09865570                0.74392235               -0.00531978                0.12596282
               1.96207978                4.97627662               67.07085586                0.01000001               -0.04895681               -0.44452522                0.09656819                1.28391014               -0.01207883                0.14232226
               2.96093510                4.97621221               67.07437480                0.01000000               -0.15631143               -0.44433827                0.11477274                1.78689308               -0.01652477                0.15638849
               3.95895355                4.98054324               67.07777833                0.01000001               -0.27012141               -0.36992797                0.12890986                2.18609320               -0.01147308                0.18136652
               4.95553267                4.98886323               67.08104045                0.01000001               -0.39753631               -0.30665732                0.14295290                2.52633741               -0.00936712                0.21345513
               5.95100282                4.99915773               67.08405830                0.01000001               -0.48724394               -0.27098783                0.15331331                2.68366092               -0.01934891                0.25536598
               6.94578779                5.00919026               67.08679680                0.01000001               -0.54854754               -0.29546799                0.16126944                2.70146568               -0.04754461                0.31483956
               7.94003187                5.01694391               67.08911632                0.01000000               -0.42384010               -0.33709647                0.17257862                2.56932861               -0.06020668                0.35316676
               8.93731099                5.01922426               67.09148078                0.01000000               -0.02668343               -0.73997479                0.18425722                2.23567443               -0.05662158                0.47866107
               9.93949820                5.00526930               67.09412408                0.01000003                0.21872144               -1.53314844                0.19227594                1.50264972               -0.05662001                0.44334053
              -0.02024505                5.99093699               67.06554108                0.01000000                0.14049241               -0.71326946                0.13774823                0.79510240               -0.02568445                0.12398832
               0.98115988                5.97758634               67.06912430                0.01000001               -0.00425459               -0.46524843                0.10438709                1.11743152               -0.02981684                0.12816199
               1.97966986                5.97115518               67.07281260                0.01000000               -0.12909745               -0.54702120                0.12281680                1.76715456               -0.02981239                0.04215945
               2.97857793                5.97087703               67.07650236                0.01000001               -0.19989288               -0.51136287                0.12435960                1.99866330               -0.00531625                0.11349938
               3.97567200                5.97629466               67.08033174                0.01000001               -0.30306128               -0.49770127                0.14167861                2.40044136                0.02455050                0.14340515
               4.97251670                5.98525188               67.08403538                0.01000001               -0.34556952               -0.39695845                0.14912486                2.67358786                0.04523128                0.18821819
               5.96876061                5.99608666               67.08764618                0.01002630               -0.37805554               -0.31952897                0.15825723                2.78031869                0.05700875                0.24816688
               6.96495559                6.00607300               67.09103989                0.01000000               -0.32268004               -0.31532917                0.16270041                2.65303370                0.05243423                0.31602306
               7.96230701                6.01230148               67.09424144                0.01000000               -0.15365107               -0.43442319                0.17119689                2.28086014                0.02867868                0.38151979
               8.96188257                6.01094430               67.09714925                0.01000000                0.02566128               -0.63741151                0.18135805                1.41596071                0.00367996                0.41340903
               9.96282024                5.99769682               67.09999133                0.01000000                0.09376679               -0.46767516                0.18877466                0.69029271               -0.00880977                0.38331444
               0.00435880                6.98011800               67.06766661                0.99961028               -0.03141241               -0.55630360                0.10128373                0.86657548               -0.00572046                0.07901484
               1.00404468                6.97282835               67.07147876                0.05525420               -0.01133128               -0.25475273                0.10894941                0.76986343               -0.11233511                0.06921488
               2.00413218                6.96533620               67.07314524                0.01000001               -0.41379028               -0.29869740                0.07282081                1.22396923               -0.05715003                0.04410503
               2.99576887                6.96598495               67.07806687                0.01000000               -0.57723275               -0.65549552                0.15710400                1.87351438                0.06145947               -0.01841578
               3.99258752                6.97058922               67.08227706                0.01000001               -0.32782217               -0.61763446                0.14516686                2.25872571                0.07838642                0.07215084
               4.98921243                6.98092406               67.08663508                0.01000001               -0.33997227               -0.46339795                0.15156435                2.65793032                0.12579379                0.13439285
               5.98578808                6.99276715               67.09090401                0.01000000               -0.32893949               -0.28726953                0.15712777                2.61464663                0.14831333                0.21899346
               6.98263364                7.00288368               67.09513500                0.01000000               -0.25051531               -0.27121507                0.16623181                2.31092972                0.15991897                0.30360905
               7.98077777                7.00825545               67.09907472                0.01000000               -0.11993895               -0.32166422                0.17240269                1.77995587                0.13484307                0.40003560
               8.98023486                7.00647603               67.10248412                0.01000001               -0.04893787               -0.28468937                0.17590997                0.98626928                0.06818409                0.43482841
               9.97979901                6.99591580               67.10515962                0.01000003               -0.04358478               -0.00343827                0.18367901                0.43360868                0.02029815                0.37965225
               0.01166575                7.97981092               67.06853719                1.00000000               -0.03268049               -0.03127303                0.10480739               -0.00003022               -0.00417699                0.02044504
               1.01133895                7.97249129               67.07221728                0.99999998               -0.03365511               -0.03398478                0.11243415               -0.00086771               -0.00997041               -0.00506715
               2.01099265                7.96518123               67.07577581                0.14451380               -0.02718758               -0.02615591                0.12114621               -0.02842998               -0.08447116                0.07708811
               3.01079520                7.95776712               67.07795884                0.01000001               -0.25426204               -0.42580982                0.08784971                1.04421246                0.03240555               -0.01286896
               4.00590741                7.96394197               67.08362932                0.01000002               -0.36489093               -1.02274617                0.13706018                2.15732122                0.19700964               -0.03999138
               5.00349738                7.97598392               67.08861824                0.01000000               -0.34067405               -0.36332305                0.15107220                2.46023453                0.19571832                0.08489944
               5.99909393                7.99034127               67.09376488                0.01000000               -0.39057445               -0.14999924                0.15829801                2.19652898                0.24777504                0.15980966
               6.99568589                8.00064870               67.09879172                0.01000000               -0.23900745               -0.16924516                0.16648208                1.73178342                0.29509885                0.24811671
               7.99431378                8.00586820               67.10385641                0.01000272               -0.08691413               -0.20525530                0.16995624                1.28687269                0.28582334                0.36935630
               8.99394761                8.00525051               67.10781389                0.01000001               -0.08504540               -0.08070569                0.17510430                0.80535969                0.18181564                0.59447787
               9.99261287                7.99762805               67.11047583                0.01000002               -0.13347343                0.38780989                0.18341962                0.45209827                0.10360272                0.41708230
               0.01899747                8.97949254               67.06948732                1.00000000               -0.03404500               -0.03240528                0.10885563                0.00004781                0.00066597                0.02010427
               1.01865702                8.97214866               67.07307259                0.99999999               -0.03548615               -0.03462626                0.11601115               -0.00077373                0.00082994                0.00154093
               2.01828774                8.96481308               67.07666144                0.99999998               -0.03823210               -0.03684720                0.12295219               -0.00252023               -0.00457709               -0.00610710
               3.01789238                8.95746875               67.08012725                0.84168776               -0.03853002               -0.03324646                0.12440093               -0.01234746               -0.00971242                0.05335286
               4.01751714                8.95013429               67.08359218                0.01000000               -0.29372740               -0.70834140                0.12363589                1.75593382                0.14898585               -0.06428067
               5.01201783                8.97365760               67.09025987                0.01000000               -0.62316311               -0.03411383                0.14933334                2.07562032                0.31568390                0.03297695
               6.00505388                8.98976717               67.09599284                0.01000000               -0.51377238               -0.00704352                0.16190884                1.33081079                0.32320266                0.08085539
               7.00174238                8.99949877               67.10166479                0.01000002               -0.15702365               -0.10799941                0.16762051                0.91592566                0.39352974                0.13650766
               8.00191341                9.00415034               67.10753829                0.01007389                0.14199082               -0.19756932                0.16948434                0.66470535                0.58053884                0.23274108
               9.00458220                9.00486192               67.11537658                0.99999997                0.10862420               -0.04386689                0.15669261                0.57011340                0.37919921                0.37468137
              10.00408589                9.00367200               67.11556886                1.00000000               -0.04963034                0.27457689                0.17579491                0.51453340               -0.00271877                0.24537694
               0.02635447                9.97916281               67.07035506                1.00000000               -0.03515361               -0.03297218                0.11217844               -0.00070551                0.01469466                0.01555921
               1.02600293                9.97179876               67.07394096                0.99999999               -0.03661586               -0.03498967                0.11917565               -0.00133528                0.01906301                0.00190894
               2.02562215                9.96444428               67.07762016                0.99999997               -0.03879499               -0.03687952                0.12614646               -0.00138805                0.02132875               -0.00250931
               3.02522703                9.95710219               67.08124085                0.99999994               -0.03924545               -0.03665636                0.12817746                0.00000865                0.01455728               -0.00083584
               4.02483724                9.94977515               67.08477877                0.01424638               -0.99250591               -0.03591481                0.12824832                1.64198239                0.17178420               -0.00747169
               5.00537691                9.97530164               67.09158602                0.01000001               -1.24841365                0.16440464                0.15491725                1.35717102                0.33671736               -0.00782463
               5.99986897                9.99020040               67.09759527                0.01000001               -0.28778445                0.04332315                0.17033768                0.64086169                0.34045185                0.02852253
               6.99962122                9.99848871               67.10338030                0.01000000                0.11878888               -0.10100672                0.17771210                0.37370497                0.41569490                0.05471545
               8.00224474               10.00191681               67.10967274                0.01000002                0.31034975               -0.22335336                0.17571630                0.32735691                0.49354834                0.12241836
               9.00582822               10.00437317               67.11550769                1.00000000                0.15193149               -0.04887423                0.17125531                0.18474131                0.28575847                0.00362561
              10.00528337               10.00311959               67.11569997                1.00000000               -0.05448435               -0.05524060                0.19035764               -0.00560998                0.00324255               -0.00324252
              -0.07956617               -0.00936506               68.05296336                1.00000000               -0.02302746               -0.02457713                0.07753460                0.00118564               -0.00798167                0.00766937
               0.92020356               -0.01357518               68.05650731                1.00000000               -0.02287167               -0.02428464                0.07663977               -0.00009969               -0.00862747               -0.00151711
               1.91997640               -0.01775775               68.06003870                0.01000001                0.14587096               -0.02399259                0.07574558                0.21580054               -0.01030668               -0.00350086
               2.92312098               -0.01759287               68.06354436                0.01000001                0.24474729               -0.07591821                0.07675807                0.17282073               -0.03241529                0.03910026
               3.92487135               -0.01501248               68.06636773                0.01000000                0.10414573               -0.03020856                0.08135125                0.19727351               -0.11122384                0.04352900
               4.92520389               -0.00861461               68.06830698                0.01000001               -0.11488883                0.01523471                0.08758542                0.31804854               -0.19808188                0.04382125
               5.92257357                0.00246710               68.06938875                0.01000000               -0.59988215                0.11860038                0.09218778                0.71174807               -0.27221668                0.02706021
               6.91320625                0.02016659               68.06967538                0.97392996               -0.48173273               -0.03110900                0.09083552                0.76532349               -0.14164447               -0.00169338
               7.91293892                0.02263945               68.07279639                1.00000000               -0.02654748               -0.03067043                0.08935832                0.00001170                0.00009020               -0.00035032
               8.91267530                0.02519307               68.07592006                1.00000000               -0.02610874               -0.03018355                0.08761568                0.00002515                0.00023089                0.00103062
               9.91241674                0.02782578               68.07904245                1.00000000               -0.02585600               -0.02972757                0.08631741               -0.00425828                0.00053403                0.00190625
              -0.07534418                0.99038917               68.05437002                1.00000000               -0.02569079               -0.02583937                0.08608353                0.00133049                0.00144166                0.00812887
               0.92439891                0.98618197               68.05791563                0.01000000               -0.02562827               -0.02554413                0.08518966                0.00004472                0.00427806               -0.00443430
               1.92414325                0.98200233               68.06151990                0.01000000               -0.04611770               -0.00391404                0.08429352                0.17408224                0.01385014                0.04809344
               2.92347655                0.98164795               68.06525388                0.01000000               -0.08941486               -0.04173657                0.08559352                0.31138359               -0.02243476                0.06967312
               3.92235495                0.98468543               68.06810475                0.01000000               -0.19159818               -0.01087285                0.09156809                0.45960528               -0.09337929                0.07627608
               4.91964459                0.99153774               68.07022008                0.01000000               -0.35272507                0.02598896                0.10008474                0.69707836               -0.16339948                0.07814254
               5.91530045                1.00365310               68.07146596                0.01000001               -0.44356414                0.00626030                0.10905848                1.02673641               -0.23462411                0.06592221
               6.91077331                1.01985550               68.07195508                0.84845967               -0.24373301               -0.03480759                0.11606967                0.69045640               -0.13116360               -0.00249575
               7.91042579                1.02233275               68.07508662                0.99999994               -0.03454585               -0.03443347                0.11498336                0.00029467                0.00082430               -0.00015877
               8.91008239                1.02489124               68.07822009                1.00000000               -0.03421698               -0.03404869                0.11379489                0.00013901                0.00048244                0.00195674
               9.90974145                1.02752850               68.08134666                0.99999997               -0.03409387               -0.03350763                0.11249470               -0.00396635                0.00022423                0.00356329
              -0.07112516                1.99011816               68.05578982                0.01081284               -0.02835459                0.08948533                0.09463273                0.12086643                0.00330306                0.10145053
               0.92859130                1.98591394               68.05926421                0.01000000               -0.04413877               -0.04782144                0.09374208                0.11885807                0.06750703                0.11572200
               1.92799207                1.98216397               68.06402629                0.01000001               -0.09628765               -0.03563436                0.08937193                0.29421201                0.05594311                0.13341927
               2.92666554                1.98157240               68.06752349                0.01000000               -0.19092019               -0.04346661                0.09207460                0.61655094               -0.02447198                0.11931198
               3.92417366                1.98477006               68.07048400                0.01000000               -0.32438758               -0.01637292                0.09950927                0.93121827               -0.07099556                0.13004840
               4.92017779                1.99190517               68.07280402                0.01000001               -0.46915642               -0.00883399                0.10994034                1.23665403               -0.12824047                0.13949012
               5.91479054                2.00259230               68.07438249                0.01000000               -0.59210317               -0.07634725                0.12234833                1.64292511               -0.24365736                0.14679959
               6.90833573                2.01947044               68.07422283                0.01000000               -0.34407324               -0.37053337                0.14077986                1.16751343               -0.16263083                0.15361580
               7.90790907                2.02195078               68.07738002                0.43306685               -0.04267008               -0.04209201                0.14065580               -0.00001611                0.00256824                0.00770206
               8.90748233                2.02451210               68.08053202                0.99999999               -0.04230952               -0.04189155                0.14012199               -0.00017896                0.00112595                0.00271374
               9.90706288                2.02715562               68.08367147                0.99999999               -0.04194470               -0.04119721                0.13839711               -0.00409801                0.00027028                0.00448050
              -0.06451842                2.99217888               68.05906846                0.01000000               -0.07513323                0.16271004                0.11506378                0.09821464               -0.03794327                0.13014408
               0.93473025                2.98522554               68.06307548                0.01000000               -0.05562788               -0.09518174                0.10147061                0.25087334               -0.04608706                0.22600206
               1.93436903                2.98128964               68.06668801                0.01000000               -0.07643842               -0.15654254                0.09220851                0.60302344               -0.01048028                0.14163993
               2.93320148                2.98077862               68.07016096                0.01000000               -0.18612385               -0.13865981                0.09623117                1.00298436               -0.01367213                0.15032167
               3.93064655                2.98435798               68.07325340                0.01011268               -0.33230268               -0.10437132                0.10637479                1.38370196               -0.04366650                0.16330108
               4.92655543                2.99136106               68.07588342                0.01000000               -0.50264318               -0.08309247                0.11813358                1.74911671               -0.08796935                0.18169907
               5.92059369                3.00212616               68.07787283                0.01000001               -0.58951675               -0.12088247                0.13258674                1.93034359               -0.12224211                0.20858691
               6.91476509                3.01244483               68.07962904                0.01000000               -0.76049388               -0.45235694                0.14863042                1.83471044               -0.21168792                0.29245853
               7.90538381                3.02149091               68.07982939                0.01000000               -0.49455623               -0.23937473                0.17080306                1.07874840               -0.15291499                0.19456637
               8.90487397                3.02405340               68.08284514                0.19236425               -0.05056860               -0.04658040                0.16710996                0.00158147               -0.00754596                0.05370262
               9.90437244                3.02670456               68.08598098                0.99999999               -0.05015340               -0.04567695                0.16467989               -0.00646836               -0.00210557                0.05733125
              -0.05525419                3.99337236               68.06221341                0.01000000               -0.02478049                0.05573271                0.10553371                0.19632069               -0.01041465                0.16162735
               0.94449800                3.98401030               68.06569227                0.01000000               -0.01231720               -0.20464581                0.08728991                0.46126428                0.00085147                0.13314782
               1.94449946                3.97903312               68.06935050                0.01000000               -0.04205523               -0.29227050                0.08955477                0.94667566                0.01621304                0.14200312
               2.94365690                3.97879920               68.07288364                0.01011877               -0.16170996               -0.26541824                0.09890671                1.39147605                0.00392914                0.16186095
               3.94126526                3.98268264               68.07615880                0.01000000               -0.31324756               -0.23342069                0.11233976                1.81603007               -0.01582636                0.18153293
               4.93739195                3.99024332               68.07911746                0.01000001               -0.44758151               -0.17479330                0.12570383                2.16161932               -0.03827308                0.20730758
               5.93231363                4.00017465               68.08176866                0.01000001               -0.58633806               -0.20596368                0.13917597                2.37545310               -0.06854251                0.24305095
               6.92566519                4.01042330               68.08393630                0.01002535               -0.72190841               -0.22608940                0.15377255                2.25042520               -0.10013871                0.27172973
               7.91787547                4.01716329               68.08586452                0.01002821               -1.16824382               -0.30966625                0.17423709                2.24368309               -0.19412880                0.35269916
               8.90230031                4.02358049               68.08618380                0.01000000               -0.81221290               -0.33190482                0.20936129                1.92186105               -0.14112959                0.29527844
               9.90163121                4.02624209               68.08935623                0.01000001               -0.06691014               -1.17066927                0.20371061                1.86099468               -0.00527563                0.27899989
              -0.04186789                4.99329353               68.06470970                0.01000001                0.01626628               -0.17149245                0.14080231                0.34475049                0.00773644                0.12330546
               0.95829477                4.98113263               68.06821633                0.01000000                0.01907641               -0.36821609                0.09996236                0.74097806                0.01884705                0.11870940
               1.95851364                4.97544423               68.07181846                0.01000001               -0.04566404               -0.41933327                0.09027288                1.26967745                0.02193643                0.15131848
               2.95738149                4.97547025               68.07550617                0.01000000               -0.14953009               -0.42515205                0.10497295                1.76283579                0.02164052                0.16495971
               3.95552304                4.97968956               68.07902103                0.01000001               -0.25428462               -0.35836112                0.11917415                2.16059280                0.00677758                0.19357439
               4.95229580                4.98786519               68.08242493                0.01000001               -0.38001331               -0.29596265                0.13374337                2.50965333                0.00386986                0.21463746
               5.94792277                4.99800688               68.08554837                0.01001944               -0.47554180               -0.25339867                0.14474969                2.67691952               -0.01057860                0.24955837
               6.94278496                5.00792304               68.08838029                0.01001992               -0.54112455               -0.27133445                0.15470152                2.68819717               -0.03605588                0.29794493
               7.93710028                5.01529758               68.09083317                0.01000000               -0.42762839               -0.30683624                0.16975423                2.55600425               -0.04966792                0.33213316
               8.93423239                5.01741531               68.09333205                0.01000000               -0.04155707               -0.70440310                0.18498321                2.23521060               -0.04941198                0.44659182
               9.93626914                5.00329117               68.09606708                0.01004139                0.20367421               -1.51475872                0.19363673                1.49861523               -0.05102174                0.41747946
              -0.02403737                5.98994251               68.06690617                0.01000001                0.12042370               -0.69488320                0.15845497                0.78637944               -0.03713444                0.09067377
               0.97716687                5.97664598               68.07021304                0.01000001               -0.02036209               -0.45868020                0.11508391                1.12781147               -0.02483424                0.10172685
               1.97555539                5.97064646               68.07424372                0.01000000               -0.12492914               -0.55341526                0.11122571                1.75719296                0.02611771                0.07379559
               2.97466828                5.97029616               68.07776678                0.01000001               -0.17366026               -0.52003095                0.11877025                1.94753430               -0.03095605                0.19620105
               3.97208218                5.97551541               68.08173704                0.01000001               -0.27002952               -0.50025034                0.13347926                2.37298141                0.02384918                0.15977193
               4.96926769                5.98432407               68.08548252                0.01001870               -0.31440047               -0.39481815                0.13970553                2.66881854                0.04417197                0.19176650
               5.96579417                5.99510668               68.08917315                0.01000925               -0.35646327               -0.30823710                0.14909422                2.78552999                0.05812762                0.24157289
               6.96213843                6.00499661               68.09263352                0.01000000               -0.31454436               -0.29822803                0.15753640                2.66107972                0.05199411                0.30020823
               7.95950329                6.01102656               68.09592430                0.01000000               -0.15637471               -0.39733863                0.16478404                2.28941221                0.03065501                0.36084318
               8.95901093                6.00949243               68.09894479                0.01000007                0.01742494               -0.59934547                0.17687158                1.42519656                0.00645680                0.39083141
               9.95985178                5.99594691               68.10186066                0.01000000                0.08408513               -0.44119253                0.18355831                0.69459394               -0.00843202                0.36403677
               0.00045275                6.97939587               68.06867199                0.99825007               -0.03057022               -0.54251393                0.09937641                0.85363438               -0.00548369                0.05959649
               1.00014705                6.97195902               68.07255308                0.01038051               -0.02227207               -0.25083503                0.10593161                0.76995736               -0.12624976                0.06725076
               2.00000731                6.96437593               68.07400635                0.01007951               -0.43419160               -0.32354226                0.14754714                1.23981047               -0.42791958                0.27229960
               2.99146322                6.96506963               68.07990743                0.01000000               -0.55262764               -0.68543591                0.17043418                1.89115665                0.00093762               -0.02849034
               3.98895476                6.96968455               68.08371538                0.01001271               -0.26911587               -0.63266896                0.13849164                2.26544004                0.03474591                0.08526918
               4.98608090                6.97996883               68.08812772                0.01001331               -0.29969667               -0.46502961                0.14626672                2.65666951                0.11107001                0.13696815
               5.98296083                6.99184214               68.09244103                0.01000000               -0.29971152               -0.28913324                0.15128792                2.62918497                0.14039101                0.20736182
               6.98008667                7.00195848               68.09674313                0.01000000               -0.22840616               -0.26137172                0.15720280                2.34415803                0.15306941                0.28547085
               7.97839270                7.00735081               68.10075111                0.01000007               -0.11353466               -0.28796507                0.16336473                1.82968814                0.12889305                0.37985680
               8.97781598                7.00542840               68.10421107                0.01000000               -0.05703282               -0.23938256                0.17054945                1.02722308                0.06575544                0.41736588
               9.97725205                6.99446732               68.10699743                0.01000000               -0.05639320                0.03452091                0.18063806                0.45981722                0.02035483                0.37108135
               0.00790901                7.97909223               68.06958353                1.00000000               -0.03230522               -0.03117984                0.10417481                0.00041733               -0.00366867                0.02138150
               1.00758596                7.97162928               68.07333489                0.99999998               -0.03340111               -0.03359004                0.11121921               -0.00080725               -0.00874812               -0.00434709
               2.00724099                7.96417561               68.07697953                0.07681293               -0.02015846               -0.02821644                0.11964063               -0.01806887               -0.10734574                0.09116585
               3.00718279                7.95658744               68.07875417                0.01000001               -0.23745988               -0.43606068                0.07126220                1.07659513                0.03894169               -0.04769152
               4.00249179                7.96286203               68.08498927                0.01000003               -0.34696449               -1.03908532                0.16053049                2.16930490                0.19154179               -0.03434630
               5.00024350                7.97502347               68.09014166                0.01000000               -0.30517856               -0.37508561                0.14678231                2.46450947                0.18379955                0.07451036
               5.99638822                7.98932402               68.09531021                0.01000000               -0.33652904               -0.16263406                0.15107846                2.21496856                0.23684473                0.14703078
               6.99351292                7.99976917               68.10040695                0.01000007               -0.18805428               -0.17428199                0.15703198                1.78376208                0.28622465                0.23150981
               7.99262713                8.00526726               68.10552271                0.01011583               -0.05370161               -0.19194418                0.15953819                1.36494417                0.27645609                0.34790463
               8.99243888                8.00470478               68.10956047                0.01000001               -0.08284246               -0.03696924                0.16664366                0.89087492                0.17523398                0.56964134
               9.99097028                7.99663733               68.11235783                0.01000002               -0.14686018                0.44867942                0.18233326                0.51919970                0.10265964                0.40393849
               0.01538700                8.97877227               68.07057900                0.99999998               -0.03394768               -0.03266562                0.10929924                0.00041133                0.00126638                0.02101657
               1.01504753                8.97128722               68.07423321                0.99999999               -0.03496159               -0.03479676                0.11606412               -0.00062209                0.00105242                0.00186381
               2.01468777                8.96381160               68.07788092                0.99999997               -0.03694123               -0.03677524                0.12224321               -0.00075260               -0.00440821               -0.00775336
               3.01430870                8.95634842               68.08141959                0.86672549               -0.03914705               -0.03184945                0.12828085               -0.01556209               -0.00773260                0.07541816
               4.01390483                8.94890285               68.08499347                0.01000000               -0.26997945               -0.71983443                0.13591410                1.74951455                0.15103324               -0.06683088
               5.00890911                8.97246712               68.09171570                0.01000000               -0.56951655               -0.05828678                0.14657657                2.08658648                0.31444657                0.02044329
               6.00251450                8.98858946               68.09758495                0.01000000               -0.45452226               -0.02550790                0.15667328                1.34680413                0.31862256                0.07253194
               6.99981867                8.99847284               68.10329920                0.01002891               -0.08792565               -0.12590023                0.16045427                0.95323163                0.37896533                0.12705337
               8.00075599                9.00351193               68.10918447                0.01000001                0.22223726               -0.21731055                0.15832545                0.72664116                0.55294962                0.21334792
               9.00426341                9.00468901               68.11692993                1.00000000                0.15074745               -0.02496361                0.15397417                0.65333901                0.36422494                0.35716307
              10.00377093                9.00344091               68.11732892                1.00000000               -0.04924770                0.31229682                0.17621778                0.57807593               -0.00271505                0.23142871
               0.02288734                9.97843892               68.07148473                1.00000000               -0.03531454               -0.03333554                0.11344182               -0.00052391                0.01570298                0.01623703
               1.02253419                9.97093334               68.07513871                0.99999999               -0.03612994               -0.03538783                0.12011999               -0.00127396                0.01958117                0.00194183
               2.02216474                9.96344011               68.07887160                0.99999999               -0.03769481               -0.03714900                0.12604274               -0.00144772                0.02235251               -0.00360209
               3.02178029                9.95595046               68.08257848                0.99999999               -0.04006765               -0.03979641                0.13306693               -0.00157867                0.01854457               -0.00051522
               4.02136338                9.94846535               68.08623723                0.01939508               -0.97458388               -0.04375027                0.14126212                1.64121964                0.17588230               -0.00555093
               5.00228862                9.97385774               68.09309880                0.01000000               -1.20224052                0.13906229                0.15228023                1.35537610                0.34136401               -0.01260770
               5.99731857                9.98881386               68.09927246                0.01000001               -0.23167679                0.02243981                0.16534214                0.65007911                0.34099918                0.02328751
               6.99765508                9.99725117               68.10513453                0.01000000                0.18126052               -0.12216729                0.17097572                0.38900123                0.39941434                0.05178551
               8.00094378               10.00092105               68.11133633                0.01000002                0.39608012               -0.25908756                0.16818118                0.36649659                0.46835511                0.10554980
               9.00557668               10.00420550               68.11721814                1.00000000                0.20421130               -0.04835098                0.17083349                0.22943789                0.27776473                0.00362455
              10.00502801               10.00288327               68.11761712                0.99999999               -0.05486733               -0.05576436                0.19307711               -0.00651622                0.00324054               -0.00324009
              -0.08318545               -0.01073779               69.05374121                1.00000000               -0.02304608               -0.02477335                0.07803767                0.00109086               -0.00797599                0.00766091
               0.91658409               -0.01504142               69.05727193                1.00000000               -0.02276353               -0.02421453                0.07628777               -0.00023374               -0.00862345               -0.00151664
               1.91635928               -0.01931671               69.06079011                0.01000001                0.15236644               -0.02365708                0.07454166                0.22955689               -0.00973696               -0.00350035
               2.91963142               -0.01896593               69.06429391                0.01000000                0.25071392               -0.07318137                0.07420589                0.17995467               -0.03078178                0.03671990
               3.92137356               -0.01637643               69.06715879                0.01000001                0.10360277               -0.02992507                0.07828082                0.19708641               -0.10650869                0.04164962
               4.92170347               -0.01016577               69.06916573                0.01000000               -0.11081815                0.01582845                0.08581580                0.31010446               -0.19371514                0.04142375
               5.91915720                0.00056292               69.07030169                0.01000000               -0.58059020                0.11499702                0.09255786                0.68876703               -0.27174772                0.02472918
               6.91009167                0.01774162               69.07058655                0.97614500               -0.46675436               -0.03132034                0.09176729                0.73933273               -0.14120753               -0.00220766
               7.90982211                0.02021652               69.07368882                1.00000000               -0.02668167               -0.03062704                0.08942566                0.00013573               -0.00078611               -0.00063500
               8.90955804                0.02277185               69.07679015                1.00000000               -0.02598724               -0.02979042                0.08667831                0.00000774               -0.00086888                0.00078169
               9.90930236                0.02540546               69.07989600                1.00000000               -0.02556735               -0.02901491                0.08469960               -0.00454809               -0.00061671                0.00052742
              -0.07887091                0.98901447               69.05523463                1.00000000               -0.02578747               -0.02607486                0.08683394                0.00136521                0.00143894                0.00812453
               0.92087121                0.98471643               69.05876702                0.01000000               -0.02559916               -0.02550358                0.08508488                0.00003653                0.00427469               -0.00443045
               1.92061711                0.98044671               69.06235804                0.01000000               -0.04551961                0.01093161                0.08332922                0.18018645                0.01444678                0.04461609
               2.91996082                0.98030225               69.06609075                0.01000000               -0.08363829               -0.03979404                0.08194804                0.32272660               -0.01775370                0.06495066
               3.91894434                0.98332432               69.06899875                0.01000000               -0.18129890               -0.00968438                0.08751651                0.45793487               -0.08505726                0.07235644
               4.91633484                0.98999252               69.07120243                0.01000000               -0.34265852                0.02788718                0.09659298                0.68230820               -0.15314864                0.07385951
               5.91209117                1.00171289               69.07254660                0.01000001               -0.43383217                0.00991339                0.10746139                0.99675742               -0.22473309                0.06037024
               6.90765820                1.01742842               69.07311988                0.83722454               -0.23914085               -0.03496390                0.11677450                0.66624148               -0.12595122               -0.00344755
               7.90730835                1.01991025               69.07623834                0.99999998               -0.03472780               -0.03442383                0.11524214                0.00063984                0.00112118               -0.00025015
               8.90696365                1.02247395               69.07935675                1.00000000               -0.03425374               -0.03374217                0.11331964                0.00016776                0.00056565                0.00207354
               9.90662328                1.02511531               69.08246610                0.99999163               -0.03403670               -0.03269872                0.11112885               -0.00425720                0.00020291                0.00219385
              -0.07456206                1.98874071               69.05674121                0.03741737               -0.02853564                0.02477860                0.09564066                0.02959540                0.00330178                0.12130561
               0.92515258                1.98444851               69.06020243                0.01000000               -0.05303733               -0.00435274                0.09389753                0.05683303                0.06402105                0.11077974
               1.92437719                1.98090192               69.06488165                0.01000001               -0.09721187               -0.02802192                0.08270641                0.29415640                0.05732312                0.11993982
               2.92320834                1.98023818               69.06841413                0.01000000               -0.17675994               -0.03884355                0.08687681                0.61994352               -0.01423543                0.11015651
               3.92084199                1.98342988               69.07145115                0.01000000               -0.31236379               -0.01201067                0.09430552                0.92971439               -0.05817822                0.12358277
               4.91696107                1.99039198               69.07387797                0.01000001               -0.45927763               -0.00203286                0.10485222                1.21921344               -0.11375091                0.13278988
               5.91165644                2.00076119               69.07558883                0.01000000               -0.58709607               -0.06411116                0.11851492                1.60368751               -0.22453390                0.13861558
               6.90521915                2.01704235               69.07563439                0.01000000               -0.34335299               -0.35120774                0.14073688                1.13982460               -0.15026745                0.14362615
               7.90478938                2.01952804               69.07879152                0.44330375               -0.04314074               -0.04206826                0.14161627                0.00025864                0.00465791                0.01101982
               8.90435633                2.02209701               69.08193738                0.99999999               -0.04274400               -0.04193393                0.14087695               -0.00040304                0.00207044                0.00405810
               9.90393450                2.02475148               69.08505303                0.99999999               -0.04218321               -0.04046749                0.13716709               -0.00451062                0.00050215                0.00388770
              -0.06969460                2.98951005               69.06050363                0.01000001               -0.04587361                0.17047691                0.09720092                0.30294806               -0.09476869                0.08542761
               0.92984667                2.98462938               69.06400142                0.01000000                0.02025758               -0.09145567                0.06724357                0.31391231               -0.07400797                0.20049471
               1.93071056                2.97988628               69.06753134                0.01000000               -0.00074719               -0.15733116                0.08143717                0.58611234                0.00194371                0.11907099
               2.92983172                2.97952538               69.07108592                0.01000000               -0.16628593               -0.12911949                0.09055417                1.01832307                0.00650822                0.13554087
               3.92738484                2.98308411               69.07428198                0.01011476               -0.32219584               -0.09368158                0.10063716                1.38176481               -0.02506456                0.15512914
               4.92338781                2.98995186               69.07703006                0.01000000               -0.49351444               -0.07011551                0.11189370                1.73073064               -0.07014891                0.17439167
               5.91751455                3.00043067               69.07917103                0.01000001               -0.58499826               -0.10346468                0.12640092                1.90103509               -0.10339919                0.19797500
               6.91168784                3.01040427               69.08110830                0.01000000               -0.76278423               -0.41883222                0.14547321                1.80164486               -0.18558171                0.27544408
               7.90225886                3.01906888               69.08156193                0.01000002               -0.49778502               -0.22172137                0.18034960                1.06329951               -0.13716900                0.18560940
               8.90173214                3.02163527               69.08452856                0.21952012               -0.05173734               -0.04672802                0.17046574                0.00304565               -0.00825960                0.06605934
               9.90122412                3.02430596               69.08762993                0.99999999               -0.05080250               -0.04488992                0.16442904               -0.00930837               -0.00216769                0.06577365
              -0.05874177                3.99215025               69.06317448                0.01000001               -0.02036367                0.13233436                0.09983481                0.27649068                0.00010890                0.14487313
               0.94105460                3.98261939               69.06652090                0.01000000               -0.00273996               -0.23213239                0.08220755                0.54703968                0.02460141                0.09147866
               1.94120344                3.97775529               69.07019444                0.01000000               -0.03388126               -0.27382507                0.08220549                0.97772514                0.05257650                0.10904652
               2.94037697                3.97765580               69.07382843                0.01012049               -0.15763125               -0.24485628                0.09441817                1.40672859                0.03695166                0.14352190
               3.93805081                3.98155625               69.07723679                0.01000000               -0.30739264               -0.21238087                0.10563247                1.80596864                0.00894510                0.17392243
               4.93422912                3.98898966               69.08033417                0.01000001               -0.44130383               -0.15804689                0.11863395                2.14152781               -0.01914916                0.20148115
               5.92922473                3.99869190               69.08312486                0.01000001               -0.58076440               -0.18431285                0.13223466                2.34986893               -0.05318909                0.23193846
               6.92261383                4.00866570               69.08544285                0.01006583               -0.72001830               -0.19761614                0.14732712                2.22478699               -0.08084957                0.25193434
               7.91482437                4.01509361               69.08762006                0.01005628               -1.17168317               -0.27710447                0.17047677                2.21623135               -0.16277252                0.33382450
               8.89918017                4.02116245               69.08834944                0.01000000               -0.82087067               -0.31200807                0.22961128                1.90583845               -0.11594550                0.28398660
               9.89840695                4.02385368               69.09143378                0.01000000               -0.07732139               -1.15957456                0.21765694                1.85830343               -0.00619762                0.26946803
              -0.04510307                4.99215673               69.06622965                0.01000001                0.02854880               -0.16810328                0.12164882                0.34001369                0.04489018                0.11964476
               0.95518242                4.97998673               69.06915947                0.01000000                0.01658642               -0.36676321                0.08148525                0.72620427                0.07650301                0.08791839
               1.95522866                4.97440977               69.07266132                0.01000001               -0.05085400               -0.36560512                0.08374586                1.30382838                0.08182956                0.11535348
               2.95416534                4.97462826               69.07647426                0.01000000               -0.15291585               -0.36280012                0.09335560                1.72576138                0.06852900                0.15392989
               3.95217034                4.97883649               69.08016181                0.01000001               -0.25413081               -0.33802545                0.11206185                2.12725546                0.03826624                0.19222553
               4.94908272                4.98679092               69.08371532                0.01000001               -0.36672252               -0.28026227                0.12533136                2.48214193                0.02139193                0.21131480
               5.94483589                4.99674441               69.08695330                0.01000001               -0.46504273               -0.23332206                0.13776385                2.66042249                0.00056202                0.24081229
               6.93978187                5.00645194               69.08989083                0.01010277               -0.53745721               -0.24756898                0.14987994                2.67064332               -0.02733463                0.27614116
               7.93408675                5.01352679               69.09251140                0.01000000               -0.43465128               -0.27466035                0.16566287                2.53638201               -0.05322052                0.32447347
               8.93108884                5.01539511               69.09518044                0.01000000               -0.05395162               -0.66402663                0.17928206                2.22414287               -0.04328736                0.40455761
               9.93300771                5.00111447               69.09799681                0.01006949                0.19188728               -1.49032392                0.18685633                1.49258112               -0.04343726                0.38702974
              -0.02760149                5.98878818               69.06871018                0.01000002                0.09271282               -0.67620824                0.24576089                0.72909568                0.00515176                0.05527394
               0.97332564                5.97528413               69.07142598                0.01000001                0.01199822               -0.44676048                0.11057018                1.13289539               -0.00977981                0.10376529
               1.97263848                5.97044319               69.07503711                0.01000000               -0.14300793               -0.31816978                0.05872465                1.40532181                0.07680863                0.09729878
               2.97046548                5.97039979               69.07887777                0.01000001               -0.21026125               -0.51002507                0.10709390                1.81329054                0.03606977                0.21301807
               3.96843325                5.97479574               69.08300132                0.01000001               -0.22507232               -0.48970584                0.11811504                2.29382179                0.04728845                0.17329268
               4.96596404                5.98338442               69.08682949                0.01000001               -0.28305461               -0.38933201                0.13156290                2.64275867                0.04890015                0.19588125
               5.96277216                5.99402546               69.09062806                0.01010322               -0.33598592               -0.29835436                0.14165700                2.77372515                0.06030051                0.22887446
               6.95924432                6.00371432               69.09419062                0.01000000               -0.30816583               -0.28161364                0.15462961                2.65890149                0.05173258                0.28180991
               7.95660884                6.00960041               69.09753712                0.01000000               -0.15844836               -0.36363055                0.15953881                2.29842698                0.03752045                0.34442516
               8.95607535                6.00788191               69.10068668                0.01003579                0.01055070               -0.55937174                0.16979640                1.43308051                0.01330254                0.36772434
               9.95681986                5.99404720               69.10366249                0.01000000                0.07445071               -0.41371049                0.17581641                0.69781244               -0.00520164                0.34018003
              -0.00351305                6.97863257               69.06965413                0.98527905               -0.03016342               -0.52283211                0.09827802                0.82645204               -0.00523959                0.01687732
               0.99618532                6.97105152               69.07359739                0.01000002               -0.41337603               -0.22799609                0.10464665                0.99280749               -0.07744442                0.05775719
               1.98821943                6.96804638               69.07609619                0.01001881               -0.50533609               -0.36566049                0.18297425                1.20821046               -0.24719405                0.19146552
               2.98607860                6.96442775               69.08147556                0.01000000               -0.15786404               -0.75493309                0.10651704                1.70473998                0.01340285                0.03382525
               3.98506215                6.96904237               69.08504689                0.01005432               -0.16852057               -0.64093922                0.13028230                2.22470159               -0.01184949                0.15140760
               4.98270818                6.97900428               69.08956041                0.01010007               -0.25408296               -0.47491364                0.13800062                2.63116707                0.09842465                0.12928824
               5.97998049                6.99077732               69.09392977                0.01000000               -0.26616188               -0.29437446                0.14750186                2.63043813                0.13499276                0.19123692
               6.97738495                7.00081967               69.09827906                0.01000000               -0.20463984               -0.24957504                0.15089581                2.37152095                0.14957742                0.26724207
               7.97588769                7.00625418               69.10234202                0.01000000               -0.10406472               -0.26037380                0.15528122                1.87342688                0.12636236                0.35810144
               8.97530365                7.00420767               69.10589511                0.01000000               -0.06271559               -0.19787198                0.16485093                1.05639430                0.06501686                0.39894285
               9.97463338                6.99284026               69.10877238                0.01000003               -0.06702699                0.06640630                0.17444688                0.47583205                0.02088308                0.35516270
               0.00408965                7.97833154               69.07062069                1.00000000               -0.03216680               -0.03104543                0.10387020                0.00063718               -0.00301823                0.02234435
               1.00376798                7.97072421               69.07444166                0.99999999               -0.03315976               -0.03347050                0.11076738               -0.00053653               -0.00773921               -0.00310366
               2.00342646                7.96312998               69.07816863                0.01080121               -0.01018471               -0.26402204                0.11865081                0.36853483               -0.13802509                0.04329837
               3.00356429                7.95530113               69.07938408                0.01000001               -0.25378484               -0.46374747                0.18218698                1.16967751               -0.22437807                0.26416062
               3.99835076                7.96197696               69.08683993                0.01003105               -0.33559300               -1.07463296                0.15311928                2.18822799                0.17350954               -0.05471425
               4.99685243                7.97388615               69.09155389                0.01000000               -0.23926118               -0.39474798                0.14009912                2.45840530                0.16941523                0.05064429
               5.99356553                7.98813797               69.09678645                0.01000000               -0.28272729               -0.17608876                0.14548689                2.23495110                0.23598759                0.13797848
               6.99119788                7.99872282               69.10193236                0.01003330               -0.14380767               -0.17537064                0.14845768                1.82960900                0.27515238                0.21654501
               7.99068938                8.00439293               69.10704717                0.01000001               -0.02903599               -0.18252508                0.15058329                1.43278149                0.25730432                0.32200851
               8.99061716                8.00392447               69.11114677                0.01000001               -0.08090246                0.00699167                0.15820898                0.97004959                0.16212476                0.54731418
               9.98907133                7.99537533               69.11412249                0.01000002               -0.15458307                0.51005123                0.17336831                0.57509671                0.09730065                0.38072409
               0.01171436                8.97801166               69.07167331                0.99991003               -0.03382165               -0.03277317                0.10944043                0.00059100                0.00149986                0.02155818
               1.01137615                8.97038211               69.07539387                0.99999999               -0.03505792               -0.03488064                0.11614003               -0.00030095                0.00115575                0.00211442
               2.01101320                8.96276594               69.07910631                0.99999998               -0.03754893               -0.03695570                0.12298400               -0.00131662               -0.00536369               -0.00856507
               3.01062517                8.95515280               69.08269287                0.88104683               -0.03857551               -0.02635177                0.12714670               -0.02741093               -0.00981137                0.10496044
               4.01024169                8.94754972               69.08631046                0.01000000               -0.24549416               -0.74001763                0.12912260                1.77201640                0.15489076               -0.09619091
               5.00571528                8.97110932               69.09319140                0.01000000               -0.51994279               -0.08014248                0.14590045                2.10111832                0.30965389                0.00705513
               5.99984284                8.98725555               69.09912631                0.01000007               -0.39965607               -0.04234274                0.15061774                1.36453113                0.31296385                0.06885872
               6.99772216                8.99731226               69.10487388                0.01000000               -0.02505837               -0.14345332                0.15420827                0.98479452                0.36822972                0.11832098
               7.99934167                9.00260368               69.11070480                0.01000005                0.30000399               -0.23344227                0.15254808                0.79370529                0.53386343                0.19940009
               9.00372224                9.00434751               69.11845606                1.00000000                0.19459669               -0.00276128                0.15124764                0.74615802                0.35261001                0.34514738
              10.00323360                9.00304128               69.11909322                1.00000000               -0.04886382                0.35515304                0.17664255                0.64332166               -0.00271120                0.22241086
               0.01936057                9.97767608               69.07262390                1.00000000               -0.03528828               -0.03355824                0.11415757               -0.00032771                0.01596833                0.01636156
               1.01900769                9.97002659               69.07634336                0.99999999               -0.03655693               -0.03555165                0.12073857               -0.00110653                0.01987217                0.00177486
               2.01862943                9.96239087               69.08014101                1.00000000               -0.03876965               -0.03750703                0.12780099               -0.00100239                0.02198360               -0.00406966
               3.01823229                9.95477410               69.08390219                0.99999999               -0.03974302               -0.03787089                0.13215308               -0.00000049                0.01672102               -0.00058005
               4.01783457                9.94717661               69.08760401                0.01790243               -0.95316663               -0.03731077                0.13434030                1.63474763                0.17949700               -0.00541905
               4.99916896                9.97228330               69.09463163                0.01000000               -1.15906741                0.11739755                0.15183154                1.35109277                0.34800417               -0.01877187
               5.99465322                9.98729111               69.10090211                0.01000001               -0.18116582                0.00355614                0.15996147                0.65956123                0.33624410                0.02001918
               6.99554564                9.99585376               69.10679981                0.01000000                0.24375093               -0.14585026                0.16546069                0.40399673                0.39160356                0.04658208
               7.99952824                9.99972408               69.11303637                0.01000002                0.47785390               -0.28795949                0.16548460                0.41943163                0.45334801                0.10635180
               9.00510272               10.00386925               69.11892436                1.00000000                0.25109874               -0.04782560                0.17041080                0.27576328                0.26616566                0.00362264
              10.00455021               10.00247839               69.11956151                0.99999998               -0.05525069               -0.05628890                0.19580575               -0.00742473                0.00323700               -0.00323893
              -0.08678714               -0.01219868               70.05452411                1.00000000               -0.02306715               -0.02496571                0.07856067                0.00099457               -0.00795546                0.00763294
               0.91298219               -0.01659568               70.05803307                1.00000000               -0.02265888               -0.02414471                0.07594557               -0.00036698               -0.00861001               -0.00151944
               1.91275968               -0.02096362               70.06152954                0.01000000                0.15772396               -0.02332741                0.07335211                0.24205369               -0.00887877               -0.00350519
               2.91613667               -0.02045215               70.06502847                0.01000001                0.25548377               -0.07210992                0.07269556                0.18962087               -0.02770150                0.03382441
               3.91786936               -0.01785941               70.06793335                0.01000000                0.10250088               -0.03003920                0.07863678                0.19690882               -0.10115544                0.03907477
               4.91818668               -0.01185953               70.07002329                0.01000001               -0.10757794                0.01622154                0.08695810                0.30127197               -0.19022451                0.04035465
               5.91571780               -0.00152813               70.07123991                0.01000000               -0.55958544                0.11015022                0.09781165                0.66281893               -0.27197867                0.02313450
               6.90699497                0.01505577               70.07151073                0.98018667               -0.44991039               -0.03170658                0.09367960                0.70954832               -0.14137231               -0.00329067
               7.90671959                0.01752770               70.07458490                1.00000000               -0.02721154               -0.03026620                0.09071059                0.00016296               -0.00225727               -0.00124102
               8.90645074                0.02007552               70.07765363                1.00000000               -0.02634359               -0.02900411                0.08717134               -0.00005817               -0.00248386                0.00001879
               9.90619272                0.02269613               70.08073644                1.00000000               -0.02580263               -0.02807809                0.08465149               -0.00452961               -0.00227525               -0.00214020
              -0.08238019                0.98755166               70.05610670                0.99999999               -0.02588230               -0.02630261                0.08757530                0.00139923                0.00143176                0.00810772
               0.91736099                0.98316287               70.05961733                0.01000000               -0.02556794               -0.02545910                0.08496775                0.00002659                0.00426236               -0.00441700
               1.91710845                0.97880311               70.06318649                0.01000000               -0.04401067                0.01765463                0.08234473                0.19155179                0.01421007                0.03869010
               2.91648077                0.97882675               70.06689284                0.01000000               -0.07831582               -0.03837412                0.07880727                0.33558771               -0.01459289                0.06016001
               3.91554213                0.98184020               70.06985508                0.01000000               -0.17235039               -0.00910514                0.08395532                0.45764173               -0.07816874                0.06972070
               4.91303376                0.98830269               70.07215194                0.01000000               -0.33268988                0.02964316                0.09265220                0.66557924               -0.14490311                0.07109934
               5.90888834                0.99957337               70.07361518                0.01000001               -0.42356125                0.01341597                0.10576620                0.96308306               -0.21276057                0.05481152
               6.90456254                1.01473871               70.07429057                0.82103028               -0.23384944               -0.03506189                0.11738037                0.63921929               -0.11969490               -0.00544593
               7.90421135                1.01722504               70.07739146                0.99997058               -0.03482947               -0.03400554                0.11478507                0.00132066                0.00136650               -0.00050097
               8.90386595                1.01978547               70.08048648                1.00000000               -0.03422684               -0.03270346                0.11205180                0.00008963                0.00060794                0.00184574
               9.90352681                1.02241535               70.08356924                1.00000000               -0.03391394               -0.03132896                0.10925919               -0.00456711                0.00013470               -0.00118286
              -0.07798157                1.98727527               70.05770263                0.06576293               -0.02871594               -0.00487547                0.09662062                0.01052761                0.00329313                0.09422119
               0.92173127                1.98289513               70.06114216                0.01000000               -0.05457995               -0.01229520                0.09404405                0.04878018                0.05805694                0.08029754
               1.92092683                1.97938948               70.06568041                0.01000001               -0.09599699               -0.02224186                0.08105923                0.30500924                0.06398080                0.09903803
               2.91981133                1.97878037               70.06926102                0.01000000               -0.16902893               -0.03758085                0.08436757                0.63346194               -0.00369788                0.10365206
               3.91754626                1.98195849               70.07237011                0.01000000               -0.30231184               -0.00826349                0.08984834                0.93059737               -0.04794085                0.11995108
               4.91376510                1.98873334               70.07490106                0.01000001               -0.45014080                0.00450038                0.09971128                1.20056683               -0.10098692                0.12839082
               5.90854344                1.99874018               70.07675279                0.01000000               -0.58187044               -0.05118724                0.11380020                1.55901593               -0.20532693                0.13008431
               6.90212769                2.01435453               70.07703756                0.01000000               -0.34221022               -0.32967297                0.13864012                1.11037126               -0.13548909                0.13074357
               7.90169923                2.01684759               70.08021235                0.45916415               -0.04327285               -0.04252411                0.14233060                0.00378685                0.00794403                0.02122652
               8.90126223                2.01942145               70.08334956                0.99999999               -0.04288007               -0.04114675                0.14007394               -0.00016057                0.00339576                0.00757856
               9.90084163                2.02206955               70.08641481                0.99999999               -0.04205977               -0.03880304                0.13364143               -0.00521313                0.00100018                0.00228606
              -0.07340937                2.98745415               70.06101248                0.01003155               -0.03682479                0.16342655                0.06089211                0.34811677               -0.01549222                0.13378669
               0.92622238                2.98291697               70.06442035                0.01000000                0.03663851               -0.11066590                0.05253471                0.35714589                0.01498372                0.13549258
               1.92732340                2.97835827               70.06831675                0.01000000                0.01793097               -0.16527042                0.08370520                0.62374027                0.04605480                0.10357289
               2.92658100                2.97807513               70.07197204                0.01000000               -0.15611429               -0.12495339                0.09069568                1.04294527                0.02462411                0.12540983
               3.92420112                2.98167493               70.07526614                0.01012744               -0.31588001               -0.08386145                0.09773274                1.38548653               -0.01040890                0.14931065
               4.92026340                2.98839269               70.07812129                0.01000000               -0.48768299               -0.05728262                0.10681664                1.71152419               -0.05590883                0.16876683
               5.91444746                2.99854962               70.08040085                0.01000001               -0.58004217               -0.08545135                0.12097724                1.86751384               -0.08603501                0.18704853
               6.90866256                3.00814525               70.08253850                0.01000000               -0.76136411               -0.38375390                0.13528293                1.76251214               -0.15549603                0.25381327
               7.89922017                3.01637456               70.08343639                0.01007418               -0.50108877               -0.19786417                0.20027470                1.04157455               -0.11940288                0.17898611
               8.89864078                3.01896254               70.08625445                0.27688352               -0.05469134               -0.04065530                0.17498685                0.00850913               -0.01065127                0.09287957
               9.89812635                3.02163928               70.08926956                0.99999999               -0.05144366               -0.04024939                0.16363170               -0.00747829               -0.00232424                0.08357750
              -0.06194485                3.99054380               70.06421010                0.01000000               -0.00850736                0.13482863                0.09596396                0.34278290                0.00523016                0.12701194
               0.93797007                3.98068182               70.06733642                0.01000000                0.00941611               -0.24655250                0.09295309                0.63555210                0.04422630                0.06167579
               1.93824347                3.97608407               70.07099461                0.01000000               -0.03082442               -0.27248234                0.09146837                1.05557648                0.08304982                0.07647023
               2.93735359                3.97628130               70.07477200                0.01011817               -0.16525217               -0.22878129                0.09988472                1.44338843                0.06713904                0.12363509
               3.93493843                3.98028126               70.07827145                0.01000000               -0.31163505               -0.19526960                0.10520093                1.80762827                0.02685632                0.16562883
               4.93112088                3.98758768               70.08149014                0.01000001               -0.43986311               -0.13982684                0.11410401                2.12093254               -0.00282786                0.19397878
               5.92614116                3.99703116               70.08441336                0.01000001               -0.57839442               -0.16148465                0.12571022                2.32014069               -0.03919359                0.22177545
               6.91955300                4.00667946               70.08688285                0.01009651               -0.72138649               -0.17235720                0.14273064                2.19383766               -0.06697412                0.23048641
               7.91171343                4.01289031               70.08927406                0.01017416               -1.16926545               -0.22522825                0.15761479                2.17274851               -0.12619667                0.31074174
               8.89616769                4.01860834               70.09077603                0.01000000               -0.81874285               -0.28966613                0.22841826                1.88073529               -0.07450501                0.26831038
               9.89533858                4.02126456               70.09370937                0.01000000               -0.08291099               -1.14181171                0.21910965                1.84768678               -0.00064651                0.25421199
              -0.04682974                4.99015073               70.06714268                0.01000000                0.02229012               -0.14601504                0.10959660                0.41246488                0.07861495                0.15245752
               0.95339316                4.97798592               70.06984603                0.01000000               -0.01674048               -0.31992244                0.08210858                0.77160817                0.15071928               -0.03707125
               1.95283545                4.97290863               70.07349337                0.01000001               -0.10707874               -0.34632504                0.10551745                1.34549496                0.17777615                0.02941874
               2.95125158                4.97349951               70.07737329                0.01000000               -0.18940737               -0.33630376                0.10351809                1.74663967                0.10707200                0.13473151
               3.94904730                4.97776953               70.08126226                0.01000001               -0.26597156               -0.30925352                0.11238919                2.11172232                0.06804584                0.17598712
               4.94593215                4.98559616               70.08493156                0.01000001               -0.36444017               -0.25955416                0.11989869                2.45242337                0.03784962                0.20304430
               5.94175850                4.99531993               70.08830365                0.01003418               -0.46259949               -0.21617295                0.13280129                2.62999209                0.01719302                0.23011164
               6.93668016                5.00469810               70.09137789                0.01000001               -0.55061178               -0.22174383                0.14633473                2.66305429               -0.00701331                0.25099890
               7.93074626                5.01186999               70.09414643                0.01000000               -0.43994620               -0.24029257                0.15948433                2.52576560               -0.04217897                0.31077556
               8.92788124                5.01316922               70.09691769                0.01000000               -0.04893078               -0.62380465                0.16780228                2.19584934               -0.03318930                0.35107659
               9.92976764                4.99880305               70.09980421                0.01008025                0.18864068               -1.46448064                0.17201769                1.48626088               -0.03117000                0.34860610
              -0.02936593                5.98762350               70.07182139                0.01000002                0.00102701               -0.61639089                0.14463353                0.63054633                0.33318879               -0.34526674
               0.97064434                5.97428337               70.07242445                0.01000001               -0.04971471               -0.39437147                0.19368361                1.01485108                0.39289828               -0.08919473
               1.96963977                5.96915757               70.07541821                0.01000000               -0.16094344               -0.39174500                0.07842269                1.48108406                0.17089080                0.09237302
               2.96742547                5.96955523               70.07990866                0.01000001               -0.22817757               -0.41298440                0.11207894                1.82338049                0.13884958                0.13988100
               3.96507622                5.97409619               70.08409934                0.01000001               -0.24032570               -0.44477154                0.11303309                2.22134956                0.08030700                0.16578158
               4.96261896                5.98239660               70.08811377                0.01002450               -0.27185816               -0.38829801                0.12727706                2.59229415                0.06784696                0.18957090
               5.95963906                5.99270770               70.09200629                0.01000001               -0.31774689               -0.29057195                0.13494248                2.75157592                0.06739176                0.21438982
               6.95626402                6.00224458               70.09572611                0.01000000               -0.29407138               -0.25682632                0.14588486                2.66812840                0.05574361                0.26350455
               7.95375763                6.00808446               70.09911508                0.01000000               -0.15562013               -0.34336011                0.15315954                2.32226550                0.04342243                0.32728915
               8.95315162                6.00613225               70.10234072                0.01016878                0.00192473               -0.51110250                0.15896076                1.43476024                0.01916257                0.34591362
               9.95379613                5.99197495               70.10537699                0.01000000                0.06445112               -0.38462391                0.16506786                0.69164593                0.00080528                0.31933397
              -0.00753855                6.97782291               70.07063755                0.96834492               -0.03053347               -0.50517775                0.09888065                0.70618915               -0.00500748               -0.09152717
               0.99215611                6.97009849               70.07464601                0.01474996               -0.26380882               -0.22563202                0.10553036                0.82448571               -0.05488558                0.05859333
               1.98718527                6.96507373               70.07766584                0.01000000               -0.46877689               -0.35630547                0.17219972                1.25198119                0.14472966                0.00632446
               2.98278057                6.96523982               70.08203777                0.01000000               -0.32761766               -0.44509409                0.08374998                1.51994163                0.09699018                0.12225001
               3.98063292                6.96887410               70.08632103                0.01008482               -0.18070261               -0.67960036                0.12616561                2.06531641                0.03820804                0.14031981
               4.97916652                6.97783020               70.09088773                0.01000002               -0.18454415               -0.49956159                0.12977216                2.58503545                0.09792582                0.13017974
               5.97694203                6.98950849               70.09539107                0.01000000               -0.22502746               -0.29103276                0.13892291                2.64109068                0.13790102                0.17630063
               6.97466597                6.99956158               70.09976104                0.01000000               -0.18190652               -0.23696608                0.14416154                2.39927619                0.15143189                0.25167795
               7.97330390                7.00500279               70.10385674                0.01001356               -0.09900098               -0.23699015                0.14920681                1.90933858                0.12585529                0.33754651
               8.97268595                7.00294717               70.10750808                0.01010735               -0.06943692               -0.15210696                0.15675291                1.07811123                0.06652594                0.38096727
               9.97191516                6.99111057               70.11048637                0.01000000               -0.07707879                0.09780133                0.16368505                0.47477637                0.02377008                0.33720414
               0.00020670                7.97751994               70.07166093                1.00000000               -0.03234619               -0.03113410                0.10443327                0.00079951               -0.00277391                0.02279598
               0.99988324                7.96977073               70.07555024                0.99999999               -0.03343179               -0.03353350                0.11119869               -0.00034798               -0.00739951               -0.00238924
               1.99953806                7.96203146               70.07935255                0.01000000               -0.29296560               -0.17029076                0.11875709                0.54894231               -0.04988619                0.02151512
               2.99402392                7.96065334               70.08239791                0.01000001               -0.28729442               -0.56551473                0.24916866                1.13002339               -0.21523435                0.29283978
               3.99379217                7.96050418               70.08805166                0.01016033               -0.01693235               -1.13295801                0.11517518                1.88116094                0.11673980               -0.06293046
               4.99368528                7.97240537               70.09294364                0.01000000               -0.15313399               -0.41498586                0.13562355                2.47513439                0.18623386                0.04645857
               5.99072949                7.98688704               70.09821995                0.01000000               -0.24650178               -0.18287604                0.14004425                2.26245803                0.23787960                0.12920486
               6.98875524                7.99750526               70.10337610                0.01000000               -0.10853403               -0.17948808                0.14321664                1.86982055                0.26866709                0.20197701
               7.98855881                8.00334465               70.10853437                0.01000000               -0.00745918               -0.17460268                0.14894494                1.50660083                0.25355937                0.30966240
               8.98860606                8.00309011               70.11272464                0.01000000               -0.07969854                0.04336018                0.15606961                1.04137781                0.15916480                0.52470871
               9.98696484                7.99393097               70.11582520                0.01000002               -0.16412153                0.56697697                0.16432459                0.61044790                0.09276682                0.36307084
               0.00797587                8.97720023               70.07276780                1.00000000               -0.03382318               -0.03274894                0.10955021                0.00081313                0.00144731                0.02164075
               1.00763764                8.96942782               70.07655601                0.99999999               -0.03471855               -0.03504288                0.11645987               -0.00005162                0.00118462                0.00219107
               2.00728150                8.96166791               70.08034060                0.99999999               -0.03646591               -0.03710735                0.12319108                0.00046141               -0.00688127               -0.00851096
               3.00690832                8.95392953               70.08396252                0.81891239               -0.03886939               -0.35665615                0.13173880                0.25874098               -0.01494331                0.01545446
               4.00650411                8.94621494               70.08757592                0.01000000               -0.23109880               -0.73671584                0.14218592                1.80163316                0.15557902               -0.09550649
               5.00228634                8.96953048               70.09463371                0.01000000               -0.47064042               -0.09017573                0.14096367                2.09506739                0.31258881                0.00643015
               5.99709130                8.98585097               70.10059730                0.01007828               -0.33407855               -0.06122084                0.14336824                1.37935555                0.30729377                0.06581927
               6.99560477                8.99597182               70.10638336                0.01010687                0.03798835               -0.15871593                0.14641975                1.01287129                0.35957433                0.11152378
               7.99785107                9.00151074               70.11223543                0.01000001                0.36612080               -0.24798529                0.15137541                0.85849682                0.51681976                0.19286588
               9.00292719                9.00381437               70.11995488                0.99998547                0.22956613                0.01256243                0.14851973                0.83540843                0.33753888                0.33103460
              10.00244239                9.00245011               70.12086177                1.00000000               -0.04847965                0.39754658                0.17707839                0.70625442               -0.00271107                0.21554938
               0.01576778                9.97686497               70.07376789                1.00000000               -0.03532630               -0.03352621                0.11444818               -0.00031808                0.01566661                0.01632943
               1.01541452                9.96906987               70.07755348                0.99999999               -0.03611021               -0.03579462                0.12132856               -0.00109438                0.02001396                0.00159045
               2.01504558                9.96128931               70.08142762                0.99999998               -0.03814049               -0.03785999                0.12800298               -0.00107427                0.02081718               -0.00382762
               3.01465171                9.95352022               70.08522154                0.99999998               -0.04108484               -0.04093058                0.13714749               -0.00163322                0.01244867               -0.00141829
               4.01422388                9.94576986               70.08892404                0.08137039               -0.93505564               -0.04450814                0.14815491                1.62605888                0.18213888               -0.00767613
               4.99595060                9.97060185               70.09613543                0.01000000               -1.11743061                0.10713722                0.14598088                1.36106380                0.35151695               -0.01944477
               5.99187527                9.98566263               70.10247169                0.01000001               -0.12988490               -0.01883428                0.15335255                0.66485124                0.33194835                0.02129161
               6.99335290                9.99433094               70.10844374                0.01000000                0.30054621               -0.16408753                0.15449391                0.41092886                0.37460981                0.04587122
               7.99788620                9.99838495               70.11464602                0.01000002                0.55109758               -0.31257893                0.15596452                0.45403343                0.43263087                0.10116634
               9.00437485               10.00334136               70.12062635                1.00000000                0.29661267               -0.04730136                0.16999495                0.31961425                0.25729483                0.00362031
              10.00381845               10.00188190               70.12153324                0.99999999               -0.05564037               -0.05682070                0.19855432               -0.00833953                0.00323374               -0.00323653
              -0.09036247               -0.01375031               71.05531242                1.00000000               -0.02310633               -0.02515838                0.07913812                0.00089241               -0.00790788                0.00755324
               0.90940647               -0.01824033               71.05879085                1.00000000               -0.02256145               -0.02406760                0.07564157               -0.00049984               -0.00857614               -0.00149628
               1.90918630               -0.02270072               71.06225715                0.01000000                0.16335550               -0.02296392                0.07220396                0.25505687               -0.00778757               -0.00346914
               2.91267358               -0.02201818               71.06574783                0.01006753                0.25846654               -0.07089201                0.07030257                0.19579658               -0.02347011                0.03120109
               3.91435563               -0.01943839               71.06873152                0.01000000                0.09594239               -0.02796366                0.07719019                0.19673269               -0.09548458                0.03865650
               4.91459242               -0.01361598               71.07090489                0.01000001               -0.10627223                0.01527140                0.09685110                0.29409751               -0.18307971                0.03819559
               5.91223019               -0.00372494               71.07225793                0.01000000               -0.53365958                0.10211833                0.10498475                0.63332027               -0.29177542                0.03139145
               6.90391923                0.01211613               71.07246014                0.98761374               -0.42980644               -0.03234653                0.09686833                0.67205451               -0.14422289               -0.00425137
               7.90363406                0.01457857               71.07550303                1.00000000               -0.02812057               -0.03057915                0.09377423                0.00009119               -0.00379662               -0.00293457
               8.90335682                0.01710653               71.07853358                1.00000000               -0.02714070               -0.02915937                0.09012743                0.00004467               -0.00406267               -0.00196163
               9.90309124                0.01969705               71.08158903                1.00000000               -0.02655769               -0.02837707                0.08732851               -0.00402683               -0.00383693               -0.00577751
              -0.08586353                0.98599811               71.05698613                0.99999999               -0.02597970               -0.02651654                0.08829526                0.00144948                0.00141007                0.00805281
               0.91387668                0.98151900               71.06046637                0.01000000               -0.02553381               -0.02541199                0.08484384                0.00005030                0.00422726               -0.00437947
               1.91362580                0.97706964               71.06400494                0.01000000               -0.04381496                0.02265669                0.08133603                0.20527758                0.01344061                0.03432687
               2.91300038                0.97727290               71.06766690                0.01000000               -0.07519678               -0.03748978                0.07630398                0.34917253               -0.01564521                0.05977715
               3.91212186                0.98028198               71.07067785                0.01000000               -0.16618503               -0.00718855                0.07924369                0.45756685               -0.07658050                0.07191276
               4.90967668                0.98653673               71.07305547                0.01000000               -0.32122626                0.03032124                0.08917519                0.64902486               -0.14112471                0.07477790
               5.90569734                0.99729625               71.07466192                0.01000001               -0.40943256                0.01510734                0.10397248                0.92195702               -0.21943963                0.06025831
               6.90148802                1.01179266               71.07546749                0.79977129               -0.22787823               -0.03534236                0.11759966                0.60535520               -0.11277108               -0.00815570
               7.90113977                1.01427278               71.07853404                0.99999999               -0.03449980               -0.03354616                0.11413569                0.00122409                0.00050317               -0.00024382
               8.90079803                1.01681494               71.08159778                1.00000000               -0.03396579               -0.03129615                0.11100337                0.00027337                0.00039606                0.00078042
               9.90046045                1.01941328               71.08465128                0.99999998               -0.03375734               -0.03000837                0.10818973               -0.00352761                0.00051426               -0.00628950
              -0.08137526                1.98571936               71.05867362                0.09593241               -0.02887984               -0.01598979                0.09749338                0.00537412                0.00327507                0.07654641
               0.91833594                1.98125143               71.06208331                0.01000000               -0.05433954               -0.01870095                0.09418790                0.04992210                0.05362034                0.06029935
               1.91753795                1.97775241               71.06650284                0.01000001               -0.09456252               -0.02130530                0.08385537                0.32173813                0.06208254                0.09370870
               2.91644469                1.97723203               71.07010148                0.01000000               -0.16474056               -0.03751503                0.08390479                0.65199363               -0.00231077                0.10643036
               3.91424314                1.98041784               71.07324812                0.01000000               -0.29430193               -0.00564996                0.08591687                0.93319821               -0.04626190                0.12537900
               4.91055865                1.98699044               71.07587220                0.01000001               -0.44148703                0.01006922                0.09322552                1.18088072               -0.09446349                0.13474271
               5.90541340                1.99657721               71.07786484                0.01000000               -0.57544245               -0.03925884                0.10819523                1.50490701               -0.18343159                0.12777164
               6.89904980                2.01140928               71.07840719                0.01000000               -0.33885643               -0.30787073                0.13594700                1.06924012               -0.11848512                0.11216027
               7.89863627                2.01390765               71.08163814                0.60740184               -0.04140080               -0.03429419                0.13740978                0.00432060                0.01175690                0.04484136
               8.89822179                2.01648061               71.08473886                0.99999998               -0.04061328               -0.03742727                0.13275993                0.00385771                0.00329174                0.01288472
               9.89782400                2.01909688               71.08772586                0.99997776               -0.03977845               -0.03651691                0.12701933               -0.00402389               -0.00019154               -0.00059049
              -0.07682019                2.98567831               71.06172147                0.01000001               -0.03377427                0.14204619                0.07776652                0.37094028               -0.00234093                0.14513265
               0.92284207                2.98114498               71.06505211                0.01000000                0.04500789               -0.14121026                0.07175813                0.38919470                0.04008512                0.13630226
               1.92407997                2.97664353               71.06920544                0.01000000                0.02663769               -0.18221676                0.09445619                0.66342614                0.06483103                0.10797944
               2.92337482                2.97652260               71.07289983                0.01000000               -0.15262794               -0.12523883                0.09529270                1.07618332                0.02620650                0.13266744
               3.92102741                2.98016898               71.07623664                0.01011917               -0.31199484               -0.07725666                0.09644059                1.39210882               -0.00872046                0.15488078
               4.91713492                2.98673812               71.07916639                0.01000000               -0.48253848               -0.04657350                0.10254831                1.69070492               -0.04698903                0.17056357
               5.91137664                2.99651107               71.08159058                0.01000001               -0.57962672               -0.06762994                0.11514669                1.82659445               -0.07496039                0.18137516
               6.90554239                3.00563525               71.08381396                0.01000000               -0.76108897               -0.34866181                0.13046667                1.72198375               -0.11388272                0.23670204
               7.89615486                3.01358690               71.08556743                0.01009381               -0.49282211               -0.16546228                0.15825032                1.01010642               -0.09487276                0.15519020
               8.89568595                3.01606639               71.08802830                0.40473291               -0.05037180               -0.03075974                0.16789653                0.00645062               -0.02745477                0.10688590
               9.89514742                3.01868294               71.09090256                0.99999999               -0.05385236               -0.03468050                0.16462343               -0.00317823               -0.00307894                0.09536638
              -0.06488979                3.98856028               71.06509376                0.01000001                0.00444021                0.09581446                0.09968542                0.38083006                0.02329398                0.14520180
               0.93515461                3.97842723               71.06837996                0.01000000                0.01593187               -0.34938520                0.12008417                0.72759174                0.04927564                0.07875318
               1.93542885                3.97410808               71.07202381                0.01000000               -0.03558498               -0.30344913                0.11701798                1.17384920                0.07550348                0.09419665
               2.93444291                3.97472725               71.07582612                0.01013441               -0.17795256               -0.21681880                0.11106652                1.49638507                0.06032413                0.13155196
               3.93186980                3.97887271               71.07934080                0.01000000               -0.32061276               -0.18203172                0.10853805                1.81386512                0.02654994                0.16580250
               4.92803066                3.98605897               71.08261625                0.01000001               -0.44108218               -0.12549727                0.11138018                2.10076550                0.00317271                0.19014455
               5.92304815                3.99522461               71.08563907                0.01000001               -0.58085037               -0.13786775                0.12079164                2.28669281               -0.02432518                0.21359600
               6.91641365                4.00443605               71.08829747                0.01000002               -0.73204492               -0.15032970                0.13650172                2.18151100               -0.05357780                0.21962501
               7.90840726                4.01059840               71.09077236                0.01000001               -1.15794496               -0.18428089                0.14199349                2.14889338               -0.09549731                0.26422213
               8.89325475                4.01586541               71.09291780                0.01000000               -0.79399610               -0.26072217                0.17095136                1.84431033               -0.05145124                0.23892853
               9.89252733                4.01840327               71.09581597                0.01000000               -0.07274185               -1.11319856                0.17241815                1.82697966                0.02165536                0.23211198
              -0.04893748                4.98759460               71.06842158                0.01000000                0.07835863               -0.50861516                0.10618878                0.79356518                0.03050495                0.09332439
               0.95184611                4.97415727               71.07080165                0.01000000                0.00972037               -0.48634847                0.14692643                1.27060593                0.12548434                0.04713761
               1.95125693                4.97057455               71.07477167                0.01000001               -0.16541089               -0.29949442                0.14435489                1.55860923                0.16233053                0.03376602
               2.94853789                4.97218623               71.07854462                0.01000000               -0.26419716               -0.30971615                0.12978386                1.80361107                0.09024963                0.13179998
               3.94597299                4.97652834               71.08240959                0.01000001               -0.28697793               -0.29100492                0.11802619                2.10032143                0.06142060                0.16709631
               4.94279833                4.98422817               71.08611329                0.01000001               -0.36197818               -0.24196561                0.11751730                2.43043721                0.04431285                0.19330706
               5.93873342                4.99375371               71.08960932                0.01009827               -0.44997573               -0.19993896                0.12651736                2.59299933                0.02937780                0.21572913
               6.93379882                5.00262866               71.09281753                0.01000001               -0.55150310               -0.19173947                0.13950824                2.64921558                0.01128848                0.23483615
               7.92770336                5.00990128               71.09570109                0.01000000               -0.45157680               -0.20812593                0.14713983                2.53393625               -0.01482557                0.28062966
               8.92476728                5.01085195               71.09853649                0.01000000               -0.05460343               -0.58278075                0.15123785                2.17298190               -0.02050309                0.30683741
               9.92661129                4.99641897               71.10143717                0.01000000                0.18440110               -1.43257757                0.15607971                1.46850700               -0.02652743                0.31057148
              -0.02214383                5.97838798               71.07160285                0.03723072               -0.02693852               -0.53160596               -0.01014972                0.89659566                0.55206034               -0.35495800
               0.97758678                5.96870026               71.07529965                0.01000001               -0.46420424               -0.25298387                0.16331152                1.29717074                0.43601686               -0.07692141
               1.96857208                5.96811819               71.07660557                0.01000000               -0.65127193               -0.31680077                0.17636961                1.61490002                0.11682056                0.12485862
               2.96456134                5.96853293               71.08111935                0.01000001               -0.33689016               -0.39013608                0.13428009                1.78798698                0.11396990                0.13006003
               3.96183428                5.97305261               71.08526198                0.01000001               -0.25736558               -0.43159419                0.12234199                2.18450491                0.08089860                0.13982878
               4.95941403                5.98121966               71.08937504                0.01008948               -0.26633110               -0.37250809                0.12417052                2.54857767                0.07974962                0.17024222
               5.95650766                5.99122583               71.09332691                0.01000001               -0.30818164               -0.28320176                0.13102515                2.72566869                0.07705314                0.19920748
               6.95325040                6.00060126               71.09710831                0.01000000               -0.28224841               -0.22127057                0.13432785                2.66795757                0.06618684                0.24661057
               7.95086269                6.00643588               71.10060031                0.01000000               -0.15268516               -0.31577302                0.14510581                2.32814702                0.04624709                0.30089659
               8.95019670                6.00420980               71.10386589                0.01013514               -0.00496323               -0.47044282                0.14965417                1.42765495                0.01906705                0.32041176
               9.95076342                5.98975172               71.10696385                0.01000000                0.05667284               -0.36414211                0.15489173                0.68123890                0.00186742                0.30665507
              -0.01163012                6.97696248               71.07163175                0.94891335               -0.03105641               -0.08653885                0.10046856                0.13348100               -0.00476608               -0.03319470
               0.98805931                6.96909760               71.07570800                0.01000002               -0.23238086                0.00330800                0.10715213                0.28088243               -0.01759311               -0.03417315
               1.98372226                6.96423854               71.07954018                0.01005281               -0.43480532               -0.36163308                0.14522667                1.11474415               -0.08245390                0.18206053
               2.97936321                6.96438350               71.08315056                0.01000000               -0.33729562               -0.46498754                0.13428513                1.48285350                0.03549130                0.04762264
               3.97697635                6.96789646               71.08757020                0.01000002               -0.18832724               -0.67945766                0.12862002                2.03500260                0.09251462                0.07714549
               4.97559666                6.97677801               71.09215585                0.01000001               -0.15555739               -0.50751610                0.12734864                2.55940003                0.11508049                0.12248630
               5.97386520                6.98808968               71.09670822                0.01000000               -0.18243740               -0.28550011                0.12859870                2.64041218                0.14547402                0.16618998
               6.97194791                6.99820324               71.10116229                0.01000000               -0.16037206               -0.22306072                0.13581150                2.42512687                0.15432788                0.23662827
               7.97065776                7.00358582               71.10532615                0.01000001               -0.09716877               -0.21142009                0.14388446                1.93945902                0.12565126                0.31869598
               8.97000454                7.00144309               71.10903017                0.01012971               -0.07527709               -0.11189728                0.14895299                1.09316261                0.06563913                0.35105273
               9.96915222                6.98913613               71.11204608                0.01000000               -0.08523219                0.12548090                0.15440385                0.46741083                0.02189504                0.32039444
              -0.00374444                7.97665720               71.07270936                1.00000000               -0.03271790               -0.03124805                0.10533761                0.00077218               -0.00309466                0.02283936
               0.99592838                7.96876642               71.07666564                0.99999999               -0.03372484               -0.03374552                0.11204726               -0.00019721               -0.00731190               -0.00198863
               1.99558106                7.96088553               71.08054377                0.01000896               -0.26839434               -0.18589466                0.11916687                0.51067825               -0.01413976               -0.01558186
               2.99056049                7.95923318               71.08436746                0.01000000               -0.27206172               -0.58726220                0.17188195                1.11528473                0.07996309               -0.03991618
               3.99013982                7.95946346               71.08914343                0.01000097               -0.00758386               -1.15646275                0.12192995                1.87709497                0.14533996               -0.05199449
               4.99040881                7.97106934               71.09426636                0.01000000               -0.11245788               -0.43659383                0.13007224                2.47006958                0.19394246                0.05843078
               5.98789067                7.98551583               71.09958734                0.01000000               -0.20760077               -0.18847445                0.13454371                2.27222816                0.23566408                0.11766334
               6.98625680                7.99614004               71.10479670                0.01000002               -0.07393222               -0.18640775                0.13859480                1.90096284                0.26738651                0.18803422
               7.98641202                8.00220748               71.11002607                0.01000000                0.01264191               -0.16182345                0.14457280                1.56402986                0.25525814                0.29639799
               8.98650964                8.00197185               71.11426816                0.01000000               -0.08432298                0.08116992                0.15300354                1.09479987                0.15695255                0.49296148
               9.98472556                7.99226134               71.11740899                0.01000002               -0.17840727                0.62540490                0.15976185                0.63961797                0.08561067                0.36218359
               0.00416689                8.97633752               71.07386431                0.99999999               -0.03398449               -0.03273501                0.10986947                0.00087393                0.00138211                0.02154706
               1.00382705                8.96842269               71.07772307                0.99999999               -0.03489114               -0.03514796                0.11695901                0.00014862                0.00053000                0.00223432
               2.00346907                8.96052064               71.08157013                0.99999994               -0.03680370               -0.03726325                0.12379284                0.00061133               -0.00507567               -0.00932642
               3.00309097                8.95263826               71.08532765                0.88638236               -0.03934924               -0.35027454                0.13235844                0.23354606               -0.00697377               -0.01844651
               4.00268208                8.94476720               71.08915418                0.01000000               -0.20726450               -0.75682999                0.14277329                1.79157547                0.14851315               -0.07676967
               4.99894568                8.96804613               71.09601068                0.01000000               -0.42215113               -0.10891876                0.13660329                2.08979074                0.30690675                0.01218044
               5.99423906                8.98432019               71.10199367                0.01002479               -0.28350819               -0.07738351                0.13857635                1.37610815                0.29968772                0.05887016
               6.99327552                8.99447509               71.10780227                0.01000001                0.09337430               -0.17448109                0.14097851                1.03179357                0.34409881                0.10041846
               7.99610655                9.00034935               71.11373230                0.01000002                0.42855795               -0.26406263                0.14862729                0.90888122                0.49986676                0.18326828
               9.00184668                9.00306649               71.12142645                0.99997521                0.26295254                0.03134311                0.14577550                0.90733235                0.32118836                0.31611234
              10.00136560                9.00164423               71.12263479                1.00000000               -0.04810795                0.44046968                0.17751784                0.76155170               -0.00269198                0.21370158
               0.01210270                9.97600250               71.07491286                1.00000000               -0.03544742               -0.03350169                0.11474626               -0.00032330                0.01571191                0.01626832
               1.01174823                9.96806346               71.07876993                0.99999999               -0.03624946               -0.03592270                0.12181591               -0.00099393                0.01914850                0.00171015
               2.01137771                9.96014026               71.08270107                1.00000000               -0.03816890               -0.03803800                0.12877229               -0.00092428                0.02274072               -0.00424099
               3.01098485                9.95222769               71.08664514                0.99999997               -0.04071264               -0.04105744                0.13807503               -0.00128251                0.02180799                0.00030380
               4.01056346                9.94432686               71.09056711                0.09379704               -0.91666038               -0.04403466                0.14859119                1.62130160                0.17456451               -0.00430675
               4.99265164                9.96889096               71.09755124                0.01000000               -1.07897926                0.08448309                0.14546000                1.35266107                0.33836751               -0.02069280
               5.98898388                9.98396816               71.10396917                0.01000001               -0.08940660               -0.03520309                0.14755632                0.66245417                0.32742410                0.02054727
               6.99086351                9.99265042               71.10988969                0.01000000                0.35071862               -0.18246685                0.14821568                0.40670271                0.36148061                0.03452874
               7.99599825                9.99692623               71.11615566                0.01000002                0.62489465               -0.34231189                0.15836122                0.48658466                0.43650818                0.09193534
               9.00336140               10.00259871               71.12232426                1.00000000                0.34014362               -0.04677752                0.16958159                0.35869784                0.25163720                0.00361910
              10.00280112               10.00107073               71.12353260                0.99985928               -0.05602835               -0.05734932                0.20131738               -0.00924576                0.00322768               -0.00324276
              -0.09390215               -0.01539504               72.05610688                1.00000000               -0.02319173               -0.02534379                0.07975192                0.00080518               -0.00794614                0.00740789
               0.90586593               -0.01997667               72.05954590                0.99664705               -0.02254500               -0.02405178                0.07559799               -0.00059683               -0.00864051               -0.00141855
               1.90564695               -0.02452857               72.06297362                0.01001904                0.16634811               -0.02274684                0.07147290                0.26849844               -0.00751975               -0.00343061
               2.90919289               -0.02366627               72.06643452                0.01000000                0.25778243               -0.06650818                0.06812155                0.20768660               -0.02417005                0.02999898
               3.91080260               -0.02097895               72.06947715                0.01000000                0.09028959               -0.02591990                0.07479214                0.19541050               -0.08488317                0.04482727
               4.91099869               -0.01539677               72.07196031                0.01000001               -0.12377783                0.02277152                0.09431883                0.28638372               -0.18279799                0.05119682
               5.90832704               -0.00570830               72.07333960                0.01081401               -0.50666361                0.08799277                0.15438371                0.59368990               -0.28651912                0.04259739
               6.90086541                0.00895605               72.07344809                0.99813297               -0.38784110               -0.03275100                0.10065882                0.61272259               -0.14783438               -0.00444705
               7.90057022                0.01140698               72.07646038                1.00000000               -0.02909597               -0.03219224                0.09776764               -0.00031917               -0.00454806               -0.00367290
               8.90028349                0.01390788               72.07945618                1.00000000               -0.02825672               -0.03120760                0.09485965               -0.00023131               -0.00480515               -0.00254937
               9.90000508                0.01645607               72.08248301                1.00000000               -0.02784094               -0.03033453                0.09189304               -0.00267886               -0.00440903               -0.00649360
              -0.08931247                0.98435152               72.05787261                0.99999999               -0.02607998               -0.02670495                0.08892208                0.00146442                0.00130345                0.00792775
               0.91042673                0.97978282               72.06131420                0.01000000               -0.02553951               -0.02539743                0.08484470                0.00004860                0.00408447               -0.00426147
               1.91017674                0.97524396               72.06481321                0.01000000               -0.04658889                0.02958573                0.08070181                0.21945982                0.01235716                0.03192635
               2.90949495                0.97566864               72.06841892                0.01000000               -0.07773926               -0.03288399                0.07527362                0.36724148               -0.02166175                0.06246934
               3.90862195                0.97876185               72.07143995                0.01000002               -0.16338745               -0.00568841                0.07563182                0.46049993               -0.08488865                0.08564196
               4.90622720                0.98483094               72.07393545                0.01000000               -0.32672123                0.03570212                0.08011286                0.63350987               -0.14593367                0.09176873
               5.90208753                0.99517162               72.07569463                0.01000001               -0.38961014                0.00376349                0.09682276                0.89051853               -0.19843948                0.06715624
               6.89843500                1.00862854               72.07664256                0.77692778               -0.19982060               -0.03523939                0.11716080                0.55163523               -0.10475029               -0.00903844
               7.89809112                1.01108506               72.07967418                0.99999999               -0.03391807               -0.03479716                0.11422630               -0.00001300               -0.00038433               -0.00135812
               8.89775664                1.01359580               72.08270655                1.00000000               -0.03305067               -0.03296242                0.11095720                0.00122580               -0.00009437               -0.00178268
               9.89743010                1.01615272               72.08573303                1.00000000               -0.03265342               -0.03248067                0.10804747               -0.00137116                0.00058329               -0.00950602
              -0.08473545                1.98407086               72.05965250                0.12838819               -0.02900878               -0.02074293                0.09815567                0.00420241                0.00326740                0.06523718
               0.91497446                1.97951539               72.06302592                0.01000000               -0.05571165               -0.02182295                0.09427664                0.05528356                0.05107241                0.04884387
               1.91415032                1.97606315               72.06735752                0.01000001               -0.09773144               -0.01235369                0.08544634                0.33781130                0.05661659                0.09886714
               2.91301983                1.97567605               72.07093912                0.01000000               -0.16500096               -0.03324016                0.08365729                0.67115618               -0.01060832                0.11788023
               3.91085030                1.97890728               72.07408845                0.01000000               -0.28803610               -0.00409977                0.08274763                0.93897074               -0.05926366                0.14451239
               4.90725911                1.98531727               72.07676557                0.01000001               -0.42552431                0.01144872                0.08712895                1.16010818               -0.09616402                0.15296559
               5.90233981                1.99436697               72.07891669                0.01000000               -0.56372134               -0.03843662                0.09600800                1.45735714               -0.16790337                0.14299233
               6.89598468                2.00825126               72.07975650                0.01000000               -0.33685550               -0.28197647                0.13461594                1.01585625               -0.10225274                0.10118590
               7.89560270                2.01071104               72.08296054                0.69807937               -0.03721707               -0.03704593                0.12639080                0.00073157                0.00998106                0.01971578
               8.89524034                2.01324863               72.08600476                0.99999997               -0.03694448               -0.03372401                0.12370113                0.00476676                0.00088964                0.01386073
               9.89486381                2.01580646               72.08895519                1.00000000               -0.03765314               -0.03481108                0.12461281                0.00008970               -0.00092495                0.00411591
              -0.08011747                2.98393666               72.06256781                0.01000000               -0.03424145                0.13384324                0.08931339                0.37517294                0.00121917                0.15116487
               0.91954011                2.97934636               72.06585551                0.01000000                0.04448871               -0.15040205                0.08615544                0.40556522                0.05358076                0.15335511
               1.92077230                2.97499689               72.07020588                0.01000000                0.02669111               -0.18306881                0.09983530                0.69072744                0.06345288                0.14191373
               2.92007394                2.97500384               72.07387789                0.01000000               -0.15060794               -0.12042476                0.09625524                1.09531025                0.01106654                0.15584650
               3.91776014                2.97867986               72.07719495                0.01013511               -0.30521272               -0.07414677                0.09494172                1.39425381               -0.01754274                0.17173574
               4.91396968                2.98505992               72.08017226                0.01000000               -0.47297341               -0.04367982                0.09850499                1.66749979               -0.04454514                0.18308134
               5.90830068                2.99440289               72.08270378                0.01000001               -0.57808144               -0.05413174                0.11014206                1.77813612               -0.05605945                0.18572737
               6.90240805                3.00298901               72.08514784                0.01000000               -0.75961456               -0.30914355                0.12797515                1.66523558               -0.11040216                0.22167855
               7.89310838                3.01034414               72.08660139                0.01000001               -0.48257501               -0.13349751                0.09791893                0.97563792               -0.08134653                0.12878338
               8.89275655                3.01292132               72.08961238                0.82484027               -0.03960731               -0.01849527                0.13397117               -0.00164640                0.00042393                0.07784662
               9.89231624                3.01545650               72.09256203                0.99999999               -0.04403144               -0.02171317                0.14100125                0.00909521                0.00946135                0.07163046
              -0.06805138                3.98674773               72.06620381                0.01000000                0.00769179                0.07857292                0.11458820                0.43284633                0.02510004                0.16344156
               0.93202554                3.97650734               72.06973810                0.01000002                0.01793795               -0.36686899                0.13710922                0.78333412                0.01861861                0.18873407
               1.93230738                3.97240177               72.07333497                0.01000000               -0.03912353               -0.29973528                0.12980549                1.21634941                0.02163344                0.16074400
               2.93124307                3.97326755               72.07699333                0.01013653               -0.18140419               -0.20807789                0.11411024                1.51836470                0.01724450                0.16699809
               3.92867930                3.97742435               72.08044221                0.01000000               -0.31784986               -0.17447893                0.10783999                1.80615078                0.00754672                0.17750624
               4.92488607                3.98444367               72.08371774                0.01000001               -0.43529300               -0.11782034                0.10843207                2.07544908                0.00253301                0.19115549
               5.91997344                3.99328433               72.08682919                0.01000001               -0.57689617               -0.12281117                0.11677018                2.24829303               -0.01077555                0.20775223
               6.91334815                4.00206839               72.08961288                0.01000001               -0.73951424               -0.12025165                0.12643812                2.15814318               -0.03619077                0.21005399
               7.90518315                4.00804109               72.09211393                0.01013610               -1.16265488               -0.13447542                0.13392261                2.12163663               -0.08234467                0.25136546
               8.89009505                4.01287872               72.09419505                0.01000000               -0.76039019               -0.22817235                0.07595086                1.81548255               -0.05550463                0.17671344
               9.88997535                4.01537219               72.09715773                0.01000000               -0.01197024               -1.07949512                0.07945970                1.80532177                0.02196178                0.17677550
              -0.05097978                4.98550812               72.06926645                0.01000001                0.05325332               -0.47167780                0.08629911                0.76673816               -0.00079393                0.11327193
               0.94955275                4.97200898               72.07278456                0.01000000               -0.03405673               -0.43343793                0.19278111                1.29152413               -0.00755019                0.16638602
               1.94833908                4.96900218               72.07638047                0.01000001               -0.20670503               -0.27577714                0.15669222                1.63412087               -0.00295855                0.15105343
               2.94541865                4.97084228               72.07996896                0.01000000               -0.28160235               -0.28585307                0.13844456                1.79967379                0.01266577                0.15252249
               3.94270704                4.97519028               72.08362279                0.01000001               -0.28999857               -0.28460987                0.11927861                2.08102167                0.02821991                0.16670901
               4.93961868                4.98270351               72.08728190                0.01000001               -0.35326106               -0.23423952                0.11550374                2.40096686                0.03942992                0.18571700
               5.93564182                4.99194667               72.09083399                0.01000002               -0.44022591               -0.18456931                0.11892390                2.56769376                0.03362417                0.20157676
               6.93081416                5.00058398               72.09416805                0.01000001               -0.54555135               -0.16181822                0.12893509                2.63370826                0.00729018                0.23461247
               7.92473079                5.00765463               72.09708923                0.01000000               -0.45395320               -0.17818795                0.13461312                2.52578664               -0.00527634                0.25017579
               8.92173510                5.00835787               72.09994245                0.01000000               -0.06475286               -0.54159590                0.13998261                2.16431698               -0.00848976                0.28468774
               9.92343573                4.99386660               72.10292580                0.01000002                0.17006338               -1.39365285                0.14000106                1.43398366               -0.02184534                0.28902869
              -0.02571832                5.97731417               72.07161839                0.03808322                0.00802848               -0.47278040               -0.00062654                0.81211154                0.00037232                0.05974137
               0.97436196                5.96783859               72.07569068                0.01000001               -0.40625917               -0.19799686                0.03317345                1.19575599               -0.04047531                0.09502193
               1.96615649                5.96688623               72.07894560                0.01000000               -0.66567552               -0.21127234                0.21856648                1.47332278               -0.03307281                0.10391658
               2.96104845                5.96755049               72.08259426                0.01000001               -0.38589943               -0.39490604                0.14727331                1.74438247                0.00230603                0.12320701
               3.95843851                5.97173215               72.08654618                0.01000001               -0.24497152               -0.43273557                0.12655920                2.14896332                0.04916904                0.12642403
               4.95614902                5.97975888               72.09059718                0.01000002               -0.24958305               -0.36574551                0.11951828                2.52861119                0.07343725                0.15154470
               5.95344684                5.98959295               72.09462679                0.01000001               -0.29173339               -0.26874011                0.12371122                2.71382034                0.08402808                0.18564245
               6.95031435                5.99883203               72.09841267                0.01000000               -0.27609250               -0.19891097                0.12808377                2.66024110                0.07853853                0.23058527
               7.94792499                6.00447733               72.10201720                0.01000000               -0.15724655               -0.28518391                0.13779928                2.32165188                0.05318469                0.27157596
               8.94716942                6.00204680               72.10533380                0.01000001               -0.01437134               -0.43959581                0.14306683                1.42827576                0.01959087                0.29742952
               9.94763757                5.98749914               72.10847482                0.01000000                0.04681448               -0.33966380                0.14923392                0.68950833               -0.00032744                0.29608520
              -0.01578638                6.97605251               72.07264692                0.93157974               -0.03178043               -0.07850013                0.10165866                0.09718088               -0.00476621                0.01405089
               0.98389581                6.96804904               72.07678905                0.01000002               -0.30599914               -0.00613501                0.10976373                0.31324241               -0.02305176               -0.00124635
               1.97809364                6.96477674               72.08057037                0.01001511               -0.42177185               -0.35981783                0.11645763                1.01460377               -0.09208171                0.09770217
               2.97546038                6.96294416               72.08472347                0.01000000               -0.23078628               -0.49362795                0.14323341                1.38669515                0.01208096                0.02712125
               3.97347791                6.96653557               72.08889343                0.01000002               -0.15651338               -0.69259198                0.13246151                2.04030018                0.07835194                0.05409022
               4.97233011                6.97538860               72.09343471                0.01000001               -0.13164168               -0.50198608                0.12507658                2.55037495                0.13028618                0.09076009
               5.97084508                6.98657187               72.09796304                0.01000000               -0.15977537               -0.28190416                0.12440829                2.63413780                0.14998434                0.15563917
               6.96913460                6.99660576               72.10247727                0.01000000               -0.14480124               -0.21030328                0.12895724                2.43644842                0.15336139                0.21538179
               7.96794905                7.00195095               72.10673443                0.01000000               -0.09278984               -0.18054331                0.13738992                1.96138574                0.12765930                0.29483900
               8.96727881                6.99956596               72.11048714                0.01000001               -0.08139088               -0.07468768                0.14626259                1.11575723                0.06700977                0.32415847
               9.96632123                6.98707332               72.11357444                0.01000001               -0.09575711                0.15434024                0.15665614                0.48862869                0.02005749                0.31774449
              -0.00776776                7.97574417               72.07376768                0.99999998               -0.03296564               -0.03124262                0.10635206                0.00079066               -0.00347549                0.02295988
               0.99190259                7.96771589               72.07779118                0.99999999               -0.03393982               -0.03404151                0.11293910               -0.00038463               -0.00818331               -0.00270746
               1.99155345                7.95968987               72.08173588                0.01063816               -0.24395316               -0.27263293                0.11930088                0.57219092               -0.00428912               -0.00946350
               2.98702352                7.95767793               72.08583555                0.01000003               -0.23766879               -0.58306223                0.14417392                1.09574288                0.06310676               -0.05572777
               3.98680007                7.95788031               72.09049025                0.01008590                0.00483488               -1.16398501                0.13615968                1.86773317                0.13531004               -0.08102359
               4.98712022                7.96971916               72.09554508                0.01000000               -0.09438158               -0.44496972                0.13063497                2.46647139                0.18551392                0.04662159
               5.98491244                7.98395486               72.10091082                0.01000000               -0.17279926               -0.19626618                0.13023940                2.26775940                0.22598545                0.10771311
               6.98366424                7.99462596               72.10614799                0.01000000               -0.03599632               -0.18592839                0.13162538                1.92625572                0.25749817                0.17351092
               7.98419251                8.00086646               72.11142583                0.01011945                0.03489797               -0.14522169                0.13479437                1.61011280                0.24233921                0.27021802
               8.98436220                8.00055305               72.11578472                0.01000001               -0.08985542                0.12572818                0.14702033                1.14445736                0.14751600                0.46461275
               9.98239540                7.99058594               72.11902043                0.01000002               -0.19667907                0.67636050                0.16684646                0.68582174                0.07946881                0.37106866
               0.00028600                8.97542766               72.07496519                1.00000000               -0.03435777               -0.03254689                0.11025059                0.00083709                0.00128351                0.02160949
               0.99994242                8.96736821               72.07889519                0.99999999               -0.03552933               -0.03527661                0.11734819                0.00015566                0.00073519                0.00238970
               1.99957541                8.95932408               72.08281645                0.99999999               -0.03788120               -0.03736300                0.12483305               -0.00067758               -0.00667248               -0.00901359
               2.99918479                8.95128292               72.08660969                0.86608983               -0.03920330               -0.33933076                0.12929756                0.20650476               -0.01235584               -0.03066362
               3.99879134                8.94325587               72.09043139                0.01000000               -0.17999038               -0.75112238                0.13223320                1.76076410                0.14546060               -0.08327115
               4.99558499                8.96648921               72.09736578                0.01000002               -0.37489403               -0.13061504                0.13667016                2.07931747                0.30205743                0.01244245
               5.99129346                8.98264654               72.10336883                0.01000001               -0.24184345               -0.09161382                0.13618484                1.37854281                0.29020257                0.05102548
               6.99074812                8.99288719               72.10920293                0.01000000                0.14653793               -0.18896429                0.13968269                1.05658809                0.33368727                0.09556762
               7.99422422                8.99904652               72.11520798                0.01000000                0.48501780               -0.27447557                0.14014815                0.95913018                0.47584163                0.16517552
               9.00044847                9.00208052               72.12287039                1.00000000                0.28738335                0.05325402                0.14303540                0.96112382                0.30301788                0.30000698
               9.99997189                9.00060053               72.12441213                1.00000000               -0.04765855                0.47177447                0.17793609                0.80554752               -0.00274919                0.20948898
               0.00836789                9.97509323               72.07606281                1.00000000               -0.03586061               -0.03344321                0.11512543               -0.00009832                0.01567144                0.01658109
               1.00800928                9.96701035               72.07998980                0.99999999               -0.03713509               -0.03578566                0.12273351               -0.00084443                0.01984220                0.00163651
               2.00762519                9.95894261               72.08400307                1.00000000               -0.03937266               -0.03814676                0.13036138               -0.00097407                0.02194039               -0.00396925
               3.00722183                9.95089132               72.08798304                0.99999997               -0.04080611               -0.03916024                0.13527546               -0.00053378                0.01633837                0.00021597
               4.00680907                9.94285786               72.09189586                0.06834426               -0.89529672               -0.03980037                0.13800151                1.61254947                0.17532541               -0.00470036
               4.98931590                9.96710686               72.09904463                0.01000001               -1.03618783                0.06176547                0.14525043                1.33632699                0.33935438               -0.01522669
               5.98608531                9.98212259               72.10542282                0.01000001               -0.04599364               -0.05239570                0.14548189                0.66617548                0.32226491                0.01330582
               6.98839602                9.99084668               72.11140806                0.01000000                0.40482405               -0.20405150                0.15493834                0.42750868                0.36950765                0.03647561
               7.99418179                9.99537695               72.11781325                0.01000002                0.68173170               -0.36695687                0.16049654                0.53432950                0.42016314                0.08979553
               9.00203066               10.00161813               72.12401798                1.00000000                0.36422685               -0.04623893                0.16913055                0.39044229                0.23676344                0.00363603
              10.00146633               10.00002143               72.12555959                0.99999998               -0.05643299               -0.05791042                0.20406414               -0.01022619                0.00325691               -0.00317716
              -0.09739944               -0.01713361               73.05690746                1.00000000               -0.02336411               -0.02553519                0.08044582                0.00070951               -0.00787171                0.00724543
               0.90236692               -0.02180530               73.06030281                0.99273077               -0.02266378               -0.02409498                0.07588597               -0.00066079               -0.00866729               -0.00140589
               1.90214728               -0.02644852               73.06368661                0.01000000                0.16598611               -0.02272198                0.07127277                0.28301010               -0.00736800               -0.00344670
               2.90568664               -0.02538699               73.06711026                0.01000000                0.24924486               -0.05953194                0.06861475                0.22443004               -0.02222311                0.02750446
               3.90713218               -0.02246744               73.07022736                0.01001762                0.06936876               -0.01490407                0.07749912                0.21977152               -0.08933866                0.04285769
               4.90707401               -0.01654231               73.07279127                0.01000003               -0.10600771                0.01091629                0.08739140                0.28714989               -0.17085932                0.06910956
               5.90501203               -0.00758305               73.07534560                0.01000003               -0.46161249                0.06453326                0.17767892                0.50996905               -0.46450273                0.17676375
               6.89784176                0.00563825               73.07447332                1.00000000               -0.37385073               -0.03347699                0.10505381                0.54019995               -0.19468384               -0.00366961
               7.89753501                0.00807753               73.07745838                0.99999999               -0.03018349               -0.03320703                0.10187342               -0.00086363               -0.00373196               -0.00223696
               8.89723809                0.01055481               73.08043077                1.00000000               -0.02928019               -0.03241006                0.09886192               -0.00060099               -0.00415353               -0.00139687
               9.89694941                0.01306713               73.08342689                1.00000000               -0.02886877               -0.03161551                0.09517110               -0.00179356               -0.00360430               -0.00422807
              -0.09272065                0.98261104               73.05876457                0.99999999               -0.02615830               -0.02687416                0.08942301                0.00140537                0.00129342                0.00779558
               0.90701776                0.97795375               73.06216327                0.01000000               -0.02555605               -0.02538472                0.08494550               -0.00006604                0.00409748               -0.00416155
               1.90676822                0.97332426               73.06561897                0.01000000               -0.05386819                0.03928026                0.08044734                0.23368751                0.01195843                0.02960483
               2.90594040                0.97401769               73.06917237                0.01000000               -0.09303333               -0.02411780                0.07832882                0.39371105               -0.02747050                0.06303264
               3.90490756                0.97738352               73.07219049                0.01012829               -0.17185399                0.00102620                0.07974736                0.48241944               -0.10755773                0.09036296
               4.90250332                0.98356685               73.07465773                0.01000000               -0.29430627                0.01776295                0.08673005                0.62059373               -0.20123839                0.14336230
               5.89902143                0.99306228               73.07659838                0.01000001               -0.35449221                0.00054767                0.09664245                0.78945021               -0.28832611                0.18609484
               6.89541347                1.00530348               73.07781070                0.75692788               -0.19766677               -0.03552645                0.11797296                0.49011535               -0.08918669               -0.00706668
               7.89506810                1.00774546               73.08081857                0.99999999               -0.03380955               -0.03513905                0.11440484               -0.00100741               -0.00024777               -0.00340177
               8.89473728                1.01023071               73.08381693                1.00000000               -0.03244744               -0.03514107                0.11058910                0.00061759               -0.00080447               -0.00121243
               9.89441915                1.01275098               73.08681223                0.99999999               -0.03181354               -0.03584604                0.10734291               -0.00021216               -0.00056168               -0.00337183
              -0.08805675                1.98232890               73.06063673                0.16563119               -0.02908753               -0.02303681                0.09854299                0.00328108                0.00316607                0.05835566
               0.91165237                1.97768700               73.06396884                0.01000000               -0.05930809               -0.02269208                0.09416776                0.06330140                0.04866027                0.04331781
               1.91075708                1.97433709               73.06821176                0.01000001               -0.10753857                0.00900471                0.08339938                0.35010383                0.05194566                0.10230330
               2.90950160                1.97413066               73.07177462                0.01000000               -0.17628360               -0.02161867                0.08296055                0.69413376               -0.01781629                0.12430683
               3.90723141                1.97755309               73.07490307                0.01000000               -0.28472360               -0.00667993                0.08512056                0.95784588               -0.07268624                0.15841559
               4.90380713                1.98381295               73.07761478                0.01000001               -0.40835081               -0.00596384                0.09225169                1.15533432               -0.11729106                0.19971276
               5.89906440                1.99242790               73.07978500                0.01000000               -0.54231156               -0.03745833                0.09547257                1.36866076               -0.14086216                0.18891282
               6.89296090                2.00492772               73.08109951                0.01000000               -0.32383785               -0.25455198                0.13308283                0.94850532               -0.08105528                0.08961316
               7.89258764                2.00737475               73.08416595                0.65095018               -0.03579834               -0.03681389                0.12128610               -0.00402272                0.00598961               -0.00280682
               8.89224493                2.00985199               73.08721289                0.99996224               -0.03415060               -0.03988409                0.12023649               -0.00140158                0.00344184                0.00434281
               9.89190463                2.01235021               73.09021811                0.99999999               -0.03403024               -0.04189821                0.12298406                0.00073303                0.00304758                0.00295573
              -0.08337123                2.98215030               73.06350774                0.01000001               -0.03531655                0.14007810                0.09708063                0.36497990                0.00171409                0.15457271
               0.91627561                2.97749990               73.06677522                0.01000000                0.03489353               -0.12070691                0.09453198                0.40487544                0.05870054                0.17011578
               1.91732665                2.97350436               73.07120215                0.01000000                0.01657324               -0.15943623                0.09198013                0.69673098                0.05649062                0.17183473
               2.91660707                2.97358532               73.07482493                0.01000000               -0.14722292               -0.10772579                0.08877834                1.09622658               -0.00173490                0.17254941
               3.91438219                2.97724992               73.07813547                0.01013475               -0.29359429               -0.07790435                0.09213955                1.39635800               -0.02575575                0.18733749
               4.91073519                2.98344757               73.08113649                0.01000000               -0.45511586               -0.05202542                0.09787707                1.64752047               -0.03953066                0.19904273
               5.90527987                2.99231312               73.08379342                0.01000001               -0.56492252               -0.05892290                0.10915805                1.73189893               -0.03962535                0.20222508
               6.89943674                3.00021244               73.08637347                0.01000000               -0.76082441               -0.26554071                0.11850290                1.60701344               -0.10643061                0.20544541
               7.89006338                3.00700918               73.08752581                0.01006801               -0.48514737               -0.11184361                0.10597437                0.94055663               -0.08154267                0.12574718
               8.88973379                3.00943302               73.09070772                0.76274987               -0.03130096               -0.03911873                0.11297480               -0.01201243                0.01079756                0.01875068
               9.88943736                3.01191301               73.09372259                0.99999997               -0.02964281               -0.03876001                0.11610025                0.00482760                0.00527153                0.01585470
              -0.07145636                3.98513047               73.06738553                0.01000000               -0.01478118                0.11475797                0.11798045                0.38332232                0.02016522                0.17620103
               0.92839582                3.97527286               73.07112215                0.01010828                0.00313260               -0.29837436                0.12242056                0.71616855               -0.01923550                0.27937943
               1.92860629                3.97114836               73.07461992                0.01000000               -0.03576304               -0.27596836                0.10823029                1.16949946               -0.03298030                0.22269618
               2.92768056                3.97197614               73.07810832                0.01014942               -0.16549841               -0.19747884                0.10002679                1.48942272               -0.01945695                0.19637947
               3.92529632                3.97599500               73.08149760                0.01000000               -0.29931099               -0.17456851                0.10074785                1.78192758               -0.00559032                0.18677600
               4.92169434                3.98277244               73.08478489                0.01000001               -0.41794077               -0.11922514                0.10446731                2.04474904                0.00480351                0.19434123
               5.91693750                3.99124945               73.08797447                0.01000001               -0.56446212               -0.11627347                0.11247212                2.20421800                0.00062718                0.20257862
               6.91040510                3.99961691               73.09082623                0.01000001               -0.73796569               -0.08456639                0.11787006                2.10705387               -0.01793694                0.19826881
               7.90217819                4.00513788               73.09345081                0.01000001               -1.16521253               -0.10038295                0.12609069                2.06063766               -0.10685615                0.24029031
               8.88710085                4.00906961               73.09443682                0.01000000               -0.75684918               -0.20130355                0.05266415                1.77321281               -0.09316609                0.17157445
               9.88704121                4.01157501               73.09740516                0.01000000               -0.00596434               -1.05152767                0.05369175                1.78905605               -0.00874762                0.16709748
              -0.05598957                4.98444546               73.07014756                0.01000003                0.05706565               -0.44640608                0.12108553                0.76746607               -0.04003998                0.12718997
               0.94458109                4.97153242               73.07465727                0.01000000                0.00014636               -0.43383274                0.14277621                1.22968844               -0.13175503                0.25770760
               1.94401336                4.96798499               73.07790551                0.01000001               -0.15160974               -0.25708700                0.12775213                1.52520410               -0.15226827                0.24884716
               2.94154889                4.96963574               73.08131351                0.01000000               -0.23944568               -0.28667928                0.11607041                1.75499432               -0.05484365                0.17265386
               3.93922444                4.97375855               73.08479517                0.01000001               -0.25865840               -0.28422759                0.10931779                2.04728724                0.00383345                0.16702728
               4.93637572                4.98106307               73.08842337                0.01000001               -0.33523426               -0.23373422                0.11023779                2.36684600                0.03587717                0.17953455
               5.93251976                4.98998765               73.09198780                0.01000001               -0.43431685               -0.17199067                0.11387692                2.54466374                0.04062938                0.19161838
               6.92768939                4.99852112               73.09539623                0.01000000               -0.53481619               -0.13565851                0.11904248                2.60197692                0.02035879                0.21763437
               7.92182343                5.00500152               73.09839335                0.01000000               -0.44642367               -0.14578352                0.12389247                2.48564499                0.01628064                0.21469062
               8.91876091                5.00540695               73.10133614                0.01000000               -0.08078731               -0.47279584                0.12953504                2.14554869               -0.00433058                0.31006809
               9.92020769                4.99088246               73.10423719                0.01000000                0.14467748               -1.32751136                0.12676047                1.41923167               -0.02972665                0.31453694
              -0.03028096                5.97620234               73.07159032                0.01000003               -0.02689782               -0.46756250               -0.00038903                0.83837923               -0.50603183                0.41180080
               0.96945006                5.96659621               73.07596312                0.01000001               -0.43559994               -0.22801259                0.11083962                1.24490083               -0.48925545                0.23774002
               1.96100704                5.96600662               73.08097690                0.01000000               -0.62215894               -0.22913438                0.14893485                1.47895978               -0.16714224                0.08047904
               2.95700688                5.96624256               73.08406481                0.01000001               -0.30961527               -0.39755512                0.12886773                1.70183520               -0.07830638                0.10076832
               3.95481474                5.97031045               73.08779317                0.01000001               -0.21023577               -0.43621803                0.11729138                2.12314550                0.02001983                0.12147685
               4.95280217                5.97809775               73.09176540                0.01000001               -0.22210021               -0.37088791                0.11416870                2.51281189                0.06686031                0.14189297
               5.95037273                5.98780963               73.09580114                0.01000000               -0.26857024               -0.25346080                0.11561475                2.70542748                0.08541252                0.17263359
               6.94743076                5.99690374               73.09966999                0.01000000               -0.26837406               -0.18727804                0.12235167                2.64834726                0.08390102                0.20880226
               7.94500525                6.00222220               73.10335630                0.01000000               -0.16499383               -0.24637792                0.12935655                2.30437985                0.05821760                0.24630480
               8.94413089                5.99961369               73.10672723                0.01000003               -0.02652094               -0.39658042                0.13615237                1.42731906                0.02561987                0.27733886
               9.94447483                5.98502478               73.10994853                0.01000000                0.03439451               -0.29685250                0.14221451                0.69966278                0.00469509                0.28557144
              -0.02000971                6.97509421               73.07366492                0.91407702               -0.03154623               -0.07021092                0.10193925                0.10879571               -0.00251155                0.06503115
               0.97967483                6.96697216               73.07790327                0.01000001               -0.30220420                0.00049604                0.11276488                0.33272694               -0.01771127                0.03735647
               1.97394620                6.96340230               73.08186933                0.01000003               -0.41965283               -0.37782224                0.12658111                1.05781723               -0.03596483               -0.05374385
               2.97128177                6.96168464               73.08601522                0.01000000               -0.20570244               -0.50050757                0.12428470                1.38466300               -0.00193750                0.01925485
               3.96983215                6.96503419               73.09021943                0.01000001               -0.10744965               -0.70027110                0.12350821                2.01412118                0.06018468                0.04899497
               4.96913278                6.97364531               73.09465738                0.01000000               -0.10049175               -0.50135263                0.11915980                2.53902967                0.11635351                0.08344105
               5.96782232                6.98491843               73.09919639                0.01000000               -0.14445086               -0.27726644                0.12064981                2.62824879                0.14307885                0.14114220
               6.96624376                6.99477555               73.10374143                0.01000000               -0.13106222               -0.20095695                0.12486497                2.43082602                0.14898445                0.19326991
               7.96520108                7.00007396               73.10807395                0.01002317               -0.08695213               -0.15419576                0.13064752                1.96583126                0.12667069                0.26451861
               8.96450472                6.99747535               73.11195542                0.01000000               -0.09111541               -0.03664180                0.14260750                1.13029544                0.06739362                0.30860822
               9.96337877                6.98494541               73.11517920                0.01000001               -0.11259488                0.19101225                0.15824809                0.51543964                0.02177457                0.31485472
              -0.01186096                7.97479813               73.07483640                0.99999999               -0.03425335               -0.03098132                0.10682534               -0.00208602               -0.00485331                0.02116186
               0.98779651                7.96660613               73.07892442                1.00000000               -0.03440666               -0.03501513                0.11407711               -0.00161417               -0.00792715                0.00084650
               1.98745091                7.95845018               73.08292978                0.01000001               -0.23641288               -0.26645576                0.11946959                0.56505964                0.00130586               -0.01982537
               2.98306825                7.95623240               73.08725094                0.01000001               -0.21572104               -0.59035747                0.13350808                1.09009993                0.03398672               -0.04168054
               3.98313649                7.95630503               73.09186662                0.01000001                0.03151355               -1.16690091                0.13355904                1.84206753                0.10291986               -0.07896032
               4.98369852                7.96807070               73.09687906                0.01000000               -0.06645122               -0.44249377                0.12789922                2.44379473                0.16189039                0.04231614
               5.98180747                7.98226430               73.10219212                0.01000000               -0.14033857               -0.20448650                0.12561453                2.25987685                0.20894262                0.09567801
               6.98089175                7.99288460               73.10742920                0.01000001               -0.00926897               -0.18245879                0.12716130                1.93701712                0.23880458                0.15499660
               7.98162209                7.99913829               73.11272196                0.01000001                0.04867998               -0.14042609                0.12961516                1.63755524                0.21890744                0.23505996
               8.98186535                7.99888086               73.11720857                0.01000001               -0.08892922                0.16790066                0.14217319                1.19524521                0.13717862                0.44212726
               9.97984350                7.98884503               73.12074592                0.01000002               -0.20218503                0.71747242                0.16680977                0.73883532                0.08251903                0.35629694
              -0.00366744                8.97447458               73.07606932                1.00000000               -0.03420716               -0.03296178                0.11042636                0.00088309                0.00007747                0.02105677
               0.99599049                8.96627186               73.08007003                0.99999999               -0.03557212               -0.03495792                0.11798984                0.00034532                0.00038459                0.00260602
               1.99562112                8.95807319               73.08406679                0.99999998               -0.03807866               -0.03812655                0.12540297               -0.00110015               -0.00572200               -0.00926843
               2.99522892                8.94987749               73.08791360                0.89202036               -0.03929559               -0.33735537                0.12993765                0.19867796               -0.01063184               -0.03808883
               3.99483521                8.94169617               73.09179884                0.01000000               -0.15897632               -0.75005599                0.13234866                1.73949186                0.14330706               -0.08378963
               4.99204939                8.96479544               73.09874408                0.01000002               -0.33146262               -0.14209877                0.13626988                2.06728868                0.28937877                0.00520440
               5.98820596                8.98082870               73.10471737                0.01000000               -0.19696387               -0.10690062                0.13356799                1.37946118                0.27783364                0.04520761
               6.98811011                8.99112638               73.11059592                0.01013414                0.18749828               -0.19574569                0.13361732                1.07041119                0.31424367                0.08424455
               7.99195592                8.99726544               73.11653527                0.01000000                0.52963837               -0.28133445                0.13445613                0.99382377                0.44295493                0.14435168
               8.99870288                9.00083336               73.12428716                1.00000000                0.31356070                0.07476950                0.14014977                1.02571982                0.28881461                0.28595711
               9.99822714                8.99929486               73.12619351                1.00000000               -0.04757459                0.49336279                0.17832150                0.84312744               -0.00238043                0.19880347
               0.00456215                9.97413889               73.07721537                0.99999999               -0.03573324               -0.03356917                0.11564263               -0.00023367                0.01671336                0.01666096
               1.00420481                9.96590697               73.08122460                0.99999999               -0.03694342               -0.03648920                0.12331574               -0.00112993                0.02076908                0.00195417
               2.00382328                9.95768765               73.08530830                0.99999998               -0.03929955               -0.03855395                0.13129759               -0.00086788                0.02355350               -0.00473719
               3.00341882                9.94948530               73.08935065                0.99999996               -0.04074480               -0.03921950                0.13615793               -0.00019646                0.01872757               -0.00103276
               4.00300838                9.94130391               73.09332714                0.02071870               -0.87535263               -0.03922684                0.13866238                1.60448881                0.17152631               -0.00748535
               4.98591177                9.96522873               73.10045625                0.01000000               -0.99713179                0.04332886                0.14366248                1.32735718                0.32923042               -0.02139609
               5.98306575                9.98012629               73.10687880                0.01000001               -0.00242675               -0.07024097                0.14582906                0.67302713                0.31640176                0.01418067
               6.98586324                9.98896969               73.11298846                0.01000000                0.43629178               -0.21566924                0.14967195                0.44457763                0.34705063                0.03559749
               7.99179158                9.99351160               73.11936559                0.01000002                0.72435491               -0.37538409                0.14929835                0.55389413                0.38265502                0.08414421
               9.00035033               10.00037625               73.12570687                1.00000000                0.39957373               -0.04571101                0.16871298                0.42477937                0.22537571                0.00354723
               9.99978306                9.99871228               73.12761388                0.99999991               -0.05672772               -0.05825729                0.20689134               -0.01080447                0.00311983               -0.00349800
              -0.10085028               -0.01896436               74.05771579                1.00000000               -0.02362862               -0.02574755                0.08132948                0.00049419               -0.00768101                0.00702445
               0.89891343               -0.02372571               74.06106362                0.98993195               -0.02287914               -0.02407427                0.07634635               -0.00080869               -0.00860088               -0.00150480
               1.89869214               -0.02846223               74.06439907                0.01000000                0.16471213               -0.02268650                0.07136385                0.29573121               -0.00582684               -0.00356265
               2.90220768               -0.02724041               74.06780682                0.01000000                0.23213371               -0.04946541                0.07875229                0.23734341               -0.02608067                0.01084193
               3.90333481               -0.02404805               74.07102713                0.01000000                0.01277936               -0.00585482                0.08048333                0.23970864               -0.07805860                0.03178734
               4.90246326               -0.01774750               74.07370814                0.01000001               -0.29899366                0.06221824                0.11291966                0.50160100               -0.14506102                0.07596017
               5.89735494               -0.00467859               74.07689318                0.02046617               -0.38021548               -0.08672862                0.09230060                0.57907850               -0.59955869                0.27745453
               6.89485895                0.00220789               74.07554917                1.00000000               -0.14084069               -0.03468721                0.11007141                0.22323439               -0.21571503               -0.00270889
               7.89453812                0.00464186               74.07849785                0.99996171               -0.03135178               -0.03324109                0.10537476               -0.00083176               -0.00309177               -0.00171537
               8.89423192                0.00710763               74.08143342                1.00000000               -0.02986782               -0.03181911                0.10032298               -0.00055505               -0.00355074               -0.00032658
               9.89394077                0.00960082               74.08438643                0.99999999               -0.02911501               -0.03067630                0.09505143               -0.00193099               -0.00267354               -0.00088436
              -0.09608399                0.98077816               74.05966107                0.99999999               -0.02617293               -0.02704119                0.08981111                0.00123512                0.00133990                0.00772149
               0.90365428                0.97603355               74.06301311                0.01000000               -0.02546030               -0.02522501                0.08480471               -0.00040251                0.00423012               -0.00408894
               1.90340680                0.97131091               74.06642216                0.01000000               -0.06401291                0.04941331                0.07984735                0.24613481                0.01515299                0.02550565
               2.90237402                0.97226493               74.06998549                0.01000000               -0.12106808               -0.01249824                0.08113045                0.41735089               -0.02820099                0.04613685
               3.90098544                0.97589341               74.07303490                0.01000645               -0.22897383                0.00893319                0.09470956                0.54156803               -0.10268351                0.07890721
               4.89779454                0.98287468               74.07567005                0.01000000               -0.39087053                0.02901307                0.11238974                0.80644126               -0.22652314                0.15389843
               5.89316803                0.99445413               74.07762748                0.01000001               -0.26817357               -0.21856133                0.20529769                0.88346134               -0.34479972                0.32507490
               6.89243107                1.00186101               74.07900202                0.74290708               -0.05440467               -0.03635613                0.12055964                0.24894973               -0.07933336               -0.00586472
               7.89207994                1.00430945               74.08196227                0.99999999               -0.03420922               -0.03470987                0.11490249               -0.00002919               -0.00073565               -0.00394590
               8.89174689                1.00678944               74.08491833                1.00000000               -0.03258365               -0.03314693                0.10959960                0.00048533               -0.00087499                0.00071658
               9.89142826                1.00929406               74.08787989                1.00000000               -0.03186247               -0.03228050                0.10499291               -0.00086082               -0.00060666                0.00271112
              -0.09133635                1.98049481               74.06162336                0.21038490               -0.02910123               -0.02494187                0.09873660                0.00078956                0.00295923                0.05471818
               0.90837264                1.97576979               74.06490928                0.01000000               -0.06400994               -0.02190903                0.09352576                0.06983313                0.04449451                0.04080247
               1.90738345                1.97252604               74.06902551                0.01000001               -0.12002197                0.03572609                0.07798785                0.35927138                0.05152539                0.09158468
               2.90597220                1.97250962               74.07259833                0.01000000               -0.19135148               -0.00719020                0.08140013                0.71682350               -0.00767903                0.10905531
               3.90355642                1.97613062               74.07579086                0.01000000               -0.29704149               -0.00306643                0.09265521                1.01355860               -0.06203540                0.14627527
               4.90003137                1.98283276               74.07861061                0.01000001               -0.37592939               -0.05020118                0.11371060                1.22730733               -0.11954846                0.21107680
               5.89603783                1.99095019               74.08082614                0.01000000               -0.50243726               -0.20981050                0.11662650                1.38755829               -0.11902901                0.21600634
               6.88998262                2.00148076               74.08241816                0.01000000               -0.32143570               -0.22449068                0.13171885                0.85567298               -0.06802958                0.07610829
               7.88960912                2.00394767               74.08538626                0.61399511               -0.03628024               -0.03676147                0.12239529                0.00136327                0.00359207               -0.00994721
               8.88925702                2.00644469               74.08840949                1.00000000               -0.03474064               -0.03585188                0.11808132                0.00181905                0.00473112                0.00250421
               9.88891431                2.00895521               74.09141487                0.99999994               -0.03427118               -0.03537561                0.11527385               -0.00076404                0.00339096                0.00679059
              -0.08661816                2.98027932               74.06450942                0.01000000               -0.03621292                0.15685548                0.10458672                0.34235607                0.00004774                0.15594494
               0.91301972                2.97559537               74.06774615                0.01000000                0.02352778               -0.07784535                0.09521291                0.38899547                0.05268714                0.17065651
               1.91385240                2.97202543               74.07204548                0.01000000                0.00430991               -0.11868570                0.07270971                0.69019544                0.05925451                0.15865942
               2.91310591                2.97212113               74.07565346                0.01000000               -0.14594642               -0.09015280                0.07732135                1.09053466                0.01066793                0.15963728
               3.91093347                2.97583208               74.07903774                0.01015840               -0.27923958               -0.08152217                0.08972641                1.40420201               -0.01521483                0.17793950
               4.90752112                2.98187066               74.08212980                0.01000000               -0.43311391               -0.08945700                0.10371933                1.64498734               -0.03247361                0.20015690
               5.90227119                2.99025792               74.08488695                0.01000001               -0.54870347               -0.09043323                0.11423748                1.67036744               -0.02998909                0.19975608
               6.89654705                2.99737120               74.08751789                0.01000000               -0.75639582               -0.22348789                0.11512592                1.54233785               -0.09680497                0.18697975
               7.88714328                3.00357422               74.08872088                0.01000000               -0.48856649               -0.09841607                0.11441444                0.92637605               -0.07502575                0.11539197
               8.88677572                3.00607240               74.09187188                0.60155505               -0.03756704               -0.03814489                0.12734800                0.00163428                0.01288886                0.00077711
               9.88639194                3.00858655               74.09488403                0.99999994               -0.03837863               -0.03778371                0.12610863               -0.00111497               -0.00064196                0.00293033
              -0.07512132                3.98363192               74.06856342                0.01000000               -0.04722433                0.17839000                0.14278751                0.34900403                0.00674740                0.20935464
               0.92440644                3.97421288               74.07218651                0.01000001               -0.01085420               -0.16366065                0.07478165                0.63301925               -0.02783608                0.27528448
               1.92466160                3.97015233               74.07549958                0.01000000               -0.02150979               -0.22016419                0.06621578                1.06393792               -0.02869651                0.21545468
               2.92397624                3.97070656               74.07899387                0.01016620               -0.13853350               -0.18911271                0.07719838                1.43370312               -0.00518268                0.18530850
               3.92189093                3.97450017               74.08245717                0.01000000               -0.27354848               -0.17984084                0.09257485                1.75387174                0.00964056                0.18043656
               4.91850527                3.98104362               74.08580709                0.01000001               -0.39731449               -0.12784860                0.10228084                2.01319078                0.01867601                0.19046269
               5.91394464                3.98914152               74.08907863                0.01000001               -0.54961010               -0.11527722                0.10958500                2.15888664                0.01092968                0.19267068
               6.90751307                3.99701101               74.09197028                0.01000001               -0.72545988               -0.06391472                0.11333246                2.05532775               -0.01006804                0.18353588
               7.89943544                4.00197934               74.09463574                0.01000001               -1.16178468               -0.07656347                0.11198008                2.03220002               -0.11257792                0.22439027
               8.88427738                4.00568179               74.09524834                0.01000000               -0.77858661               -0.19017892                0.14395407                1.76245609               -0.10885220                0.19075343
               9.88386371                4.00819954               74.09823157                0.01000000               -0.04136693               -1.04862870                0.14037830                1.78413273               -0.01403899                0.18931401
              -0.06080000                4.98384712               74.07168817                0.01000001               -0.00403055               -0.07995482                0.18240766                0.37434103               -0.06983979                0.03558114
               0.93915970                4.97232215               74.07564009                0.01000000               -0.02812628               -0.24327518                0.08121500                0.72794303               -0.14699984                0.28693247
               1.93863748                4.96762215               74.07893552                0.01000001               -0.08637850               -0.28101683                0.06882621                1.30335394               -0.13230890                0.23232918
               2.93743213                4.96833887               74.08229037                0.01000000               -0.14818142               -0.29212112                0.08233008                1.66514609               -0.03721884                0.16241217
               3.93567385                4.97223526               74.08580914                0.01000001               -0.21442690               -0.28813767                0.09490089                2.01110984                0.01853713                0.16348870
               4.93314359                4.97931369               74.08948666                0.01000001               -0.30961538               -0.23404488                0.10355285                2.33450485                0.04708077                0.17266057
               5.92948154                4.98795237               74.09311153                0.01000001               -0.41639027               -0.16522475                0.11080131                2.50425432                0.05094465                0.18151487
               6.92481578                4.99609291               74.09654890                0.01000000               -0.51825246               -0.11740692                0.11310031                2.55073601                0.03322201                0.19299022
               7.91911649                5.00204295               74.09956708                0.01000000               -0.45055670               -0.11282591                0.11911500                2.43862884                0.01814395                0.20294652
               8.91580465                5.00226882               74.10253315                0.01000002               -0.10386976               -0.43537452                0.11814344                2.11916167               -0.00422231                0.32574530
               9.91703910                4.98761397               74.10546101                0.01000001                0.12344468               -1.29654945                0.12177454                1.40577364               -0.02605724                0.33308071
              -0.04458456                5.98203283               74.07161061                0.01000002               -0.02251642               -0.48700296                0.17835999                0.55578923               -0.33150574                0.34888384
               0.95519028                5.96934738               74.07790747                0.01000001               -0.03517416               -0.32436404                0.13926891                0.93383203               -0.41991410                0.23447455
               1.95471196                5.96453199               74.08192430                0.01000000               -0.12621129               -0.29365864                0.06354717                1.30708377               -0.18280465                0.06945655
               2.95266605                5.96486414               74.08517162                0.01000001               -0.17868237               -0.40978689                0.09412117                1.69224159               -0.06730200                0.09662893
               3.95113831                5.96873742               74.08889201                0.01000001               -0.15938967               -0.43966235                0.10234636                2.09320876                0.02408965                0.11518584
               4.94947826                5.97636272               74.09288056                0.01000001               -0.19439031               -0.36849622                0.10848914                2.48181201                0.07200663                0.13600374
               5.94725051                5.98583703               74.09693909                0.01000002               -0.25205242               -0.24743242                0.11311131                2.67206032                0.08976355                0.16121033
               6.94443721                5.99466287               74.10085970                0.01000000               -0.26092006               -0.16904817                0.11666805                2.61533736                0.08580174                0.18401420
               7.94203210                5.99972283               74.10460433                0.01000000               -0.16738092               -0.20836446                0.12145994                2.27317120                0.06023217                0.23029772
               8.94108959                5.99697430               74.10805685                0.01000001               -0.03716138               -0.35060184                0.13010368                1.41312486                0.02747690                0.26850147
               9.94128888                5.98226855               74.11131911                0.01000000                0.01992844               -0.25204720                0.13513010                0.69292765                0.00425492                0.28369564
              -0.02431332                6.97410706               74.07468570                0.90956511               -0.03495042               -0.41349118                0.10262710                0.59996546               -0.00508836                0.11164287
               0.97533718                6.96583487               74.07904435                0.01000002               -0.32121445               -0.18906614                0.11498463                0.80511431               -0.02063234               -0.01205833
               1.96926239                6.96174897               74.08310199                0.01000003               -0.41328238               -0.37180412                0.11957337                1.14246744               -0.04408342               -0.04528493
               2.96707153                6.96014314               74.08720917                0.01000000               -0.16114741               -0.49590977                0.10942541                1.38967029               -0.00136884                0.00825413
               3.96603944                6.96344201               74.09136359                0.01000001               -0.06956523               -0.70078629                0.11123603                1.99463299                0.05385762                0.04679901
               4.96568022                6.97194376               74.09581790                0.01000000               -0.07084194               -0.49419672                0.11253902                2.50579904                0.10402508                0.08244731
               5.96462260                6.98300372               74.10037604                0.01000000               -0.12217459               -0.27447915                0.11568790                2.60294111                0.13000919                0.12904617
               6.96323673                6.99271194               74.10497457                0.01000000               -0.11770603               -0.18957311                0.12100019                2.41726111                0.13851832                0.17111333
               7.96226848                6.99787566               74.10934738                0.01000001               -0.08576536               -0.13082414                0.12630825                1.96520177                0.11611850                0.24057047
               8.96152142                6.99525678               74.11333929                0.01002613               -0.09796649                0.00447747                0.13486032                1.13447923                0.06234857                0.29710973
               9.96030915                6.98257303               74.11673941                0.01000001               -0.12122709                0.22145126                0.14898791                0.51573512                0.02484106                0.30442193
              -0.01604087                7.97376300               74.07590419                0.99999999               -0.03084779               -0.03186208                0.10712881                0.01027779               -0.00718697                0.02094186
               0.98365066                7.96556606               74.08007273                1.00000000               -0.03530434               -0.03573621                0.11489175               -0.00258150               -0.01307249               -0.00945064
               1.98325305                7.95709591               74.08412527                0.01000000               -0.24421182               -0.24943881                0.11896650                0.58674524               -0.00252842               -0.02520631
               2.97876642                7.95494595               74.08850571                0.01000000               -0.20113510               -0.58608519                0.12212632                1.08971825                0.03437037               -0.04920170
               3.97923034                7.95472169               74.09316144                0.01000001                0.06330549               -1.16612279                0.11993435                1.81602012                0.09352068               -0.08472274
               4.98003253                7.96647879               74.09810307                0.01000000               -0.03445988               -0.44638314                0.12204270                2.41997815                0.14726316                0.04156114
               5.97854115                7.98034744               74.10342311                0.01000000               -0.10610184               -0.20698541                0.12065173                2.23841515                0.19712236                0.08358272
               6.97791049                7.99087141               74.10869122                0.01000001                0.01250762               -0.18495560                0.12536960                1.93686314                0.22474766                0.13297247
               7.97879130                7.99710634               74.11401813                0.01000007                0.05856599               -0.12928701                0.12987090                1.66580219                0.20837104                0.21667472
               8.97908181                7.99706385               74.11862818                0.01000001               -0.09101056                0.20222875                0.14143547                1.23181661                0.13316530                0.42196374
               9.97697109                7.98669757               74.12235663                0.01000002               -0.21107238                0.75678050                0.15666488                0.75349416                0.07782742                0.33921193
              -0.00771387                8.97346982               74.07717372                1.00000000               -0.03334842               -0.03143244                0.11057129                0.00126098                0.00035583                0.01991079
               0.99195264                8.96512015               74.08125499                0.99999999               -0.03343598               -0.04128764                0.11822884               -0.00142719               -0.00007826               -0.00056314
               1.99161741                8.95676020               74.08532451                0.99999999               -0.03562684               -0.03655258                0.12429131                0.00092234               -0.00870201               -0.01043196
               2.99124010                8.94842143               74.08920844                0.80618778               -0.03952021               -0.34746922                0.13614946                0.20852389               -0.01656038               -0.03930133
               3.99082700                8.94011956               74.09307836                0.01000000               -0.13930337               -0.75350663                0.15161901                1.72491538                0.13843582               -0.08775012
               4.98845404                8.96301610               74.10009118                0.01000002               -0.29143558               -0.16120997                0.13072796                2.05303862                0.28093243                0.00411084
               5.98499829                8.97886402               74.10604019                0.01011492               -0.16194717               -0.11320561                0.12915652                1.36683631                0.25875925                0.03915679
               6.98521509                8.98901283               74.11187528                0.01000001                0.21968959               -0.20489212                0.12895567                1.06828343                0.29224346                0.06623160
               7.98939208                8.99528992               74.11789710                0.01000000                0.56757156               -0.28535749                0.13669340                1.03068523                0.42417674                0.13631157
               8.99656653                8.99930136               74.12567339                1.00000000                0.33597528                0.08929046                0.13825843                1.08133910                0.26832031                0.27155471
               9.99611159                8.99770864               74.12797856                1.00000000               -0.04549373                0.52065761                0.17845591                0.87790883               -0.00509765                0.19005621
               0.00068370                9.97313435               74.07837566                0.99999999               -0.03519623               -0.03354695                0.11627148                0.00035255                0.01624109                0.01639458
               1.00033174                9.96474030               74.08245612                1.00000000               -0.03567442               -0.03798450                0.12300147               -0.00056530                0.02094361                0.00043283
               1.99997021                9.95636485               74.08662902                1.00000000               -0.03771002               -0.03953424                0.12982402               -0.00190655                0.02229797               -0.00493999
               2.99957754                9.94799656               74.09070620                0.99999995               -0.04181137               -0.04248691                0.14254562               -0.00192137                0.01305187               -0.00195501
               3.99913398                9.93965156               74.09466911                0.14058537               -0.86143472               -0.04679949                0.15818315                1.59359963                0.17034127               -0.00941164
               4.98234884                9.96325459               74.10191788                0.01000000               -0.96264214                0.02384906                0.14249638                1.31106902                0.32526609               -0.02036504
               5.97988114                9.97808333               74.10833940                0.01000001                0.02507045               -0.07806843                0.14089528                0.66423375                0.29744847                0.01493746
               6.98285025                9.98677356               74.11440150                0.01000000                0.46176678               -0.22392682                0.13980581                0.42930894                0.31423447                0.02323527
               7.98911648                9.99139919               74.12079921                0.01000002                0.77198136               -0.38907306                0.14788680                0.57624429                0.38052107                0.07509170
               8.99828988                9.99884966               74.12739224                1.00000000                0.42991136               -0.04516994                0.16858771                0.45791206                0.21973461                0.00534166
               9.99771470                9.99711073               74.12969741                1.00000000               -0.05751750               -0.05979124                0.20871820               -0.01358163                0.00520296               -0.00520316
              -0.10424872               -0.02088367               75.05853405                1.00000000               -0.02396620               -0.02584322                0.08244252                0.00000489               -0.00714440                0.00649132
               0.89551162               -0.02573439               75.06182973                0.98972018               -0.02318682               -0.02393027                0.07706587               -0.00114785               -0.00803080               -0.00184342
               1.89528755               -0.03056594               75.06511389                0.01184185                0.15126705               -0.02261230                0.07202502                0.29148024                0.00554807               -0.00361620
               2.89853696               -0.02952750               75.06868530                0.01000001                0.21910698               -0.03235807                0.05266205                0.25860371               -0.01611751               -0.01513705
               3.89966969               -0.02584722               75.07183703                0.01000002               -0.01151074                0.00451593                0.09124811                0.27899355               -0.03219504                0.02610886
               4.89830675               -0.01894692               75.07504966                0.01000002               -0.42449309                0.06892794                0.13013129                0.62458526               -0.11548826                0.03216706
               5.89117982               -0.00350256               75.07719161                0.09450902               -0.31919771               -0.08666194                0.04659704                0.64262931               -0.36055898                0.23013414
               6.89192279               -0.00132163               75.07667475                1.00000000                0.02045512               -0.03611777                0.11622296               -0.01223062               -0.17268673               -0.00213794
               7.89158893                0.00111438               75.07956588                0.99999998               -0.03221452               -0.03362524                0.10807796               -0.00018113               -0.00416809               -0.00206172
               8.89127850                0.00357845               75.08243723                1.00000000               -0.02995072               -0.03094825                0.10002121               -0.00022661               -0.00400923               -0.00020790
               9.89098991                0.00606252               75.08532792                1.00000000               -0.02885905               -0.02857680                0.09270996               -0.00219539               -0.00254759                0.00000846
              -0.09939795                0.97885790               75.06056080                0.99999999               -0.02607723               -0.02707058                0.08990003                0.00080703                0.00118094                0.00796113
               0.90034128                0.97402631               75.06385936                0.01000000               -0.02515725               -0.02478002                0.08396971               -0.00107325                0.00415889               -0.00425511
               1.90009890                0.96920794               75.06721592                0.01000000               -0.07888199                0.05556977                0.07809376                0.24668030                0.01876115                0.01929252
               2.89876364                0.97014892               75.07079498                0.01000000               -0.14647848                0.00856492                0.08218910                0.45178577               -0.00498661                0.01870727
               3.89716933                0.97419794               75.07408468                0.01009655               -0.26916825                0.01614803                0.10226286                0.59510892               -0.06361840                0.05714088
               4.89338027                0.98174235               75.07690552                0.01000000               -0.41879332                0.02608283                0.13681740                0.97535021               -0.05303656                0.08754758
               5.88879347                0.99563082               75.08070433                0.01000001               -0.19441275               -0.35044368                0.20063473                0.91356388               -0.18373078                0.13585350
               6.88949202                0.99831720               75.08022190                0.73770558                0.01718038               -0.03721793                0.12347377                0.01323479               -0.17066195               -0.00613837
               7.88913707                1.00077813               75.08311662                0.99999999               -0.03449252               -0.03485916                0.11583290                0.00155029               -0.00188223               -0.00529763
               8.88880217                1.00326897               75.08600892                1.00000000               -0.03265920               -0.03149665                0.10852833                0.00155323               -0.00130765               -0.00001745
               9.88848389                1.00577675               75.08891209                1.00000000               -0.03182749               -0.02903195                0.10153852               -0.00063410               -0.00046399                0.00281958
              -0.09456940                1.97857492               75.06261146                0.26954832               -0.02904834               -0.02643781                0.09890706               -0.00278012                0.00270782                0.05661470
               0.90514011                1.97377001               75.06583936                0.01000000               -0.06660290               -0.01952534                0.09175080                0.07112763                0.03809630                0.03704412
               1.90409854                1.97054545               75.06977152                0.01000001               -0.12787224                0.04977682                0.07117437                0.36896575                0.05598644                0.06266872
               2.90258267                1.97064380               75.07340263                0.01000000               -0.20600555                0.01168051                0.08019419                0.74974105                0.01986452                0.07504686
               3.89997843                1.97447574               75.07675618                0.01000000               -0.31008982               -0.00277723                0.09634999                1.06815746               -0.01596358                0.10945644
               4.89638087                1.98157473               75.07988899                0.01000001               -0.35510849               -0.07440635                0.12511159                1.29345323               -0.07077557                0.14775346
               5.89287626                1.98948857               75.08211753                0.01000000               -0.46703462               -0.37875367                0.14974751                1.34289044               -0.11950135                0.07596094
               6.88704018                1.99793402               75.08373389                0.01000002               -0.31040514               -0.19586394                0.12849686                0.75516593               -0.06634105                0.06371781
               7.88666816                2.00041720               75.08661386                0.54951352               -0.03646197               -0.03552911                0.12215370                0.00431564                0.00158750               -0.02264839
               8.88631094                2.00294852               75.08957451                1.00000000               -0.03532451               -0.03296278                0.11735580                0.00454674                0.00448982                0.00630864
               9.88596167                2.00548188               75.09252359                0.99999999               -0.03492753               -0.03109151                0.11078728               -0.00084756                0.00369475                0.01143822
              -0.08984374                2.97832914               75.06559947                0.01000000               -0.03629677                0.17819482                0.11473697                0.33075641               -0.00452836                0.18816487
               0.90979329                2.97363580               75.06867948                0.01000000                0.02240860               -0.04426949                0.08427125                0.38185812                0.04171304                0.13472996
               1.91060443                2.97020347               75.07265634                0.01000000                0.00174387               -0.09890177                0.05595008                0.69365956                0.08797267                0.09697116
               2.90982817                2.97038253               75.07637136                0.01000000               -0.15014398               -0.07991998                0.07177159                1.09877867                0.05658334                0.11992468
               3.90760155                2.97414240               75.07993000                0.01000000               -0.27958268               -0.08217063                0.08992328                1.42845880                0.02167948                0.14519453
               4.90423651                2.98025423               75.08321088                0.01000000               -0.41547789               -0.11749505                0.10914185                1.64894388               -0.01568244                0.17011842
               5.89929199                2.98805575               75.08607817                0.01000001               -0.52849048               -0.13051467                0.11998864                1.61311671               -0.02363102                0.16587710
               6.89366670                2.99439992               75.08867598                0.01000000               -0.75415552               -0.18386976                0.11365871                1.48091252               -0.10749529                0.16482092
               7.88420888                3.00006755               75.08981409                0.01001009               -0.49191443               -0.08188571                0.10654395                0.90951100               -0.06368798                0.09861781
               8.88382842                3.00260972               75.09325468                0.73684858               -0.04043322               -0.03625576                0.13653197                0.00522054                0.02900342                0.03152617
               9.88340022                3.00515492               75.09624476                0.99999994               -0.04281981               -0.03487857                0.12999160               -0.00386460                0.00625715                0.03044527
              -0.07856760                3.98213881               75.07024128                0.01000002               -0.05294593                0.18903757                0.19761101                0.30225747               -0.08277955                0.24119324
               0.92090294                3.97288462               75.07261778                0.01008825               -0.01037002               -0.10428474                0.00102706                0.55145273               -0.03301197                0.09540625
               1.92122500                3.96856742               75.07594423                0.01000000               -0.01418132               -0.19983118                0.04706036                1.01366207                0.06998307                0.13169868
               2.92061932                3.96904540               75.07965229                0.01000000               -0.12745475               -0.18381469                0.06401383                1.41838154                0.06765302                0.14432843
               3.91867591                3.97283233               75.08334910                0.01000000               -0.25864575               -0.17744560                0.08795970                1.74883884                0.05346501                0.16005274
               4.91544640                3.97922483               75.08683050                0.01000001               -0.38415020               -0.14057078                0.10496042                1.99121878                0.04203886                0.17182672
               5.91099290                3.98687827               75.09016617                0.01000001               -0.53998846               -0.11491288                0.11160953                2.11081025                0.01917124                0.16918410
               6.90464663                3.99425662               75.09309288                0.01000001               -0.71721627               -0.04542091                0.11186979                2.00663928               -0.01271512                0.16567263
               7.89664858                3.99877948               75.09569041                0.01000001               -1.16593287               -0.04878414                0.11460075                1.99799823               -0.08061952                0.22730656
               8.88132798                4.00222341               75.09731590                0.01000000               -0.79273088               -0.17481841                0.17153829                1.74794724               -0.06989961                0.16589786
               9.88079396                4.00478431               75.10021273                0.01001242               -0.05340150               -1.03491971                0.16120049                1.77762096               -0.00429919                0.16839703
              -0.06529021                4.98210989               75.07379571                0.01000000               -0.03160538               -0.09781644                0.31763038                0.39716183                0.01335361                0.22786170
               0.93439374                4.97155011               75.07628157                0.01000000                0.00035502               -0.25015924                0.04334079                0.69660530                0.02349952                0.03460582
               1.93471689                4.96620685               75.07928204                0.01000001               -0.02314260               -0.26690728                0.03688393                1.20089655                0.02872353                0.13615811
               2.93393089                4.96670624               75.08296011                0.01000000               -0.11589982               -0.28945313                0.06373565                1.62302276                0.06387322                0.13675757
               3.93239890                4.97059349               75.08669318                0.01000001               -0.19579687               -0.28863097                0.08985727                1.98241282                0.06488383                0.15195356
               4.93001495                4.97744281               75.09049442                0.01000000               -0.29612440               -0.23691229                0.10269779                2.29564137                0.06796509                0.15838680
               5.92647641                4.98575749               75.09420383                0.01000001               -0.40583340               -0.15544699                0.10967682                2.46223213                0.05774898                0.16524461
               6.92189828                4.99349150               75.09765824                0.01000002               -0.51371734               -0.10491342                0.11386230                2.50846492                0.03251641                0.17714649
               7.91620206                4.99909186               75.10077565                0.01000000               -0.45578737               -0.08658112                0.12134643                2.39930103                0.00773579                0.20447752
               8.91278253                4.99911335               75.10369901                0.01000002               -0.11856168               -0.40229119                0.12490026                2.10011655               -0.00949429                0.28233533
               9.91383083                4.98445653               75.10667268                0.01000001                0.10482943               -1.26820060                0.12853929                1.39639022               -0.02440373                0.30565906
              -0.04950479                5.98018248               75.07515752                0.01000002                0.02428828               -0.45382013                0.32411440                0.59296702                0.06579105               -0.10797770
               0.95073809                5.96788144               75.07874850                0.01000001               -0.02042023               -0.34921818                0.11851552                0.97494698                0.02865827                0.02396351
               1.95008680                5.96322927               75.08224784                0.01000001               -0.10224783               -0.29556101                0.04227244                1.27788623               -0.01510274                0.08910221
               2.94869314                5.96325634               75.08594724                0.01000001               -0.12496078               -0.40953035                0.07597287                1.64461721                0.01745423                0.09860344
               3.94758759                5.96705971               75.08984010                0.01000001               -0.12489541               -0.44463694                0.09520748                2.05659622                0.05597638                0.11311605
               4.94619523                5.97448658               75.09393518                0.01000001               -0.16993648               -0.36855322                0.10495951                2.44477531                0.08565730                0.12425000
               5.94418886                5.98376933               75.09806336                0.01008893               -0.23568342               -0.23710809                0.11136416                2.62305958                0.09590540                0.14870971
               6.94148156                5.99215835               75.10200335                0.01000000               -0.25880543               -0.15625975                0.11624709                2.57115163                0.08841846                0.16359546
               7.93901275                5.99704786               75.10578550                0.01000000               -0.17579586               -0.18101483                0.11965262                2.24879467                0.05988590                0.21696374
               8.93796564                5.99417758               75.10932930                0.01001573               -0.04886735               -0.31335691                0.12568348                1.39747808                0.02700575                0.26203254
               9.93803540                5.97942030               75.11265113                0.01000000                0.00697622               -0.22300996                0.13168747                0.68649850                0.00509726                0.28568853
              -0.02882877                6.97303349               75.07571746                0.92540747               -0.03253413               -0.37267687                0.10317274                0.61137663               -0.00824251               -0.01771924
               0.97084589                6.96456574               75.08020297                0.01000000               -0.31357565               -0.18374802                0.11513278                0.79190125               -0.02841621               -0.00746162
               1.96489972                6.96029563               75.08426080                0.01000000               -0.39265481               -0.37528705                0.11394428                1.14152198               -0.01640813                0.00083553
               2.96299279                6.95851563               75.08820373                0.01000000               -0.12995716               -0.50036213                0.09938117                1.37157417                0.01645717                0.02422996
               3.96230057                6.96170075               75.09244415                0.01000001               -0.03959787               -0.70819552                0.10687732                1.96890380                0.06731957                0.04342627
               4.96220083                6.97007175               75.09690817                0.01003540               -0.05173699               -0.49289671                0.11049191                2.47507317                0.10500260                0.07321721
               5.96126583                6.98101533               75.10151015                0.01000000               -0.10790238               -0.27487633                0.11465532                2.56337294                0.12264252                0.11918004
               6.96004279                6.99036630               75.10616144                0.01000000               -0.10535542               -0.17575043                0.11622805                2.38831827                0.12957005                0.15128790
               7.95915872                6.99547157               75.11060012                0.01000009               -0.08415648               -0.10629006                0.12227292                1.96598520                0.10879435                0.22824301
               8.95835966                6.99284621               75.11465262                0.01000001               -0.10416800                0.04042292                0.12936621                1.13746422                0.05699933                0.28279440
               9.95707536                6.97999633               75.11815896                0.01000003               -0.12842922                0.24849062                0.14084294                0.51039934                0.02045191                0.29791450
              -0.02034177                7.97272895               75.07697897                0.99999999               -0.03442561               -0.03160819                0.10767679               -0.00195147               -0.00985605                0.02054740
               0.97931398                7.96420648               75.08122225                1.00000000               -0.03454373               -0.03442676                0.11392060               -0.00065829               -0.01836760               -0.02157676
               1.97896736                7.95572353               75.08530911                0.01000000               -0.22972385               -0.24674139                0.11572091                0.58182646               -0.00774791               -0.02759330
               2.97471950                7.95324909               75.08969346                0.01009988               -0.17789057               -0.58123283                0.11923953                1.06616689                0.04207278               -0.04819611
               3.97540955                7.95289580               75.09426531                0.01000001                0.08313055               -1.16336248                0.11764037                1.79000887                0.09836641               -0.06532015
               4.97638211                7.96462865               75.09931991                0.01000000               -0.01238925               -0.45044528                0.12009080                2.39406929                0.15039215                0.02900684
               5.97516176                7.97827181               75.10460516                0.01000000               -0.07952125               -0.21598900                0.11880409                2.21729482                0.18959365                0.07293189
               6.97479169                7.98864334               75.10993660                0.01000000                0.03453940               -0.18127841                0.12114006                1.93527687                0.21744340                0.11795995
               7.97585255                7.99492206               75.11531938                0.01000002                0.06992387               -0.11304873                0.12792370                1.69126614                0.20623874                0.20774543
               8.97619016                7.99498604               75.12003728                0.01002706               -0.09546995                0.23270892                0.14156608                1.25481114                0.13206674                0.40090996
               9.97394315                7.98439011               75.12387921                0.01000002               -0.22470124                0.78794339                0.15732869                0.76238063                0.07630316                0.34965415
              -0.01182286                8.97240132               75.07828075                1.00000000               -0.03390067               -0.03330249                0.11115388                0.00097975                0.00063975                0.01870363
               0.98783814                8.96387721               75.08243461                0.99999999               -0.03417580               -0.03465522                0.11679736                0.00079154               -0.00173006               -0.00416843
               1.98749363                8.95536080               75.08655262                0.99943240               -0.03471378               -0.03718515                0.12196722                0.00327794               -0.00644900               -0.01284580
               2.98714386                8.94689097               75.09063659                0.90205503               -0.03862161               -0.33992086                0.13551759                0.19964848               -0.00218440               -0.03272512
               3.98672119                8.93843350               75.09483122                0.01000000               -0.12188224               -0.74808112                0.15364750                1.69829274                0.12330186               -0.06401053
               4.98470621                8.96106284               75.10135864                0.01000002               -0.25620786               -0.17303179                0.12734181                2.03133699                0.24861767               -0.00213757
               5.98159704                8.97669555               75.10730050                0.01000000               -0.13040718               -0.12225966                0.12567269                1.35236167                0.24530064                0.02869376
               6.98209807                8.98674074               75.11317504                0.01000000                0.25221567               -0.21306909                0.12901558                1.07057356                0.27912453                0.05921787
               7.98664135                8.99321059               75.11926913                0.01000001                0.59448781               -0.28564263                0.13711659                1.06591791                0.40317228                0.13126737
               8.99398783                8.99750039               75.12705233                1.00000000                0.34367429                0.10296639                0.13869195                1.11006357                0.24663606                0.25689863
               9.99351484                8.99575520               75.12976263                1.00000000               -0.04729917                0.53902034                0.17812263                0.89216247               -0.00781360                0.18525049
              -0.00327394                9.97206290               75.07954080                1.00000000               -0.03557303               -0.03384281                0.11736748               -0.00006070                0.01557441                0.01604941
               0.99637033                9.96351337               75.08368463                1.00000000               -0.03534545               -0.03638372                0.12288389               -0.00093380                0.01850510               -0.00076865
               1.99601915                9.95497983               75.08790478                1.00000000               -0.03652795               -0.03809712                0.12732889               -0.00058208                0.02462724               -0.00588122
               2.99563977                9.94645068               75.09220156                0.99999999               -0.04078102               -0.04402954                0.14174950               -0.00269132                0.02805040                0.00183731
               3.99520353                9.93793418               75.09649081                0.17524943               -0.84464855               -0.04993186                0.15869104                1.58410065                0.15825295               -0.00209406
               4.97874680                9.96116801               75.10330618                0.01000001               -0.93362154                0.01051726                0.13829838                1.29868025                0.30085031               -0.01935525
               5.97653110                9.97582661               75.10969671                0.01000000                0.04706560               -0.08689342                0.13655872                0.65410375                0.28749130                0.00419137
               6.97968811                9.98438196               75.11578457                0.01000000                0.49400775               -0.23587747                0.14180612                0.42813375                0.31628905                0.01974432
               7.98641126                9.98920921               75.12232332                0.01000002                0.80793581               -0.40013854                0.15105110                0.61016091                0.37151581                0.07797840
               8.99584683                9.99704537               75.12907862                1.00000000                0.44327627               -0.04550197                0.16891265                0.48396569                0.20930383                0.00713735
               9.99527678                9.99517052               75.13178824                1.00000000               -0.05700479               -0.05846795                0.20834994               -0.01129053                0.00728746               -0.00690699
              -0.10758454               -0.02288803               76.05936464                1.00000000               -0.02424840               -0.02519972                0.08403171               -0.00067702               -0.00537930                0.00483321
               0.89217298               -0.02782184               76.06260494                0.99443936               -0.02339671               -0.02393420                0.07834616               -0.00159356               -0.00569504               -0.00250678
               1.89194753               -0.03273862               76.06583957                0.01000000                0.14946015               -0.02222579                0.07381135                0.29285404               -0.01638056               -0.00290358
               2.89516218               -0.03176251               76.06886006                0.01000994                0.21895110               -0.03157340                0.07040216                0.26020656               -0.01199043               -0.01897653
               3.89632655               -0.02802117               76.07285210                0.01000584               -0.01816320                0.01382490                0.08699412                0.27492956               -0.00506792                0.01494511
               4.89479892               -0.02081588               76.07631077                0.01000002               -0.39039372                0.06021895                0.14305123                0.57751558               -0.09013809                0.04118099
               5.88851868               -0.00710135               76.07782512                0.23675567               -0.28839818               -0.06533690                0.06114182                0.56017182               -0.17293964                0.00616838
               6.88903095               -0.00492917               76.07787363                1.00000000                0.00868002               -0.03917209                0.12507553               -0.01251625               -0.14428643               -0.00345442
               7.88869228               -0.00250086               76.08065941                0.99999999               -0.03206292               -0.03436228                0.10982087                0.00076276               -0.00761121               -0.00307081
               8.88838970               -0.00003990               76.08343384                0.99999999               -0.02919140               -0.03082880                0.09918971                0.00023256               -0.00538402               -0.00060667
               9.88810845                0.00243265               76.08624063                1.00000000               -0.02812472               -0.02778727                0.09029493               -0.00232490               -0.00311211               -0.00099456
              -0.10265750                0.97685997               76.06145907                1.00000000               -0.02601617               -0.02617665                0.08914189                0.00021293               -0.00019819                0.00858585
               0.89708233                0.97193882               76.06469251                0.01000000               -0.02480445               -0.02438025                0.08212512               -0.00096569                0.00265739               -0.00499646
               1.89684641                0.96703913               76.06798403                0.01000000               -0.08384042                0.05388045                0.07395665                0.24876579                0.02363867                0.01385373
               2.89540553                0.96792175               76.07162928                0.01000000               -0.16219382                0.00983447                0.08639736                0.46502997               -0.00189886               -0.00744768
               3.89360253                0.97211708               76.07508015                0.01000001               -0.26456819                0.02478006                0.07371559                0.61443962                0.00496927                0.03492320
               4.89011416                0.97978631               76.07840640                0.01000000               -0.37127444                0.01491780                0.14138537                0.92918981                0.01319359                0.03254353
               5.88617704                0.99224528               76.08164018                0.01000001               -0.17543076               -0.29015403                0.09128143                0.80885125               -0.10289441               -0.05593434
               6.88660555                0.99467911               76.08147150                0.72924140                0.00391140               -0.03848971                0.12783171                0.00193757               -0.15293425               -0.01158565
               7.88625527                0.99715552               76.08427893                0.99999999               -0.03401389               -0.03509589                0.11608614                0.00403352               -0.00311885               -0.00704944
               8.88592527                0.99965181               76.08708890                1.00000000               -0.03213114               -0.03174973                0.10784819                0.00233202               -0.00134172               -0.00010803
               9.88561265                1.00215478               76.08991066                0.99999999               -0.03126220               -0.02906715                0.09913058               -0.00062349               -0.00011374                0.00178848
              -0.09773798                1.97658843               76.06360150                0.35279892               -0.02875098               -0.02235798                0.09820493               -0.00034909                0.00224462                0.06745360
               0.90197451                1.97169056               76.06674429                0.01000000               -0.06610527               -0.02136386                0.08849034                0.07326667                0.03121608                0.02383364
               1.90093991                1.96833899               76.07044900                0.01000001               -0.12948383                0.03765068                0.06479109                0.39085913                0.06613103                0.02649702
               2.89938483                1.96843418               76.07420221                0.01000000               -0.20945621                0.01741002                0.07611917                0.78469161                0.05082179                0.03806287
               3.89675079                1.97247443               76.07771786                0.01000000               -0.30651612                0.00129827                0.09132095                1.09866564                0.01176811                0.08328465
               4.89325451                1.97948248               76.08111284                0.01000001               -0.34739408               -0.07273997                0.10849201                1.27831428               -0.01096457                0.08161094
               5.88980291                1.98709557               76.08382109                0.01000001               -0.45475194               -0.33592364                0.15107280                1.24874902               -0.10935842                0.00541932
               6.88415947                1.99430103               76.08498810                0.01007427               -0.30013305               -0.16852386                0.11522079                0.68786628               -0.08267089                0.04928766
               7.88380024                1.99679723               76.08782934                0.45365685               -0.03611943               -0.03427478                0.12056170                0.00298106                0.00717096               -0.03654697
               8.88343708                1.99932510               76.09075660                0.99999998               -0.03551011               -0.03451366                0.11863048                0.00269687                0.00795492                0.00890380
               9.88309004                2.00185131               76.09363062                0.99999999               -0.03470382               -0.03242300                0.10944686               -0.00116581                0.00574180                0.01021227
              -0.09286874                2.97641281               76.06680416                0.02963867               -0.03341571                0.18355559                0.11898646                0.32027675               -0.00737354                0.25890733
               0.90679711                2.97151154               76.06943158                0.01000000                0.03943529               -0.15858201                0.06693688                0.37240343                0.05121142                0.04859858
               1.90791997                2.96779214               76.07316448                0.01000000                0.00834074               -0.10891967                0.06008085                0.74226243                0.13469410                0.03863228
               2.90696392                2.96826995               76.07708889                0.01000000               -0.16962127               -0.07148974                0.07617219                1.14452543                0.10762180                0.08400255
               3.90452754                2.97214304               76.08083621                0.01000027               -0.29523083               -0.07681931                0.09454336                1.45463931                0.06497416                0.12008991
               4.90105930                2.97833151               76.08431264                0.01000000               -0.40970391               -0.11429331                0.11397361                1.63291199                0.02062939                0.12510775
               5.89633347                2.98552681               76.08728672                0.01000001               -0.51990429               -0.13480139                0.12328575                1.56199508               -0.01705210                0.10620951
               6.89066122                2.99130863               76.08979107                0.01000000               -0.75213220               -0.14794118                0.11372028                1.42591375               -0.11955442                0.14182883
               7.88129082                2.99647002               76.09085176                0.01000000               -0.48680468               -0.06166543                0.08738608                0.87263461               -0.05330493                0.09395211
               8.88092513                2.99896153               76.09460252                0.77907497               -0.03769504               -0.03848396                0.13546548               -0.00218592                0.04849254                0.02806467
               9.88053692                3.00150632               76.09748386                0.99999999               -0.03882044               -0.03558738                0.12119926               -0.00082052                0.00783486                0.02203174
              -0.08152992                3.98025954               76.07251564                0.02400223               -0.04268381                0.35376507                0.11544053                0.19414238               -0.23494143                0.35016571
               0.91804324                3.96851892               76.07220705                0.01000001                0.02783335               -0.23139964                0.03448363                0.66236557                0.05520178               -0.09110324
               1.91902675                3.96616060               76.07644079                0.01000000               -0.00594040               -0.18752204                0.06717958                1.15494503                0.23202646                0.05317945
               2.91792444                3.96700438               76.08027414                0.01000574               -0.16223660               -0.17454364                0.07781554                1.45559846                0.14009594                0.11202965
               3.91578202                3.97093804               76.08421637                0.01000000               -0.26977282               -0.16798538                0.09504212                1.75509481                0.09857277                0.13747828
               4.91252898                3.97719661               76.08790630                0.01000001               -0.38581641               -0.14773836                0.11247127                1.96972223                0.06472884                0.14070678
               5.90806569                3.98439954               76.09131082                0.01000000               -0.53972248               -0.10833686                0.11831176                2.06424211                0.02395917                0.14018767
               6.90173453                3.99134221               76.09420768                0.01000001               -0.72328294               -0.02916315                0.11554120                1.96987191               -0.01081634                0.15102851
               7.89360003                3.99556392               76.09692775                0.01000000               -1.16887297               -0.02163032                0.12220178                1.95764137               -0.07664288                0.23111351
               8.87835707                3.99855542               76.09867910                0.01000000               -0.78079807               -0.15297059                0.13907221                1.71841264               -0.05764132                0.15281688
               9.87798407                4.00113956               76.10145558                0.01000000               -0.03730017               -1.01087810                0.12409974                1.76175136                0.00089848                0.15876055
              -0.06550463                4.98348811               76.07804077                0.01000006               -0.03520027               -0.11540108                0.04663242               -0.10649462                0.03518644               -0.14952718
               0.93414336                4.96688355               76.07650690                0.01000000               -0.09809801               -0.13068330                0.22299747                0.55917353                0.31554339               -0.13545877
               1.93253341                4.96404170               76.07967319                0.01000001               -0.14224577               -0.24126651                0.06188598                1.30399757                0.22136221                0.08444649
               2.93129845                4.96477908               76.08356508                0.01000000               -0.15480960               -0.27058959                0.08211946                1.61200411                0.14424087                0.12631772
               3.92943721                4.96878334               76.08760629                0.01000001               -0.21530992               -0.28446367                0.09806772                1.95427676                0.10745024                0.13523432
               4.92699225                4.97537674               76.09154062                0.01000000               -0.29822517               -0.23813137                0.10926293                2.25079482                0.08387631                0.13396236
               5.92347271                4.98336007               76.09530507                0.01000001               -0.40489820               -0.14473230                0.11376725                2.41916899                0.06365531                0.13944517
               6.91889428                4.99072537               76.09882615                0.01000000               -0.51211368               -0.09553172                0.11930144                2.47131294                0.03337196                0.16286532
               7.91323044                4.99603742               76.10199401                0.01000000               -0.45882739               -0.06631387                0.12365247                2.37402979                0.00981842                0.19203131
               8.90971774                4.99590212               76.10503116                0.01000002               -0.13133799               -0.36470433                0.12930146                2.08291711               -0.00439707                0.26319437
               9.91060368                4.98128875               76.10803180                0.01001634                0.08859391               -1.23217597                0.13066373                1.37681832               -0.01904881                0.30141348
              -0.05045069                5.97795152               76.07809290                0.01000000               -0.08761829               -0.57784400                0.09183012                0.39814561                0.26072641               -0.48049940
               0.94867313                5.96590525               76.08027778                0.01000001               -0.11690692               -0.18358310                0.18789691                0.77329482                0.26410300               -0.09357791
               1.94721117                5.96133527               76.08276975                0.01000001               -0.16251218               -0.26686445                0.08060322                1.20436989                0.08649390                0.12196172
               2.94542288                5.96159259               76.08669107                0.01000001               -0.14706396               -0.39487869                0.08861906                1.59161859                0.09209810                0.10943261
               3.94426989                5.96524877               76.09079616                0.01000000               -0.12273720               -0.44490060                0.10081334                2.00427894                0.08910592                0.10613210
               4.94296814                5.97243398               76.09497975                0.01000001               -0.15847219               -0.36766829                0.10765488                2.39890801                0.09508224                0.10905730
               5.94110045                5.98150490               76.09916637                0.01008341               -0.22423469               -0.22572722                0.11114267                2.56735313                0.09163781                0.12293102
               6.93848344                5.98943157               76.10318465                0.01000000               -0.25982893               -0.14604546                0.11878866                2.52883110                0.07782931                0.15045061
               7.93590387                5.99423764               76.10699738                0.01000000               -0.18596837               -0.15653861                0.12162595                2.22762549                0.05391112                0.19919069
               8.93476408                5.99126134               76.11057052                0.01000001               -0.05783478               -0.28487111                0.12427109                1.38216131                0.02451810                0.24409683
               9.93474717                5.97649604               76.11395286                0.01000000               -0.00169039               -0.19927591                0.12918926                0.67856228                0.00563625                0.27881528
              -0.03344918                6.97193123               76.07674916                0.96108556               -0.03253081               -0.31704294                0.10175373                0.41437299               -0.00835675               -0.11260744
               0.96622551                6.96321189               76.08134700                0.01000528               -0.28086784               -0.15011860                0.11027902                0.65266079               -0.03577504               -0.03719749
               1.96093346                6.95870441               76.08538088                0.01000001               -0.35040968               -0.35415229                0.10954391                1.05426640                0.00262332                0.02996966
               2.95921732                6.95688151               76.08919679                0.01000000               -0.11260318               -0.50217102                0.10368650                1.32048549                0.03733044                0.04634667
               3.95868140                6.95988532               76.09350114                0.01000001               -0.02515188               -0.71102747                0.10830446                1.92216003                0.08229335                0.05039857
               4.95871428                6.96802338               76.09802774                0.01000001               -0.04296096               -0.49127645                0.11293467                2.43462959                0.10912930                0.06417835
               5.95782218                6.97884553               76.10266914                0.01000000               -0.09880578               -0.27445841                0.11599061                2.51984842                0.12575618                0.09345966
               6.95673817                6.98780446               76.10729913                0.01000002               -0.09344981               -0.16072840                0.11395725                2.35614067                0.12781191                0.13682115
               7.95595318                6.99290665               76.11179283                0.01000001               -0.08178009               -0.08227033                0.11880025                1.96558852                0.10504693                0.20897768
               8.95510256                6.99020470               76.11592662                0.01002320               -0.11238347                0.07105041                0.12800520                1.13979121                0.05658114                0.26911966
               9.95370552                6.97730324               76.11955627                0.01000003               -0.13970485                0.27954777                0.13892206                0.51315876                0.02242441                0.30147432
              -0.02472455                7.97161066               76.07805773                0.99999999               -0.03222899               -0.03245813                0.10597382                0.00124046               -0.01068625                0.01945426
               0.97495316                7.96290288               76.08235114                1.00000000               -0.03242860               -0.03187416                0.11021562                0.00311093               -0.01841998               -0.02255032
               1.97462688                7.95425222               76.08643969                0.01000000               -0.21507412               -0.23983965                0.11020098                0.54996386               -0.00776309               -0.03058341
               2.97065168                7.95154917               76.09089050                0.01000006               -0.15278288               -0.58113370                0.11694945                1.02382439                0.04782113               -0.03206925
               3.97157122                7.95102822               76.09551424                0.01000000                0.10244226               -1.16357358                0.12141724                1.74744349                0.09365382               -0.04647372
               4.97270052                7.96260845               76.10050488                0.01000000                0.00725576               -0.45181480                0.11773484                2.36151718                0.14551135                0.01893191
               5.97171634                7.97601573               76.10579919                0.01000000               -0.05776916               -0.22495945                0.11906154                2.19371379                0.18017393                0.05824182
               6.97154514                7.98621701               76.11111402                0.01000001                0.05495287               -0.17276211                0.11706403                1.93336434                0.20386278                0.10502999
               7.97281539                7.99259223               76.11657661                0.01014294                0.08090852               -0.09976597                0.12232673                1.70451937                0.19591660                0.19152541
               8.97316331                7.99268234               76.12145950                0.01006549               -0.10010583                0.25966422                0.13472575                1.26989763                0.12277800                0.37546389
               9.97081328                7.98208699               76.12550320                0.01000002               -0.23500335                0.81006920                0.15473556                0.78192552                0.07210859                0.34774943
              -0.01600880                8.97128207               76.07939680                0.99999999               -0.03450279               -0.03377128                0.11217793                0.00083781               -0.00053119                0.01821212
               0.98364617                8.96257441               76.08359094                0.99999999               -0.03523744               -0.03389929                0.11530390                0.00051250               -0.00189233               -0.00500441
               1.98328645                8.95390762               76.08776386                0.99953558               -0.03641807               -0.03546573                0.11969098                0.00016879               -0.00462207               -0.01171644
               2.98291781                8.94525883               76.09191880                0.99999995               -0.03577318               -0.33229029                0.12033310                0.18035369               -0.00174211               -0.03131690
               3.98257099                8.93661385               76.09615131                0.01000000               -0.09803470               -0.73688504                0.11694753                1.66757231                0.11911529               -0.06194273
               4.98095712                8.95898708               76.10263801                0.01000002               -0.22415412               -0.18180263                0.12650938                2.00959547                0.23902534               -0.00414954
               5.97808790                8.97434634               76.10855364                0.01000009               -0.10640831               -0.13204947                0.12486906                1.33991856                0.23392061                0.02184786
               6.97882895                8.98434921               76.11445559                0.01003634                0.27451653               -0.21338127                0.12756400                1.07846322                0.26682135                0.05486764
               7.98357823                8.99091133               76.12063943                0.01000001                0.60884029               -0.28709234                0.13153016                1.07430591                0.37644599                0.11539712
               8.99100576                8.99539798               76.12844723                1.00000000                0.34782450                0.11287387                0.14010933                1.12205088                0.22824425                0.24059330
               9.99053472                8.99350462               76.13154101                1.00000000               -0.04710305                0.54171799                0.17752695                0.89206032               -0.00744253                0.17824668
              -0.00729247                9.97093524               76.08072301                1.00000000               -0.03696701               -0.03468291                0.11997247                0.00059883                0.01530603                0.01608008
               0.99233786                9.96222489               76.08491380                1.00000000               -0.03808523               -0.03495117                0.12343329               -0.00044738                0.01765557               -0.00009485
               1.99194583                9.95354291               76.08917560                0.99999998               -0.03926716               -0.03647081                0.12702061               -0.00013874                0.02387768               -0.00583235
               2.99155252                9.94490336               76.09354119                0.99999999               -0.03757035               -0.03554690                0.12554811                0.00085142                0.02498505                0.00318744
               3.99119442                9.93629052               76.09784293                0.04566806               -0.81962866               -0.03233318                0.12015211                1.56579522                0.15260326               -0.00057507
               4.97515995                9.95897240               76.10468385                0.01000000               -0.90209223               -0.00146802                0.13500396                1.27449399                0.29621773               -0.01910027
               5.97315258                9.97337474               76.11107058                0.01000000                0.06947369               -0.09715998                0.13615993                0.65531616                0.28233350                0.00263814
               6.97654942                9.98194938               76.11723762                0.01000000                0.50500829               -0.23998329                0.14329142                0.44582923                0.30695402                0.02373816
               7.98325274                9.98685039               76.12382024                0.01000002                0.82308084               -0.40609407                0.15196687                0.61697270                0.34919940                0.06904224
               8.99301104                9.99493982               76.13077050                1.00000000                0.45942363               -0.04581639                0.16951914                0.50407645                0.19989313                0.00705099
               9.99244121                9.99292135               76.13386441                1.00000000               -0.05698215               -0.05832660                0.20696966               -0.01119775                0.00715297               -0.00722594
              -0.11083689               -0.02497586               77.06021468                1.00000000               -0.02403162               -0.02313905                0.08642189               -0.00157138               -0.00150972                0.00044217
               0.88892279               -0.02995967               77.06339666                0.99998980               -0.02291478               -0.02533115                0.08039914               -0.00218662                0.00025057               -0.00301421
               1.88870481               -0.03491293               77.06659011                0.01474822                0.11809182               -0.02114836                0.07734272                0.21871983                0.01793632                0.00018889
               2.89128463               -0.03544546               77.07009335                0.01000001                0.17064045                0.01032757                0.20365445                0.27991581               -0.08394701               -0.19526279
               3.89211762               -0.03000443               77.07357691                0.01000006                0.01231662                0.00350763                0.06496052                0.49394280                0.05154465               -0.00767449
               4.89153096               -0.02231456               77.07791069                0.01000003               -0.29797254               -0.00942802                0.01012408                0.50507254               -0.24592970                0.22767821
               5.88615817               -0.01100930               77.07841445                0.41931159               -0.26640925               -0.04745348                0.06420471                0.43763694               -0.16804294                0.00228555
               6.88620277               -0.00858645               77.07917626                1.00000000               -0.01408409               -0.04425392                0.13206608                0.00034153               -0.10541374               -0.01219346
               7.88587649               -0.00618607               77.08176230                0.99999999               -0.03065851               -0.03467136                0.10898076                0.00021400               -0.01133134               -0.00384288
               8.88558960               -0.00374379               77.08442103                1.00000000               -0.02811963               -0.03121616                0.09865657               -0.00016837               -0.00548481                0.00013626
               9.88531410               -0.00129743               77.08713381                1.00000000               -0.02755091               -0.02800336                0.08963204               -0.00296596               -0.00298062               -0.00160547
              -0.10586880                0.97479275               77.06234363                1.00000000               -0.02617418               -0.02226224                0.08780921                0.00076702               -0.00353184                0.00791110
               0.89386946                0.96978702               77.06550186                0.01000000               -0.02481473               -0.02663603                0.07962500                0.00384936               -0.00244564               -0.00541119
               1.89363491                0.96487559               77.06869505                0.01000000               -0.11199631                0.04039371                0.06721150                0.20646101                0.03074949                0.01471122
               2.89162953                0.96465781               77.07252293                0.01000000               -0.15716545                0.06954529                0.02723314                0.51003393                0.06183904               -0.18574319
               3.89049160                0.97003065               77.07555899                0.01000000               -0.22727069                0.01949054                0.06313310                0.70594454               -0.27315711                0.10761095
               4.88708412                0.97759116               77.07973323                0.01000000               -0.34105592               -0.01923619                0.17509018                0.85064521               -0.13826005                0.23417389
               5.88367048                0.98851616               77.08252996                0.01000001               -0.16447721               -0.25201442                0.08723113                0.70177586               -0.10329248               -0.05317791
               6.88379458                0.99097101               77.08277853                0.66488842               -0.01065918               -0.04066784                0.13658895                0.00633947               -0.13120500               -0.03110319
               7.88345730                0.99346721               77.08543834                1.00000000               -0.03254879               -0.03502476                0.11557581                0.00698124               -0.00460298               -0.00788692
               8.88314360                0.99594405               77.08816588                0.99999999               -0.03096065               -0.03216193                0.10750499                0.00172369                0.00056735                0.00155581
               9.88283808                0.99842253               77.09089470                0.99997238               -0.03055169               -0.02948195                0.09829997               -0.00143359                0.00127055                0.00057474
              -0.10081009                1.97457890               77.06457556                0.45763521               -0.02729647               -0.00998019                0.09272705                0.02400858               -0.00158776                0.08075770
               0.89891694                1.96950761               77.06760916                0.01000000               -0.06133337               -0.03210034                0.08542581                0.09518904                0.02235809                0.00105603
               1.89796324                1.96589494               77.07106734                0.01000001               -0.12933495                0.00543708                0.05548778                0.42219608                0.08402506                0.00444014
               2.89633024                1.96594544               77.07492501                0.01000000               -0.23300362                0.06664201                0.06697072                0.85848891                0.02843120                0.03829191
               3.89330317                1.97038538               77.07858260                0.01000000               -0.31359489                0.00075204                0.09589631                1.12704792                0.02266295                0.13471714
               4.89005835                1.97730071               77.08205883                0.01000001               -0.32446696               -0.08141165                0.10494882                1.23397505                0.01933821                0.07352995
               5.88681383                1.98395041               77.08513898                0.01000001               -0.43399152               -0.29129790                0.12551555                1.15507604               -0.09221015               -0.02104566
               6.88137852                1.99060020               77.08603830                0.01001413               -0.28853778               -0.14770492                0.08766247                0.65395096               -0.07917930                0.04094526
               7.88104307                1.99311343               77.08902509                0.28022010               -0.03548789               -0.03095196                0.12108732               -0.00565916                0.02531698               -0.06513144
               8.88066876                1.99561297               77.09194712                0.99999997               -0.03573048               -0.03477718                0.11907831                0.00110285                0.01433100                0.01443519
               9.88032846                1.99811293               77.09471253                0.99999998               -0.03402947               -0.03259664                0.10704217               -0.00219782                0.00758727                0.00931710
              -0.09524606                2.97459315               77.06797920                0.12351717               -0.02967497                0.16633071                0.09264330                0.36322883               -0.00190986                0.25109242
               0.90445720                2.96914501               77.07001821                0.01000000                0.04435274               -0.27601896                0.07044758                0.47780351                0.09997178               -0.00672120
               1.90564100                2.96498433               77.07385796                0.01000000               -0.00741602               -0.13863241                0.07668424                0.83404192                0.15357332                0.06069746
               2.90430887                2.96599065               77.07789480                0.01000000               -0.19818556               -0.05678216                0.08734421                1.21883864                0.12571757                0.09559716
               3.90167729                2.97004569               77.08182087                0.01003566               -0.30551409               -0.07867813                0.10864894                1.48421549                0.08546664                0.11472055
               4.89819859                2.97596292               77.08549035                0.01000000               -0.41023853               -0.12448624                0.12504967                1.61163463                0.04724875                0.10224133
               5.89347252                2.98269021               77.08854388                0.01000000               -0.52440083               -0.11433671                0.12882035                1.52054344               -0.00753690                0.07166752
               6.88771058                2.98801691               77.09095039                0.01000000               -0.75705918               -0.11790421                0.12214135                1.37964126               -0.13705390                0.13148065
               7.87833133                2.99284817               77.09156182                0.01006514               -0.47722072               -0.04269625                0.05664569                0.84164086               -0.04746384                0.09571608
               8.87816616                2.99524851               77.09596399                0.84783131               -0.02685545               -0.03809358                0.13479840               -0.00495045                0.08890035                0.03210296
               9.87779423                2.99777060               77.09866874                0.99999998               -0.03719371               -0.03506688                0.11553298               -0.00126536                0.00528533                0.01962278
              -0.08264925                3.97790551               77.07255009                0.09587375                0.07310823               -0.05255297               -0.02180865                0.29453805               -0.05498458                0.10243560
               0.91808183                3.96398723               77.07330745                0.01009540                0.02238450               -0.41874063                0.13257184                0.99158867                0.15454848                0.19605664
               1.91779844                3.96312230               77.07728782                0.01000000               -0.12180885               -0.17087566                0.10477347                1.36337600                0.21022356                0.07363389
               2.91564566                3.96480980               77.08120860                0.01000001               -0.23916166               -0.15874966                0.10663543                1.51316289                0.14791026                0.11852967
               3.91301521                3.96881182               77.08524994                0.01000000               -0.29995678               -0.16636556                0.11104970                1.74481341                0.11157321                0.12060391
               4.90964652                3.97481099               77.08907993                0.01000000               -0.39222514               -0.14571574                0.12117920                1.93234793                0.07565959                0.10720747
               5.90517071                3.98166368               77.09253241                0.01000000               -0.54165730               -0.09996801                0.12644369                2.02112942                0.03027826                0.10788521
               6.89881338                3.98824211               77.09540370                0.01000001               -0.72632045               -0.01225379                0.12438181                1.93810172               -0.00410388                0.13127457
               7.89064430                3.99225951               77.09813445                0.01000007               -1.15830257                0.00073452                0.12722607                1.92355387               -0.04549070                0.24006526
               8.87564732                3.99485110               77.10009734                0.01000000               -0.76926604               -0.13813446                0.13700909                1.68213613               -0.03300396                0.14124889
               9.87525898                3.99741159               77.10269472                0.01000000               -0.03883480               -0.98915416                0.11977163                1.73876605               -0.00153598                0.15184754
              -0.06151874                4.97354209               77.07472836                0.24552782                0.05909211               -0.30207006               -0.14922321                0.42227247                0.50019177               -0.27615401
               0.93907218                4.96077020               77.08074152                0.01000000               -0.31976548               -0.14087294                0.17112923                1.06430962                0.23341619                0.10355149
               1.93208595                4.96156681               77.08051976                0.01000001               -0.50947877               -0.15807367                0.14283223                1.48252023                0.03552231                0.09416644
               2.92888261                4.96281566               77.08460250                0.01000000               -0.27567922               -0.24982590                0.11204254                1.60072960                0.14679347                0.12585770
               3.92657237                4.96671838               77.08865454                0.01000000               -0.24444574               -0.27621587                0.11268270                1.91493857                0.11202830                0.11499694
               4.92399369                4.97304861               77.09267968                0.01000000               -0.30541937               -0.23151908                0.11740655                2.20263053                0.09006603                0.10468096
               5.92046398                4.98069085               77.09647917                0.01000000               -0.40584561               -0.13998992                0.12079289                2.36846219                0.06801097                0.10643635
               6.91587678                4.98777184               77.10004426                0.01000001               -0.51352813               -0.07738672                0.12282440                2.42828879                0.03918979                0.13964794
               7.91019342                4.99286286               77.10324870                0.01000000               -0.46099902               -0.05133300                0.12605591                2.33873918                0.01085980                0.17278910
               8.90665680                4.99248582               77.10628504                0.01000002               -0.13724219               -0.33435230                0.12414148                2.04889246               -0.00031698                0.23793792
               9.90744858                4.97798752               77.10928596                0.01000000                0.07917738               -1.19697272                0.12318285                1.35639286               -0.01171263                0.29446851
              -0.04866003                5.97186411               77.07699413                0.39947774                0.00033265               -0.13627874               -0.02216862                0.09692324                0.37522554               -0.18952213
               0.95134330                5.96116977               77.08250644                0.01000001               -0.29682923                0.04891170                0.10524336                0.52615962                0.21929715               -0.22291466
               1.94540339                5.95996082               77.08385991                0.01000001               -0.44173071               -0.21708674                0.13112884                1.18299739                0.00641544                0.12508711
               2.94250869                5.95981328               77.08771962                0.01000000               -0.21611788               -0.37862624                0.11019959                1.50316047                0.09245577                0.10053268
               3.94108103                5.96328750               77.09185636                0.01000000               -0.13910118               -0.43638699                0.11098195                1.94552223                0.09518735                0.09277414
               4.93972666                5.97018061               77.09608828                0.01000000               -0.16321567               -0.36092145                0.11407711                2.33990493                0.09460534                0.08845446
               5.93781672                5.97886388               77.10028622                0.01000001               -0.22597642               -0.22195751                0.11513891                2.52796760                0.08366957                0.09116643
               6.93520713                5.98669438               77.10437912                0.01000000               -0.25558092               -0.12992441                0.11823007                2.49837592                0.06500088                0.13468118
               7.93270510                5.99123285               77.10821802                0.01000002               -0.18533066               -0.13954855                0.12098846                2.19542199                0.04814448                0.17300622
               8.93150052                5.98816406               77.11181473                0.01000001               -0.06608298               -0.25730996                0.12402940                1.36551676                0.02153065                0.22761153
               9.93138344                5.97347213               77.11523491                0.01000000               -0.01170807               -0.17560204                0.12743767                0.67160689                0.00352552                0.27693670
              -0.03819160                6.97081651               77.07775254                0.99934843               -0.03097359               -0.06968596                0.09967916                0.06907764               -0.01170169               -0.00214287
               0.96149866                6.96174844               77.08240855                0.01004201               -0.23530030                0.01708811                0.09720077                0.28144372               -0.03761108               -0.10760595
               1.95710239                6.95722508               77.08645168                0.01000001               -0.29397630               -0.36159672                0.10134088                0.91820203               -0.00005366                0.02000086
               2.95561914                6.95524313               77.09027746                0.01000000               -0.09934524               -0.49637881                0.10935125                1.24291212                0.03945592                0.04359893
               3.95511549                6.95799064               77.09461024                0.01000001               -0.02018612               -0.69856733                0.11147237                1.85871256                0.08442749                0.04491371
               4.95521542                6.96583018               77.09916686                0.01000001               -0.03029638               -0.48917937                0.11330797                2.37708908                0.10888281                0.05139303
               5.95450956                6.97625170               77.10382996                0.01000000               -0.08700415               -0.26558669                0.11456929                2.48412779                0.12836217                0.06475408
               6.95347533                6.98517335               77.10844058                0.01000002               -0.09386918               -0.15534457                0.11729377                2.33522946                0.12460122                0.11985992
               7.95263218                6.99007189               77.11297612                0.01000001               -0.08737427               -0.06634382                0.11976305                1.94432860                0.10018893                0.18148056
               8.95172785                6.98733962               77.11721273                0.01000000               -0.11838096                0.09053265                0.12735789                1.13110942                0.05352789                0.24973112
               9.95026456                6.97447547               77.12093740                0.01000003               -0.14632888                0.29441083                0.13733490                0.50930933                0.02065778                0.29973346
              -0.02914232                7.97047039               77.07909845                0.99999999               -0.02940730               -0.03581172                0.10319103                0.00260653               -0.00707019                0.02013959
               0.97056361                7.96151154               77.08342657                0.99998376               -0.02924751               -0.02669870                0.10358442                0.00965312               -0.01652364               -0.02687752
               1.97027273                7.95272889               77.08751313                0.01000000               -0.19811189               -0.24172561                0.10473150                0.51725493               -0.00415889               -0.03179001
               2.96660137                7.94988571               77.09203245                0.01000003               -0.13022464               -0.58145960                0.11259184                0.98448445                0.05333658               -0.03445032
               3.96766824                7.94931616               77.09669366                0.01000007                0.12030072               -1.15623402                0.11597421                1.68900531                0.09186727               -0.05481543
               4.96900739                7.96039702               77.10167461                0.01000000                0.02439316               -0.45146451                0.11604408                2.30524825                0.13901825                0.01105216
               5.96815610                7.97355214               77.10698639                0.01000002               -0.04579290               -0.21952863                0.11726753                2.15693865                0.16621003                0.04213309
               6.96809153                7.98358749               77.11227788                0.01000001                0.06346501               -0.17294290                0.11817281                1.91135992                0.18391175                0.09049859
               7.96942540                7.98990597               77.11776591                0.01000009                0.08137998               -0.08984934                0.12057028                1.69668407                0.16817193                0.16052000
               8.96971913                7.98997471               77.12273179                0.01000001               -0.10637427                0.28308187                0.13343580                1.26888324                0.10457978                0.35670194
               9.96729792                7.97936035               77.12697392                0.01000002               -0.24212099                0.82417240                0.15550881                0.78425662                0.06297378                0.34465560
              -0.02022176                8.97010028               77.08052431                0.99999999               -0.03450104               -0.03691615                0.11338980                0.00106502                0.00023175                0.01750161
               0.97943323                8.96121446               77.08474069                0.99999999               -0.03524580               -0.03228903                0.11431548               -0.00012318                0.00016903               -0.00462688
               1.97907332                8.95239057               77.08894644                0.99696009               -0.03558350               -0.03445942                0.11604566               -0.00019724               -0.00506907               -0.00892907
               2.97872156                8.94361394               77.09304325                0.95884544               -0.03445208               -0.33080374                0.11536780                0.16730789               -0.00659779               -0.03218729
               3.97838428                8.93486596               77.09717018                0.01000000               -0.08185841               -0.73883559                0.11121337                1.63158243                0.12396293               -0.06525467
               4.97708439                8.95680089               77.10388883                0.01000002               -0.19632077               -0.18513406                0.12189822                1.97156450                0.23885402               -0.00720263
               5.97445787                8.97186112               77.10979788                0.01000001               -0.08678423               -0.13533182                0.12379959                1.31907507                0.22137896                0.01525224
               6.97534871                8.98171449               77.11572632                0.01000003                0.28603835               -0.21474069                0.12653406                1.06998933                0.24700508                0.04480629
               7.98017864                8.98827491               77.12189974                0.01000001                0.61512116               -0.28387629                0.13124945                1.08618634                0.35445880                0.10227995
               8.98765113                8.99300126               77.12985452                1.00000000                0.34998878                0.12825679                0.14138068                1.13827033                0.21743787                0.23279870
               9.98717841                8.99095892               77.13331316                1.00000000               -0.04727205                0.55094267                0.17690142                0.89247134               -0.00750291                0.17874136
              -0.01134938                9.96973207               77.08194025                1.00000000               -0.03797594               -0.03682111                0.12331921                0.00060634                0.01433674                0.01495414
               0.98827086                9.96086576               77.08615329                0.99999999               -0.03906548               -0.03487063                0.12452176               -0.00085575                0.01768586                0.00025660
               1.98786931                9.95203970               77.09044519                0.99999012               -0.03993587               -0.03508677                0.12537830               -0.00020807                0.02065728               -0.00459002
               2.98747214                9.94326963               77.09471252                0.99999999               -0.03781825               -0.03443123                0.12031811                0.00004512                0.01545250               -0.00002865
               3.98711294                9.93453944               77.09889385                0.01365027               -0.80143154               -0.03265131                0.11486611                1.54410119                0.15643821               -0.00594139
               4.97144351                9.95669434               77.10600626                0.01000000               -0.87444712               -0.01065515                0.12906393                1.25121488                0.30115835               -0.01999486
               5.96962400                9.97084551               77.11241991                0.01000001                0.08170117               -0.10156152                0.13432769                0.64652992                0.27316001                0.00221763
               6.97307753                9.97929267               77.11865040                0.01000000                0.51191824               -0.24218207                0.14127873                0.44202919                0.29196093                0.01702057
               7.97986236                9.98422844               77.12536266                0.01000000                0.83614921               -0.40464623                0.15207375                0.63073169                0.33972610                0.07223838
               8.98980052                9.99253985               77.13246901                1.00000000                0.46848242               -0.04614110                0.17016195                0.52247661                0.18944626                0.00706556
               9.98923201                9.99037920               77.13592764                1.00000000               -0.05685037               -0.05797184                0.20567614               -0.01070395                0.00717837               -0.00716426
              -0.11397868               -0.02713710               78.06109308                1.00000000               -0.02187631               -0.02055939                0.08989027               -0.00213671                0.00411196               -0.00520607
               0.88580256               -0.03209254               78.06421292                1.00000000               -0.02058782               -0.02893725                0.08180976               -0.00243649                0.01004440               -0.00401604
               1.88560957               -0.03694471               78.06738643                0.22933748                0.03469417               -0.01991613                0.07956847                0.06135712                0.14081378                0.00499978
               2.88649644               -0.04052693               78.07293315                0.07782692                0.19652686               -0.00978402                0.11788570                0.56848691                0.01007867               -0.30145252
               3.88954010               -0.03213882               78.07415131                0.08787940               -0.07268263                0.14024366                0.05631826                0.16987483               -0.12256158               -0.00835126
               4.88504279               -0.01990740               78.07651325                0.21653666               -0.28239268                0.02290498               -0.04378588                0.37612826               -0.13133459                0.38890644
               5.88389225               -0.01528666               78.07910922                0.67019291               -0.07339782               -0.02561436                0.06798273                0.09385484               -0.01324674               -0.00570759
               6.88357483               -0.01237759               78.08051495                1.00000000               -0.03356844               -0.04274137                0.12702303                0.01766577               -0.06028775               -0.02102753
               7.88322088               -0.00992981               78.08283903                0.99999999               -0.03331764               -0.03352028                0.10697243               -0.00196725               -0.01199496               -0.00368811
               8.88290848               -0.00752689               78.08540697                0.99999998               -0.02988104               -0.03162790                0.09928284               -0.00239289               -0.00295249                0.00076861
               9.88262326               -0.00512123               78.08803327                1.00000000               -0.02852212               -0.02912134                0.09170191               -0.00371711               -0.00197740               -0.00249772
              -0.10904460                0.97265731               78.06321525                1.00000000               -0.02733952               -0.01474417                0.08750960                0.00316450               -0.00776480                0.00300166
               0.89068200                0.96761809               78.06628501                0.01000000               -0.02575327               -0.03560663                0.07807363                0.01630725               -0.01163895               -0.00280578
               1.89044033                0.96285612               78.06932826                0.01000000               -0.04518193                0.01048033                0.06171646                0.07260711               -0.03211174                0.02211550
               2.88977836                0.95937523               78.07217394                0.01000000               -0.47556237                0.21775358                0.01549723                0.61746243               -0.02587585               -0.08871622
               3.88092909                0.96926361               78.07634282                0.01000000               -0.47001860                0.05228615                0.05405927                1.07382726               -0.03747759                0.07602983
               4.88037799                0.98032165               78.08190820                0.01000000                0.00684032               -0.24483209                0.07889487                0.86178379               -0.09325940                0.21015119
               5.88106589                0.98445719               78.08338480                0.01000001                0.03475362               -0.20262985                0.06479163                0.34801624               -0.14197073               -0.05147274
               6.88107307                0.98719499               78.08420327                0.47926636               -0.01450171               -0.03371651                0.13924869                0.01963659               -0.10474056               -0.07128000
               7.88077586                0.98973499               78.08659045                1.00000000               -0.02964023               -0.03495317                0.11554764                0.00693603               -0.00898633               -0.00621474
               8.88048026                0.99215683               78.08923900                0.99999999               -0.02977163               -0.03287047                0.10746766               -0.00098224                0.00384162                0.00409489
               9.88018043                0.99458756               78.09187666                1.00000000               -0.02998352               -0.03075840                0.09961374               -0.00254140                0.00330716               -0.00124466
              -0.10383694                1.97256802               78.06545604                0.54869023               -0.02331666                0.04014112                0.08256641                0.06571258               -0.00488044                0.06738563
               0.89592989                1.96719533               78.06845281                0.01000000               -0.04292440               -0.09696287                0.08413761                0.14663266                0.00532984               -0.00131265
               1.89530457                1.96326489               78.07155875                0.01000001               -0.17458451               -0.00352587                0.02977023                0.46536622                0.02245414                0.05528630
               2.89243820                1.96382814               78.07554163                0.01000000               -0.26171705                0.22615380                0.05320525                0.86895042                0.06644503                0.13391104
               3.89007023                1.96890690               78.07963578                0.01000000               -0.26766565               -0.07467541                0.13368291                1.45400315                0.02047034                0.12622270
               4.88708489                1.97519596               78.08321181                0.01000001               -0.30455004               -0.34832063                0.14633786                1.33285550                0.00885830               -0.00765672
               5.88397923                1.98066074               78.08633140                0.01000001               -0.41975571               -0.24452294                0.11094558                1.07044587               -0.11692073               -0.02088952
               6.87868977                1.98694808               78.08674135                0.01004554               -0.27907301               -0.13110764                0.05630514                0.62697634               -0.07443569                0.04323282
               7.87839777                1.98937112               78.09025109                0.05275716               -0.03267543               -0.02299978                0.12576736               -0.02901459                0.06147235               -0.10764897
               8.87803626                1.99181570               78.09313817                1.00000000               -0.03433961               -0.03517285                0.11734083                0.00042105                0.01963814                0.01936449
               9.87771097                1.99426360               78.09577146                1.00000000               -0.03252899               -0.03354899                0.10599184               -0.00257488                0.00824155                0.00564506
              -0.09698496                2.97346013               78.06865702                0.37964660               -0.00972510                0.14955367                0.03782955                0.20649980               -0.00402103                0.16737374
               0.90291779                2.96567883               78.07084053                0.01000000                0.00499050               -0.27392903                0.09370015                0.48960301                0.09861370                0.01265525
               1.90311485                2.96278561               78.07469817                0.01000000               -0.07012106               -0.11467079                0.09164926                0.91224875                0.11295379                0.15040951
               2.90151536                2.96389830               78.07883578                0.01000000               -0.22367572               -0.05804294                0.10273796                1.27334112                0.07573405                0.13603777
               3.89864133                2.96777011               78.08300919                0.01000000               -0.31170500               -0.11952257                0.11691162                1.47644295                0.06456259                0.10519804
               4.89528126                2.97335523               78.08681363                0.01000000               -0.39593221               -0.15222645                0.12733130                1.57357239                0.03781412                0.07081924
               5.89072269                2.97956673               78.08986313                0.01000000               -0.51895286               -0.10193903                0.12673874                1.47929304                0.00083983                0.04787438
               6.88490221                2.98457284               78.09223390                0.01000000               -0.76973709               -0.10371257                0.15256688                1.35344475               -0.13053243                0.13723128
               7.87532795                2.98927499               78.09198467                0.01000001               -0.46530016               -0.03463949                0.07814255                0.82396695               -0.00206214                0.08439792
               8.87559620                2.99145337               78.09729849                0.89198449               -0.00474135               -0.03781723                0.12970967               -0.01289799                0.14092870                0.03057332
               9.87523312                2.99391658               78.09979452                0.99999997               -0.03630851               -0.03521519                0.11165007               -0.00129854                0.00248521                0.01292213
              -0.08414434                3.97555909               78.07207947                0.36706185                0.05408195                0.00304288               -0.03107311                0.08865791                0.03023615                0.05134905
               0.91639648                3.96171675               78.07485849                0.01000000               -0.02627930               -0.29616179                0.12095076                0.77574431                0.06524170                0.21548829
               1.91533007                3.96097148               78.07853626                0.01000000               -0.17379772               -0.17163302                0.11809685                1.36092776                0.08188182                0.20208706
               2.91292052                3.96266728               78.08240685                0.01000000               -0.25939580               -0.15565405                0.11947674                1.50645734                0.09982643                0.14135431
               3.91014215                3.96651645               78.08643736                0.01000000               -0.30804077               -0.16466261                0.12098322                1.72217058                0.09774504                0.10004765
               4.90675971                3.97215143               78.09032988                0.01000000               -0.38973371               -0.14466121                0.12374111                1.88965908                0.07802717                0.07143951
               5.90234748                3.97862196               78.09383970                0.01000000               -0.53546473               -0.09158712                0.12968470                1.97340298                0.04177889                0.07094062
               6.89605041                3.98487383               78.09669531                0.01000000               -0.71754527               -0.00149691                0.13045061                1.90313588                0.02082226                0.09362758
               7.88799658                3.98867833               78.09947228                0.01003128               -1.14568477                0.00673205                0.14116557                1.90322205               -0.00938213                0.23881593
               8.87313672                3.99105935               78.10141928                0.01000000               -0.76189918               -0.12549361                0.13014698                1.64794524               -0.02430478                0.13027256
               9.87275859                3.99355930               78.10385101                0.01737984               -0.03781250               -0.96393220                0.11480753                1.70671791                0.00451009                0.14616115
              -0.06752711                4.97352099               78.07505631                0.49927355                0.05474012               -0.22110947                0.04600490                0.13213723               -0.03363996                0.16845677
               0.93302029                4.95975559               78.07992949                0.01000000               -0.15450100               -0.09684094               -0.04463363                0.78143840               -0.15976362                0.21061911
               1.92938287                4.95935295               78.08252984                0.01000001               -0.34603762               -0.15331928                0.13701068                1.39129290               -0.05009697                0.14544867
               2.92609954                4.96078522               78.08580593                0.01000000               -0.28911359               -0.23694983                0.12282883                1.57394632                0.05813860                0.11970185
               3.92360060                4.96447685               78.08985994                0.01000000               -0.25653005               -0.26839512                0.11948033                1.86698030                0.09616331                0.09521351
               4.92096894                4.97046201               78.09388875                0.01000000               -0.30661245               -0.22177654                0.12029877                2.14644110                0.08784189                0.07576127
               5.91746835                4.97773499               78.09772093                0.01000007               -0.40301939               -0.13222611                0.12190993                2.31082041                0.07093610                0.07434232
               6.91290855                4.98454290               78.10128264                0.01000001               -0.51307440               -0.05724740                0.12354355                2.37379438                0.04774756                0.09788317
               7.90720686                4.98940963               78.10451512                0.01000000               -0.46172018               -0.03539943                0.12461730                2.29175881                0.01615976                0.13814044
               8.90367414                4.98894350               78.10751399                0.01000002               -0.14196365               -0.30867394                0.12245299                2.01346893                0.00361836                0.22154675
               9.90436759                4.97463793               78.11049545                0.01000002                0.06934415               -1.15879870                0.11888333                1.33037916               -0.00665097                0.29538211
              -0.05397081                5.97113691               78.07764953                0.71004622                0.01640959               -0.18684706                0.06440773                0.09089622               -0.00566694                0.05693277
               0.94619329                5.95977993               78.08238265                0.01000001               -0.19514457                0.01920241               -0.00826559                0.52610218               -0.09265834                0.01990908
               1.94212630                5.95790509               78.08539233                0.01000001               -0.34588743               -0.19508737                0.11284062                1.09144814               -0.04994560                0.04663171
               2.93927554                5.95792828               78.08889507                0.01000000               -0.21606645               -0.36722855                0.11503231                1.44958965                0.03782586                0.08126811
               3.93780497                5.96114855               78.09301580                0.01000000               -0.14225744               -0.42652748                0.11521996                1.88337840                0.08280440                0.06977953
               4.93643039                5.96771590               78.09726129                0.01000000               -0.16609882               -0.34985505                0.11605242                2.27660865                0.09200553                0.06386510
               5.93448300                5.97597744               78.10146915                0.01000000               -0.22893652               -0.21472769                0.11743055                2.48301669                0.08720794                0.07055890
               6.93185166                5.98372888               78.10554925                0.01000000               -0.25259203               -0.11200011                0.11623980                2.45841957                0.07074676                0.09429767
               7.92943116                5.98797035               78.10941715                0.01000002               -0.18369339               -0.12106340                0.11937436                2.15674777                0.04627721                0.14792007
               8.92817779                5.98488587               78.11305111                0.01000001               -0.07269242               -0.23306206                0.12314809                1.34753358                0.01973035                0.21141921
               9.92797731                5.97038332               78.11650162                0.01000000               -0.02004858               -0.15395188                0.12633919                0.66483171                0.00369945                0.27501150
              -0.04299523                6.96978405               78.07874274                0.99999999               -0.02306179               -0.09476095                0.09727756                0.05799042               -0.00997892                0.00195684
               0.95677415                6.96013964               78.08329102                0.01000001               -0.19706447                0.01266303                0.07653395                0.28409318               -0.02606005               -0.06104895
               1.95306348                6.95545120               78.08740770                0.01000001               -0.24631372               -0.33917121                0.08742221                0.85562612               -0.00294093               -0.02121552
               2.95184787                6.95344065               78.09138382                0.01000000               -0.07914620               -0.49169529                0.10666717                1.18787276                0.03549554                0.01932234
               3.95148055                6.95594630               78.09573059                0.01000000               -0.00878269               -0.68882836                0.11215765                1.79928470                0.07671208                0.02787195
               4.95167222                6.96346491               78.10029390                0.01000001               -0.01824265               -0.48041830                0.11225163                2.31259487                0.09679172                0.03579749
               5.95111570                6.97344044               78.10496053                0.01000000               -0.07940946               -0.25434828                0.11310505                2.43961330                0.10757328                0.05448163
               6.95008403                6.98230290               78.10964501                0.01000002               -0.09654403               -0.14938169                0.11893162                2.30700585                0.10608839                0.08878748
               7.94918482                6.98698836               78.11418810                0.01000001               -0.09360961               -0.05456657                0.12103845                1.91365599                0.08726440                0.15982437
               8.94821184                6.98428226               78.11847378                0.01000001               -0.12577491                0.11443595                0.12577949                1.12198172                0.04648380                0.23698319
               9.94666932                6.97155890               78.12230296                0.01000000               -0.15425179                0.31105100                0.13698982                0.50822275                0.01778641                0.30377682
              -0.03352219                7.96924169               78.08012155                1.00000000               -0.02698110               -0.04968752                0.10452782                0.00706568               -0.00398457                0.01097053
               0.96620800                7.96003319               78.08442283                1.00000000               -0.02699991               -0.01922520                0.09815979                0.01666270               -0.01150953               -0.02502841
               1.96593782                7.95112167               78.08853432                0.01000000               -0.18350570               -0.23271095                0.09954043                0.49401104                0.00559283               -0.03106626
               2.96253789                7.94809438               78.09314234                0.01000001               -0.10857038               -0.57528159                0.10828651                0.94822781                0.05941442               -0.04159133
               3.96376641                7.94737198               78.09783373                0.01000005                0.13251331               -1.14188692                0.11358755                1.63686332                0.09027110               -0.06855799
               4.96518816                7.95810753               78.10282577                0.01000000                0.03354311               -0.44767651                0.11529860                2.24763806                0.12838280                0.00467128
               5.96443727                7.97089047               78.10814455                0.01000002               -0.03721512               -0.21112857                0.11564360                2.10980034                0.15584900                0.02993151
               6.96444385                7.98074124               78.11347748                0.01000001                0.06438241               -0.17150425                0.12025467                1.87858536                0.17036176                0.07007176
               7.96572492                7.98687901               78.11898801                0.01000001                0.08015208               -0.08140925                0.12372301                1.68938706                0.15673461                0.14358575
               8.96604689                7.98717459               78.12412822                0.01011700               -0.10682156                0.30172431                0.13507010                1.27272885                0.10351447                0.34178712
               9.96358849                7.97660434               78.12861338                0.01000002               -0.24584073                0.82834201                0.14998778                0.78287763                0.06656296                0.34661798
              -0.02443693                8.96879030               78.08166459                0.99999998               -0.03356516               -0.04196247                0.11362958                0.00100217                0.00040623                0.01227885
               0.97522742                8.95975514               78.08587725                0.99999999               -0.03402823               -0.03141884                0.11266382               -0.00073422                0.00105696               -0.00397822
               1.97488251                8.95079698               78.09008477                0.99999998               -0.03326529               -0.03340319                0.11237406                0.00209059               -0.00154073               -0.00631497
               2.97456212                8.94193502               78.09422615                0.96481620               -0.03389209               -0.32650652                0.11812907                0.15933045               -0.00248184               -0.03130137
               3.97420467                8.93310857               78.09837558                0.01000000               -0.07278129               -0.73238160                0.12203129                1.59196981                0.12519195               -0.06365008
               4.97310649                8.95451138               78.10507598                0.01000002               -0.17633376               -0.18849466                0.11928763                1.92890982                0.23287601               -0.01214830
               5.97067799                8.96921787               78.11102963                0.01000001               -0.07196480               -0.13577156                0.12236896                1.29479008                0.21147547                0.00800017
               6.97166719                8.97887282               78.11698627                0.01000002                0.29306097               -0.21498089                0.12636197                1.05721715                0.23467946                0.03556635
               7.97653921                8.98536018               78.12326442                0.01000001                0.61369458               -0.27548528                0.13545311                1.09738335                0.33726803                0.09324858
               8.98394109                8.99031674               78.13127484                0.99999306                0.34640799                0.13387804                0.14266950                1.14768241                0.20292966                0.21976582
               9.98346737                8.98812574               78.13507904                1.00000000               -0.04737149                0.54723912                0.17627649                0.88485087               -0.00748537                0.17085217
              -0.01543182                9.96840244               78.08318940                1.00000000               -0.03815394               -0.03878624                0.12537661                0.00074800                0.01133050                0.01021027
               0.98418664                9.95940481               78.08740423                0.99999999               -0.03842150               -0.03503267                0.12502059               -0.00152006                0.01464017               -0.00020472
               1.98379975                9.95045360               78.09168316                0.99999999               -0.03868632               -0.03433772                0.12277242               -0.00030437                0.01783440               -0.00320813
               2.98341291                9.94156425               78.09594756                0.99999998               -0.03851513               -0.03707720                0.12330405               -0.00138315                0.01403148               -0.00005313
               3.98302944                9.93272435               78.10014025                0.01918627               -0.78779299               -0.03842184                0.12567160                1.52114727                0.15663789               -0.00413551
               4.96765705                9.95433764               78.10726513                0.01000000               -0.85289047               -0.01737426                0.12586935                1.22759076                0.30157821               -0.02066534
               5.96597164                9.96817504               78.11375713                0.01000001                0.08944166               -0.10428267                0.13320326                0.63456388                0.26951912               -0.00130033
               6.96944589                9.97644163               78.12006319                0.01000000                0.51285112               -0.24311896                0.14024675                0.43758257                0.28359135                0.01494730
               7.97622866                9.98136931               78.12686171                0.01000000                0.83945501               -0.39908685                0.14979244                0.63947106                0.32866247                0.06569313
               8.98623499                9.98985215               78.13417374                0.99999369                0.47194322               -0.04645899                0.17078795                0.53838085                0.18245520                0.00706283
               9.98566752                9.98754913               78.13797793                1.00000000               -0.05674631               -0.05766085                0.20439566               -0.01028758                0.00716952               -0.00717297
              -0.11699433               -0.02932432               79.06201249                0.99999278               -0.01753338               -0.01858579                0.09372418               -0.00291174                0.00773663               -0.00825844
               0.88283033               -0.03418416               79.06503285                1.00000000               -0.01024048               -0.03248204                0.08102701                0.00071982                0.01785074               -0.00266011
               1.88280086               -0.03869660               79.06818148                0.46573328                0.09454927               -0.01578257                0.06933148                0.14169192                0.09611073                0.00363135
               2.88472132               -0.03995609               79.07245106                0.37317393                0.16427161                0.02311030               -0.05011647                0.14472085                0.08651629                0.00399211
               3.88608629               -0.03455447               79.07470328                0.33926989               -0.03874801                0.06212405                0.02796481                0.12363738               -0.10395870               -0.05124755
               4.88394636               -0.02532634               79.07703497                0.49365976               -0.20973780                0.04219541                0.05688341                0.16705187                0.06883380               -0.03768604
               5.88189153               -0.01967462               79.07977410                0.92801096               -0.13395747               -0.00608589                0.06505066                0.11158051                0.01097336               -0.00841088
               6.88126721               -0.01638365               79.08171672                1.00000000               -0.05734844               -0.02973382                0.11089453                0.01828788               -0.03021993               -0.01302542
               7.88074456               -0.01376268               79.08390174                1.00000000               -0.04654489               -0.03064642                0.10731197               -0.00071209               -0.01410812               -0.00223391
               8.88033631               -0.01139246               79.08640668                0.99999999               -0.03613054               -0.03127861                0.10086873               -0.00378391               -0.00312892                0.00057492
               9.88002195               -0.00903417               79.08896785                1.00000000               -0.03143575               -0.03063841                0.09620285               -0.00347708               -0.00304808               -0.00418015
              -0.11216361                0.97048982               79.06409383                1.00000000               -0.03127201               -0.00954207                0.08917894                0.00477442               -0.00871574               -0.00450081
               0.88752367                0.96549102               79.06706334                0.01000000               -0.03663257               -0.04449993                0.07816349                0.03731248               -0.01794535                0.00550911
               1.88710374                0.96114557               79.06992938                0.01000000               -0.17131056                0.01636838                0.06350506                0.16533208               -0.04065267                0.00784746
               2.88409746                0.96027501               79.07283287                0.01000000               -0.35479777                0.09589609                0.08440006                0.48909963               -0.10148175                0.15827136
               3.88000779                0.96606677               79.07664018                0.01000000               -0.29602557                0.03989678                0.05633862                0.73883531                0.26091484                0.03801095
               4.87817695                0.97509561               79.08131113                0.01000000               -0.07358969               -0.12157560               -0.03169701                0.68956446                0.12170257               -0.06045967
               5.87853599                0.98026452               79.08382579                0.01000001                0.01585836               -0.16355441                0.03549677                0.36388730               -0.03786831               -0.02565422
               6.87849412                0.98331901               79.08556350                0.21178009               -0.01470717               -0.00910612                0.11515000                0.01846234               -0.05763463               -0.11525573
               7.87824185                0.98593086               79.08774930                0.99999999               -0.02799491               -0.03355485                0.11426358                0.00534391               -0.01278376               -0.00196387
               8.87793422                0.98829476               79.09031524                0.99999999               -0.03064765               -0.03333838                0.10752551               -0.00332911                0.00513291                0.00474860
               9.87762890                0.99065945               79.09288697                0.99998483               -0.03053233               -0.03289315                0.10286173               -0.00329366                0.00439934               -0.00401931
              -0.10690123                1.97048484               79.06622689                0.58036472               -0.01779339                0.04136889                0.07713507                0.06760583               -0.00224463                0.02063792
               0.89292083                1.96492584               79.06929192                0.01000000               -0.08876308               -0.12492872                0.08101293                0.20052903               -0.03335919                0.02748504
               1.89132351                1.96163076               79.07166275                0.01000001               -0.16693598               -0.00652785                0.06030066                0.49185399               -0.14611086                0.13338205
               2.88958211                1.96196183               79.07598911                0.01000000               -0.26405576                0.07855882                0.11551056                0.90138855               -0.36158524                0.16473743
               3.88604239                1.96624346               79.08125625                0.01000000               -0.30211104               -0.03593479                0.04525549                1.26316101               -0.22108414                0.09401446
               4.88353989                1.97224215               79.08498558                0.01000001               -0.25482554               -0.24171876                0.11891323                1.23674093               -0.06967648                0.00200240
               5.88094588                1.97705429               79.08735789                0.01000001               -0.37848862               -0.20625616                0.09393439                1.03625688               -0.16883198               -0.00365564
               6.87597012                1.98343423               79.08716441                0.01000001               -0.25350891               -0.12557205                0.05415174                0.64980981               -0.05696040                0.05946325
               7.87587570                1.98556623               79.09154044                0.01000771               -0.02144886               -0.03079589                0.12570644               -0.02549018                0.10997730               -0.11321236
               8.87554114                1.98794077               79.09429394                0.99999997               -0.03244994               -0.03579490                0.11465796               -0.00087969                0.01950573                0.02263287
               9.87522670                1.99030797               79.09683237                1.00000000               -0.03144406               -0.03549759                0.10800044               -0.00213285                0.00910817                0.00243239
              -0.09969349                2.97131720               79.06873579                0.38153597                0.00818160                0.10241853                0.01742776                0.13245746               -0.00071001                0.05387232
               0.90038833                2.96299244               79.07189222                0.01000000               -0.02008401               -0.28588969                0.09443010                0.48534308                0.03797329                0.10777365
               1.89990483                2.96101501               79.07569094                0.01000000               -0.14378969               -0.11491997                0.11750917                0.97089774                0.03444720                0.25650459
               2.89751253                2.96184619               79.07994956                0.01000000               -0.24570724               -0.06475510                0.10553322                1.22460136                0.06097999                0.18784357
               3.89499069                2.96534807               79.08415910                0.01000000               -0.27057973               -0.11407224                0.11048257                1.47098713                0.04072779                0.03156520
               4.89210094                2.97026124               79.08803698                0.01000000               -0.34608189               -0.15387443                0.10347073                1.55280811                0.02126596               -0.01053000
               5.88806905                2.97613940               79.09107866                0.01000000               -0.45612784               -0.09148027                0.10915593                1.46206524                0.03815122                0.03188869
               6.88297838                2.98080757               79.09400173                0.01000000               -0.74217735               -0.11841538                0.14336126                1.34013312               -0.04921372                0.16177178
               7.87322550                2.98531494               79.09312467                0.01000000               -0.49017479               -0.05304270                0.21398035                0.83141340                0.31299286               -0.07199469
               8.87317489                2.98757886               79.09855818                1.00000000               -0.01868227               -0.03498609                0.11833139               -0.00620496                0.15304467                0.03139317
               9.87285186                2.98994949               79.10090175                0.99999997               -0.03230300               -0.03370424                0.10681846                0.00001450               -0.00040642                0.00919316
              -0.08760257                3.97253321               79.07192862                0.32893477                0.05324479                0.00119830               -0.01238343                0.05526343               -0.01213481                0.07542611
               0.91292988                3.95920804               79.07572647                0.01000894               -0.02548582               -0.27670078                0.07656315                0.74071058               -0.00692016                0.19326407
               1.91188772                3.95933236               79.07964976                0.01000000               -0.15943992               -0.16976487                0.10630822                1.33807085                0.03720329                0.20781212
               2.90974108                3.96066673               79.08359814                0.01000001               -0.24203184               -0.15623518                0.11833954                1.49161992                0.06965469                0.14814861
               3.90704708                3.96396202               79.08766961                0.01000000               -0.29681772               -0.16519331                0.11560467                1.69600359                0.08478492                0.07994277
               4.90380473                3.96916466               79.09155475                0.01000000               -0.37031146               -0.13144081                0.11231218                1.85256398                0.07457829                0.03743524
               5.89964085                3.97522469               79.09512610                0.01000000               -0.51037427               -0.07955795                0.11684474                1.91605146                0.05535514                0.04196159
               6.89359724                3.98106592               79.09801272                0.01000000               -0.69540827                0.00339981                0.12803676                1.81699187                0.06778037                0.01654401
               7.88573268                3.98450537               79.10095776                0.01000001               -1.14073751                0.01829285                0.12904928                1.86174457               -0.02243024                0.20684152
               8.87078249                3.98724105               79.10270028                0.01000002               -0.76234814               -0.11469631                0.11471772                1.63512318               -0.02452850                0.12136189
               9.87048572                3.98963388               79.10499087                0.01000000               -0.02967698               -0.93524696                0.10353148                1.66432137                0.00413720                0.14002060
              -0.07193789                4.97134117               79.07564846                0.38995771                0.03412729               -0.16084374                0.04589986                0.07987406               -0.00537193                0.11897405
               0.92840338                4.95745843               79.07984885                0.01000000               -0.14272718               -0.05008106               -0.00621967                0.75480023               -0.05378260                0.11648755
               1.92520757                4.95761972               79.08325997                0.01000001               -0.28440524               -0.16583834                0.07287483                1.36337001               -0.04396699                0.13924745
               2.92271528                4.95872148               79.08705908                0.01000000               -0.23973709               -0.24029820                0.11245570                1.51625695                0.03568932                0.11122470
               3.92041282                4.96204421               79.09104414                0.01000000               -0.24128645               -0.25747861                0.11357278                1.81173783                0.07342282                0.07124358
               4.91788955                4.96763242               79.09508566                0.01000000               -0.29620045               -0.20559534                0.11326188                2.09063664                0.08138287                0.05037496
               5.91448881                4.97454824               79.09891737                0.01000392               -0.39260063               -0.10946178                0.11437976                2.24376089                0.07136175                0.04324330
               6.91003754                4.98087557               79.10251514                0.01000007               -0.51017761               -0.04239835                0.11924961                2.31046915                0.04178474                0.06742081
               7.90428526                4.98568080               79.10574105                0.01000000               -0.46443476                0.00064516                0.11890133                2.24027311                0.01726916                0.10620847
               8.90074884                4.98528493               79.10873410                0.01000001               -0.14663183               -0.29042002                0.12186036                1.97959630                0.00320269                0.20253249
               9.90135263                4.97124455               79.11166362                0.01000000                0.06037856               -1.12345139                0.11960780                1.29949665               -0.00379122                0.29050855
              -0.05823961                5.96931633               79.07828228                0.75844906               -0.00130594               -0.14787665                0.06775044                0.11151667                0.01344699               -0.00114735
               0.94174733                5.95820642               79.08234113                0.01000001               -0.19341664                0.05144270                0.01333982                0.53041952               -0.01694265                0.04818084
               1.93789206                5.95601560               79.08611672                0.01000001               -0.30528014               -0.19804712                0.06768131                1.06987766               -0.02400463                0.05276433
               2.93564173                5.95586076               79.09002026                0.01000000               -0.17605828               -0.36695867                0.10373874                1.40438651                0.03243468                0.05628232
               3.93437089                5.95881245               79.09416076                0.01000000               -0.12641526               -0.41570287                0.11053995                1.82594076                0.06930444                0.04885834
               4.93311343                5.96505275               79.09840933                0.01001183               -0.15489866               -0.33253852                0.11179024                2.21273839                0.08428268                0.03977399
               5.93127292                5.97303545               79.10263483                0.01014385               -0.22196785               -0.19411549                0.11322001                2.39931532                0.08292788                0.05130772
               6.92867407                5.98021796               79.10670392                0.01000000               -0.25720683               -0.09273506                0.11547707                2.39074111                0.07126632                0.06595203
               7.92612878                5.98451828               79.11060550                0.01000002               -0.19317032               -0.09916412                0.11890493                2.12390671                0.04451414                0.12901867
               8.92481066                5.98143265               79.11427769                0.01000001               -0.07861871               -0.21413794                0.12196571                1.32201970                0.01809655                0.19828646
               9.92455641                5.96716485               79.11776170                0.01000000               -0.02542512               -0.14026535                0.12445010                0.65368453                0.00235091                0.27290425
              -0.04748773                6.96838363               79.07969809                0.99999999               -0.01997572               -0.07741921                0.09330004                0.03111657               -0.00556637               -0.02034737
               0.95231251                6.95848728               79.08393923                0.01000000               -0.17807428                0.01091600                0.06462696                0.27242250               -0.00477126               -0.01734408
               1.94895078                6.95365877               79.08820012                0.01006447               -0.21531744               -0.32925535                0.07952097                0.83340226                0.02029790               -0.01429623
               2.94800616                6.95138231               79.09241080                0.01000000               -0.06055658               -0.48246092                0.10057753                1.14599497                0.04638336                0.00197782
               3.94773965                6.95373015               79.09685340                0.01000000               -0.00424247               -0.67562215                0.11029892                1.75093414                0.07483757                0.01244002
               4.94792131                6.96098165               79.10141189                0.01000007               -0.02148646               -0.46721926                0.11316244                2.25432903                0.08871732                0.01517206
               5.94730992                6.97066593               79.10609206                0.01000000               -0.07758870               -0.24768913                0.11408904                2.36938323                0.09426441                0.04183145
               6.94636954                6.97902087               79.11081922                0.01000002               -0.08806092               -0.12851494                0.11430456                2.25064052                0.09388910                0.06834922
               7.94554870                6.98369752               79.11539689                0.01000000               -0.09134396               -0.04084587                0.12003385                1.88809381                0.07688142                0.14282718
               8.94454266                6.98100217               79.11972832                0.01000001               -0.12933929                0.12883682                0.12585636                1.10475600                0.04203509                0.21982848
               9.94296191                6.96843925               79.12367720                0.01000000               -0.15807421                0.31758890                0.13561455                0.49882945                0.02024767                0.29235375
              -0.03782457                7.96776795               79.08118901                1.00000000               -0.02547882               -0.05528134                0.10519300                0.00811910               -0.00475085               -0.00846091
               0.96192064                7.95842474               79.08538976                1.00000000               -0.02551767               -0.01668928                0.09560536                0.01921142               -0.00830190               -0.01605240
               1.96166508                7.94943049               79.08950394                0.01000000               -0.17151932               -0.22716732                0.09591156                0.47648132                0.01725799               -0.02355615
               2.95849026                7.94621154               79.09419818                0.01000000               -0.09374216               -0.55998052                0.10647691                0.91222333                0.06937335               -0.04258018
               3.95979023                7.94530000               79.09896541                0.01000001                0.13869843               -1.12218594                0.11233824                1.58977375                0.09050573               -0.07085816
               4.96126422                7.95570837               79.10398058                0.01000000                0.04155686               -0.44315453                0.11431599                2.19741081                0.12244453               -0.01025040
               5.96062137                7.96808167               79.10929926                0.01000002               -0.03044644               -0.21286945                0.11714315                2.07032253                0.14713943                0.01877054
               6.96065529                7.97764766               79.11468297                0.01000000                0.06439931               -0.15903820                0.12001156                1.85288307                0.16057265                0.05478641
               7.96190936                7.98370136               79.12024037                0.01000001                0.07543779               -0.07156684                0.12539672                1.67242304                0.14672897                0.13291309
               8.96216405                7.98400939               79.12543319                0.01000007               -0.11252525                0.31744404                0.13271031                1.25838603                0.08599179                0.31760938
               9.95965885                7.97351663               79.12997368                0.01000002               -0.25051991                0.82860822                0.14486359                0.77364353                0.04818574                0.33840954
              -0.02863894                8.96727801               79.08279690                0.99999999               -0.03268666               -0.04406411                0.11192392                0.00115538                0.00015970               -0.00003235
               0.97103419                8.95815349               79.08699396                0.99999999               -0.03337282               -0.03085246                0.11058758               -0.00066622                0.00107621               -0.00482061
               1.97069360                8.94911543               79.09119392                0.99999999               -0.03265408               -0.03258711                0.11033394                0.00233987                0.00224299               -0.00291041
               2.97038111                8.94018270               79.09540583                0.99982270               -0.03276533               -0.31928919                0.11597915                0.14882139                0.00284339               -0.02850392
               3.97003830                8.93128643               79.09961080                0.01000002               -0.06466270               -0.71863072                0.11929374                1.55368800                0.12634867               -0.06024213
               4.96908786                8.95211856               79.10627458                0.01003207               -0.16306091               -0.19028195                0.11931852                1.88580419                0.22635681               -0.01729446
               5.96677708                8.96640854               79.11224526                0.01000001               -0.06401746               -0.13585804                0.12201597                1.26582437                0.20489934               -0.00094841
               6.96780751                8.97584010               79.11825356                0.01000001                0.29291745               -0.21049395                0.12730136                1.04235597                0.22362555                0.02798304
               7.97263543                8.98226618               79.12460880                0.01000002                0.60437969               -0.26768162                0.13485576                1.09633319                0.32055984                0.08639361
               8.97989510                8.98735105               79.13270791                1.00000000                0.33924352                0.14369607                0.14393401                1.14572901                0.19104043                0.21226983
               9.97942030                8.98501141               79.13683869                0.99999999               -0.04748040                0.54606650                0.17565194                0.87144363               -0.00748132                0.17692603
              -0.01955244                9.96688667               79.08444778                1.00000000               -0.03776657               -0.03913380                0.12441114                0.00075249                0.00593366                0.00282310
               0.98006989                9.95780769               79.08865371                1.00000000               -0.03824453               -0.03458008                0.12383771               -0.00182592                0.00872324               -0.00129463
               1.97968267                9.94877875               79.09290064                1.00000000               -0.03871071               -0.03366789                0.12135730               -0.00019019                0.01250875               -0.00151318
               2.97929568                9.93982576               79.09717860                0.99999998               -0.03772702               -0.03569384                0.12070823               -0.00111124                0.01169956                0.00081562
               3.97892813                9.93092739               79.10140728                0.05603984               -0.77187425               -0.03590411                0.12203338                1.49283157                0.15472641               -0.00096311
               4.96385820                9.95190273               79.10852365                0.01000000               -0.83559070               -0.02158332                0.12712322                1.19888968                0.29792635               -0.01874595
               5.96221632                9.96536451               79.11508397                0.01000003                0.08932913               -0.10440327                0.13074964                0.62067598                0.26488207               -0.00587734
               6.96564478                9.97343778               79.12145534                0.01000000                0.50543778               -0.24023266                0.13921809                0.43288762                0.27511570                0.01327315
               7.97232507                9.97834773               79.12835851                0.01000001                0.83443102               -0.39184533                0.14980856                0.64124082                0.31997960                0.06411503
               8.98233340                9.98688331               79.13588477                0.99999999                0.47209689               -0.04677436                0.17141340                0.54834128                0.17683649                0.00706402
               9.98176701                9.98443796               79.14001555                0.99999991               -0.05663896               -0.05734500                0.20313136               -0.00986394                0.00716926               -0.00716756
              -0.11986467               -0.03146494               80.06296756                1.00000000               -0.01447505               -0.01821665                0.09568429               -0.00350389                0.00811749               -0.00651714
               0.87999058               -0.03620671               80.06583346                1.00000000               -0.00108784               -0.03240809                0.07834760                0.00454924                0.01279606                0.00301825
               1.88011357               -0.04036788               80.06877306                0.52984106                0.08571974               -0.01003048                0.05325909                0.12421721                0.03265232                0.00363813
               2.88170497               -0.04121072               80.07193082                0.43244807                0.13817237                0.02133171               -0.03683471                0.09981146               -0.00750367                0.00770417
               3.88287702               -0.03703757               80.07471060                0.34264489               -0.01781654                0.05084329               -0.00578900                0.07907470               -0.03127715               -0.01654163
               4.88134864               -0.02921344               80.07765092                0.46587995               -0.17235246                0.03752790                0.05573753                0.10174423                0.02083903               -0.00608159
               5.87942997               -0.02355826               80.08041023                1.00000000               -0.12529237               -0.00814164                0.06884257                0.10670621               -0.01421758                0.00550469
               6.87884279               -0.02033168               80.08273284                1.00000000               -0.05906089               -0.02261340                0.09861784                0.00984109               -0.03145512               -0.00599588
               7.87824875               -0.01766960               80.08498527                1.00000000               -0.05315005               -0.02733913                0.10648109                0.00192873               -0.02487441               -0.00027311
               8.87777979               -0.01533250               80.08742435                0.99999999               -0.04043967               -0.03029541                0.10151629               -0.00212910               -0.01215649               -0.00020225
               9.87743996               -0.01304308               80.08995733                1.00000000               -0.03398351               -0.03142668                0.10052252               -0.00255957               -0.00860850               -0.00860162
              -0.11515794                0.96835289               80.06499883                1.00000000               -0.03545209               -0.00981218                0.09135066                0.00427044               -0.00475964               -0.00845738
               0.88448754                0.96346920               80.06784828                0.01000000               -0.04921587               -0.04385689                0.07793212                0.05075965               -0.01122047                0.01478854
               1.88385774                0.95953181               80.07059836                0.01000000               -0.17248045                0.02694283                0.06764542                0.05524895                0.00126635                0.02337274
               2.88103793                0.95900260               80.07386194                0.08276849               -0.30943085                0.06084565                0.09310757               -0.10764688                0.06799835                0.10802484
               3.87766913                0.96347086               80.07746959                0.01003716               -0.27057514                0.01529228                0.07836919                0.29671469                0.14402519               -0.00882674
               4.87562643                0.97116184               80.08127426                0.01000000               -0.08064889               -0.11382022                0.00370552                0.55652685                0.07204472                0.02774094
               5.87605615                0.97636032               80.08409473                0.01000001                0.01852209               -0.15534852                0.03526888                0.36370734                0.01127210                0.02170521
               6.87599687                0.97944219               80.08650627                0.02277683               -0.01438492                0.00153976                0.08525572                0.01109589               -0.01456806               -0.12542563
               7.87576845                0.98205701               80.08887572                0.99999999               -0.02758146               -0.02994484                0.10794452                0.00706923               -0.00674858                0.00206233
               8.87544524                0.98436455               80.09138951                0.99999999               -0.03217572               -0.03210456                0.10676338               -0.00298476                0.00221883                0.00450932
               9.87512494                0.98664266               80.09393390                1.00000000               -0.03203050               -0.03297235                0.10598830               -0.00337243                0.00297630               -0.00792022
              -0.11001189                1.96833881               80.06699875                0.57353762               -0.01612602                0.02414768                0.08125227                0.05002932                0.00104853               -0.01353235
               0.88982685                1.96291615               80.07007307                0.01000000               -0.21514784               -0.10347263                0.07395863                0.20333588               -0.01851547                0.05297113
               1.88568515                1.96017097               80.07276476                0.01000001               -0.71069320                0.01984359                0.21065070                0.44893744               -0.04357017                0.16009050
               2.87561299                1.96000620               80.07785184                0.01000000               -0.45165402                0.05217751                0.07531984                0.81630875               -0.46531926                0.08479056
               3.87665207                1.96326827               80.08054089                0.01000000                0.19883658               -0.07414011               -0.04621814                1.11016538               -0.24250147                0.11020806
               4.87958972                1.96851016               80.08559008                0.01000001                0.08858457               -0.22931856                0.00745007                1.16135448                0.04900105                0.02292757
               5.87842377                1.97333477               80.08821009                0.01000002               -0.31108499               -0.19620101                0.06953402                1.03268871               -0.11543593                0.03750325
               6.87336802                1.97969912               80.08782438                0.01000002               -0.24779923               -0.12411109                0.15121099                0.71358966                0.06615927               -0.01003429
               7.87346778                1.98173151               80.09276521                0.01000000               -0.01167830               -0.18196187                0.11653046                0.27945928                0.14017402               -0.01392791
               8.87313445                1.98402541               80.09543133                0.99595804               -0.03257486               -0.03448281                0.11157763                0.00003737                0.01873494                0.01957344
               9.87281628                1.98629748               80.09793147                1.00000000               -0.03181690               -0.03503632                0.10901611               -0.00214656                0.01003591               -0.00575711
              -0.10331202                2.96883585               80.06900558                0.30505642                0.00341182                0.09080664                0.04648364                0.15784872                0.00013519               -0.00350207
               0.89672210                2.96139975               80.07272913                0.01000000               -0.04707689               -0.26453731                0.06945676                0.49014618                0.02073630                0.17443931
               1.89574644                2.95992868               80.07704835                0.01000000               -0.12276463               -0.13061422                0.13247054                1.05818559                0.02842368                0.24466761
               2.89426681                2.96004615               80.08094644                0.01000000               -0.21889845               -0.07427287                0.12034054                1.63700781                0.09123496                0.12970646
               3.89136848                2.96198806               80.08521884                0.01008586               -0.27398914               -0.10190066                0.08368010                1.68792414                0.07006070                0.08738795
               4.88878702                2.96657547               80.08888304                0.01000000               -0.29237577               -0.13293531                0.06797321                1.58266510                0.04106964                0.00209827
               5.88552096                2.97243630               80.09204624                0.01000000               -0.34575514               -0.08561439                0.08402579                1.44786774                0.07168011                0.02508287
               6.88187192                2.97695997               80.09510112                0.01000000               -0.42448063               -0.15039099                0.08905036                1.20939099                0.03950116                0.16702194
               7.87703135                2.97841778               80.09626428                0.01000001               -0.54959520               -0.07663620                0.25302993                0.80537714                0.27558706               -0.05095491
               8.87088002                2.98367489               80.09966511                0.89195523               -0.32467411               -0.03573651                0.11842421                0.15013683                0.05676165                0.02221436
               9.87053787                2.98594193               80.10193089                0.99999999               -0.03421527               -0.03498217                0.11215713               -0.00110209               -0.00198008               -0.00552616
              -0.09198273                3.97015495               80.07183180                0.23508554                0.05196643                0.03554850                0.00094564                0.11088024               -0.00459093                0.12516651
               0.90853694                3.95762540               80.07638975                0.01000000                0.00925975               -0.29645324                0.05495803                0.75073832               -0.02282454                0.21478770
               1.90820247                3.95755869               80.08066242                0.01000000               -0.11215837               -0.21288727                0.10123214                1.32210951                0.04037046                0.15638446
               2.90629377                3.95852074               80.08477364                0.01007565               -0.21606139               -0.17292797                0.10878210                1.42169571                0.06013529                0.12602094
               3.90388124                3.96123026               80.08874945                0.01000000               -0.27494955               -0.12887429                0.10004527                1.65023536                0.07484675                0.06773259
               4.90079478                3.96585145               80.09257612                0.01000000               -0.34423097               -0.09802681                0.09228330                1.81642813                0.07559902                0.03917862
               5.89699662                3.97162248               80.09617659                0.01000000               -0.46102081               -0.06725836                0.09414897                1.83924976                0.06650965                0.04027585
               6.89157436                3.97669130               80.09925605                0.01000000               -0.70681088                0.01200735                0.11484513                1.68124737                0.06639207                0.02055649
               7.88286040                3.98019878               80.10205326                0.01004582               -1.14806647                0.17341397                0.10844751                1.54606564               -0.03297313                0.13018146
               8.86861303                3.98331068               80.10371364                0.01000002               -0.73001232               -0.11290723                0.12487403                1.61673296               -0.01798140                0.12124584
               9.86826016                3.98559783               80.10592164                0.01546754               -0.03528767               -0.91323262                0.11679740                1.62345798                0.00449475                0.14034966
              -0.07603532                4.96954682               80.07597431                0.26165178                0.03684466               -0.15453092                0.03048456                0.10054551               -0.02565058                0.18919566
               0.92433313                4.95547069               80.07980509                0.01000000               -0.13356911               -0.04861187                0.01127411                0.78035919               -0.00566178                0.11358886
               1.92129330                4.95567094               80.08398734                0.01000001               -0.26519871               -0.17692318                0.07440328                1.34407552                0.02459361                0.10246981
               2.91902915                4.95658759               80.08805505                0.01000000               -0.21254124               -0.24092684                0.09715482                1.46630270                0.04413435                0.08067750
               3.91704247                4.95941057               80.09213140                0.01000000               -0.21528914               -0.24568984                0.10270853                1.74740474                0.06698376                0.05707251
               4.91472337                4.96461493               80.09615398                0.01000000               -0.27881832               -0.18331535                0.10115185                2.02638810                0.07333006                0.04217015
               5.91146611                4.97109113               80.10000852                0.01000002               -0.39014023               -0.08967894                0.10487611                2.17177638                0.06896814                0.03278411
               6.90692056                4.97720011               80.10366763                0.01000002               -0.50664120                0.00262693                0.11069209                2.22634356                0.03654889                0.07098561
               7.90133328                4.98188605               80.10689315                0.01000000               -0.45524690                0.03480479                0.11419500                2.20519486                0.01475688                0.10920300
               8.89781563                4.98141674               80.10995119                0.01001317               -0.14502849               -0.27266480                0.11695001                1.92808613                0.00908460                0.19892427
               9.89843271                4.96767728               80.11288761                0.01000000                0.06170857               -1.08850016                0.11904382                1.26586097                0.00201701                0.29614371
              -0.06181956                5.96706433               80.07900454                0.76968615               -0.01604410               -0.15382192                0.07459590                0.18120766                0.01904488                0.00215806
               0.93802000                5.95665316               80.08264944                0.01000001               -0.21066828                0.06367200                0.04983773                0.53997286                0.03120524                0.07908784
               1.93396707                5.95402022               80.08674595                0.01000002               -0.30699041               -0.19464443                0.06769506                1.03767987                0.03444308                0.04617951
               2.93188019                5.95370220               80.09096984                0.01000000               -0.15825398               -0.36426513                0.09247911                1.36946771                0.05315685                0.03992570
               3.93080199                5.95631646               80.09522660                0.01000000               -0.11191052               -0.40100553                0.10292686                1.77083426                0.06657396                0.03707493
               4.92964198                5.96218514               80.09949710                0.01000002               -0.14775150               -0.32089165                0.10698330                2.14984844                0.07182723                0.02976063
               5.92784696                5.96982890               80.10373355                0.01000000               -0.21678346               -0.17392492                0.10824627                2.33431264                0.06675022                0.03264863
               6.92530631                5.97674384               80.10785879                0.01000000               -0.25496470               -0.07546400                0.11371670                2.34012007                0.05085124                0.07788165
               7.92274767                5.98089488               80.11179525                0.01000001               -0.19613899               -0.08380080                0.11796917                2.07968038                0.03874035                0.11362256
               8.92138353                5.97785738               80.11549042                0.01000000               -0.08456823               -0.19467109                0.12198233                1.29447779                0.01718236                0.18658563
               9.92105631                5.96382783               80.11899062                0.01000000               -0.03272250               -0.12416452                0.12274330                0.63423487                0.00154119                0.26859117
              -0.05158884                6.96647038               80.08060874                1.00000000               -0.02344753               -0.05453359                0.08949228                0.01741731               -0.00222743               -0.04110902
               0.94817669                6.95674413               80.08458356                0.01000002               -0.17066532                0.00021197                0.07050347                0.25073508                0.01689629                0.00516865
               1.94499786                6.95177805               80.08899812                0.01003584               -0.20272093               -0.31817380                0.08088399                0.80328219                0.04929143               -0.00331375
               2.94412227                6.94930229               80.09339537                0.01000000               -0.05108195               -0.47272262                0.09574407                1.10980572                0.05848659                0.00244880
               3.94397622                6.95139046               80.09793657                0.01000000                0.00428161               -0.65595250                0.10698497                1.69434691                0.07775752                0.00446303
               4.94420790                6.95819710               80.10255715                0.01000002               -0.01912771               -0.45726538                0.11341286                2.19416924                0.09579824               -0.00000408
               5.94359366                6.96761263               80.10724231                0.01000000               -0.07754578               -0.23581077                0.11418496                2.31622217                0.10664793                0.01697687
               6.94265699                6.97569084               80.11193110                0.01001747               -0.08901589               -0.11706031                0.11446658                2.20026451                0.10107285                0.07150449
               7.94181335                6.98021004               80.11658877                0.01000000               -0.09423778               -0.02847568                0.12023673                1.84970463                0.07875293                0.12618364
               8.94077223                6.97752332               80.12099090                0.01000001               -0.13184174                0.13449049                0.12709711                1.08169214                0.04007818                0.20929288
               9.93917651                6.96519399               80.12501525                0.01000000               -0.15957193                0.31916045                0.13435707                0.48781283                0.01917362                0.29571038
              -0.04201871                7.96597366               80.08222541                0.99999998               -0.02542575               -0.04697508                0.10027963                0.00642335               -0.00428303               -0.02622580
               0.95772703                7.95665740               80.08633493                0.99999999               -0.02533647               -0.01746725                0.09417218                0.01791652               -0.00416665               -0.00799611
               1.95747456                7.94765675               80.09045255                0.01000000               -0.16315674               -0.22179869                0.09547817                0.45539969                0.03087364               -0.01676973
               2.95446389                7.94424775               80.09527188                0.01000001               -0.08402166               -0.54588836                0.10488064                0.88102478                0.08051154               -0.04018828
               3.95579412                7.94319741               80.10008049                0.01001192                0.14196494               -1.09643048                0.11240278                1.53393792                0.09376448               -0.07589263
               4.95730319                7.95303983               80.10511209                0.01000000                0.04417742               -0.42873366                0.11419719                2.13532689                0.12081565               -0.02477032
               5.95667767                7.96511268               80.11048741                0.01000001               -0.02944983               -0.20992234                0.11910863                2.02830668                0.13453439                0.00586042
               6.95671420                7.97440263               80.11587771                0.01000000                0.06158021               -0.15153614                0.12085870                1.81659311                0.14618835                0.05290548
               7.95790928                7.98032537               80.12149595                0.01000001                0.06596141               -0.06200629                0.12617074                1.64136363                0.13559678                0.12019542
               8.95803342                7.98054719               80.12678242                0.01000546               -0.12190229                0.32936231                0.13547204                1.23227224                0.08194661                0.30615499
               9.95547123                7.97021104               80.13151065                0.01000002               -0.25621939                0.82141989                0.15083547                0.76036777                0.05035540                0.34431732
              -0.03282786                8.96553088               80.08390307                0.99999999               -0.03202110               -0.04082622                0.10808419                0.00107655               -0.00024537               -0.01255851
               0.96685193                8.95639478               80.08808900                0.99999999               -0.03283168               -0.02989838                0.10811334               -0.00037908                0.00138552               -0.00556001
               1.96651550                8.94734208               80.09229145                0.99999999               -0.03249126               -0.03234254                0.10931025                0.00201057                0.00545350                0.00136744
               2.96620210                8.93838452               80.09654573                1.00000000               -0.03263065               -0.31063668                0.11464619                0.13980726                0.00592317               -0.02711111
               3.96586289                8.92946185               80.10076145                0.01000002               -0.06014669               -0.70426412                0.11716082                1.51113543                0.12784314               -0.05702911
               4.96499917                8.94962243               80.10746235                0.01010261               -0.15329455               -0.17876268                0.11788686                1.82940147                0.22083077               -0.02228339
               5.96279700                8.96341419               80.11346995                0.01000000               -0.06115010               -0.13663078                0.12382255                1.23488020                0.19605688               -0.00671784
               6.96377617                8.97266011               80.11953230                0.01000001                0.28495289               -0.20495492                0.12917907                1.02575972                0.21273343                0.02395757
               7.96849606                8.97896991               80.12596154                0.01000002                0.58779172               -0.25865868                0.13617210                1.08700005                0.30542301                0.07934823
               8.97553200                8.98411057               80.13415352                1.00000000                0.32800556                0.15462632                0.14518212                1.13668627                0.18029875                0.20350557
               9.97505617                8.98162239               80.13859208                0.99988961               -0.04758309                0.54205135                0.17502831                0.85508733               -0.00747680                0.17417201
              -0.02372500                9.96515713               80.08567762                1.00000000               -0.03667567               -0.03737423                0.11987268                0.00051681                0.00016061               -0.00524360
               0.97590825                9.95605944               80.08988098                1.00000000               -0.03749873               -0.03353462                0.12058058               -0.00172979                0.00294006               -0.00251890
               1.97552503                9.94700990               80.09411031                0.99999999               -0.03839917               -0.03321773                0.11973810               -0.00026858                0.00636125                0.00067369
               2.97514026                9.93803502               80.09836172                0.99999997               -0.03730503               -0.03495052                0.11855960               -0.00107230                0.00642795                0.00005800
               3.97477893                9.92911213               80.10258092                0.05222464               -0.76006885               -0.03497215                0.11917443                1.46308189                0.15512869               -0.00055470
               4.95993889                9.94946458               80.10980759                0.01000000               -0.82206695               -0.01578441                0.12560719                1.15736872                0.29945533               -0.01791198
               5.95833759                9.96238007               80.11637212                0.01000001                0.08673888               -0.10341189                0.12847672                0.59600643                0.25927336               -0.00900412
               6.96167366                9.97030353               80.12284756                0.01000000                0.49306157               -0.23565790                0.13965956                0.42835598                0.27075202                0.01213821
               7.96819882                9.97515219               80.12985788                0.01000003                0.82205061               -0.38177211                0.15063937                0.63708545                0.31454896                0.06191731
               8.97811468                9.98363972               80.13760200                0.99999999                0.46752601               -0.04708504                0.17203602                0.55326131                0.17234257                0.00706299
               9.97754934                9.98105207               80.14204056                0.99999991               -0.05653353               -0.05703195                0.20188221               -0.00944800                0.00716531               -0.00716707
              -0.12256378               -0.03351720               81.06392617                1.00000000               -0.01554617               -0.01933122                0.09301693               -0.00301589                0.00522724               -0.00227392
               0.87728076               -0.03815343               81.06659980                0.97051904               -0.00398404               -0.02993879                0.07644109                0.00403403                0.00192428                0.00894311
               1.87735654               -0.04227445               81.06924667                0.45310686                0.06764671               -0.01042305                0.05357097                0.10034529               -0.01771548                0.00453324
               2.87863370               -0.04366425               81.07171437                0.32968616                0.11920528                0.01787384                0.00245664                0.08880934               -0.04351103                0.02067924
               3.87974065               -0.04040327               81.07458750                0.23296917                0.00149080                0.04632192               -0.00920471                0.12201182                0.01887664               -0.01677786
               4.87866351               -0.03269466               81.07814972                0.30909972               -0.16076955                0.04059306                0.04741207                0.10640561                0.06436604               -0.02253649
               5.87652526               -0.02693353               81.08115095                1.00000000               -0.13002215               -0.01676999                0.07884148                0.13262748               -0.02293606                0.01703204
               6.87606307               -0.02405043               81.08368907                1.00000000               -0.04848450               -0.02306081                0.09368978                0.00509469               -0.04365498               -0.00481206
               7.87555557               -0.02154904               81.08603137                0.99999998               -0.04709746               -0.02587985                0.10097521                0.00298848               -0.04051628                0.00214261
               8.87512112               -0.01932682               81.08843701                0.99999999               -0.03858714               -0.02952182                0.09948250               -0.00058500               -0.02555952               -0.00029703
               9.87478383               -0.01715934               81.09097830                0.99999327               -0.03372950               -0.03137646                0.10141448               -0.00167062               -0.01740050               -0.01427173
              -0.11795770                0.96628949               81.06592084                1.00000000               -0.03425727               -0.01376811                0.09105311                0.00251189                0.00026773               -0.00660539
               0.88169973                0.96154718               81.06862198                0.01000000               -0.04634495               -0.03710800                0.07667378                0.04177833                0.00124453                0.01786919
               1.88111541                0.95762132               81.07128229                0.01000000               -0.15567653                0.03285197                0.06766028                0.01420482                0.04787421                0.12901452
               2.87858620                0.95651449               81.07469502                0.01000000               -0.28197174                0.01186963                0.07305753               -0.18477344                0.13789747                0.00303796
               3.87547597                0.96005994               81.07820756                0.01003443               -0.27967513                0.05508241                0.06961604                0.24551297                0.12876991               -0.09462893
               4.87299270                0.96771127               81.08138524                0.01000000               -0.09732751               -0.11067129                0.02506905                0.55130124                0.04551350                0.00627141
               5.87352942                0.97289877               81.08453117                0.01000001                0.02145367               -0.16068085                0.05623151                0.39426421                0.04172479                0.05109481
               6.87342177                0.97571896               81.08726862                0.01000004               -0.01528873               -0.06554347                0.07797849                0.09842518                0.00952462               -0.03918769
               7.87322365                0.97819216               81.08990819                1.00000000               -0.02506765               -0.02759244                0.10036888                0.00878371                0.00085129                0.00708451
               8.87292042                0.98037796               81.09245050                0.99999999               -0.03120020               -0.03082734                0.10434632               -0.00183999               -0.00127828                0.00344072
               9.87259964                0.98252690               81.09500674                1.00000000               -0.03207771               -0.03224159                0.10660869               -0.00294172                0.00015369               -0.01497511
              -0.11302891                1.96620744               81.06785194                0.56234884               -0.01865863                0.00623060                0.08817539                0.03068651                0.00172545               -0.02268158
               0.88678451                1.96110441               81.07077109                0.01000000               -0.21488799               -0.06913167                0.06921566                0.16178476                0.10791620                0.05281354
               1.88267333                1.95838259               81.07587576                0.01000001               -0.71424525                0.01946970                0.19892323                0.33046633                0.17861034                0.13576394
               2.87249960                1.95657314               81.07749551                0.01000000               -0.46096044                0.05020130                0.08676045                0.74481637                0.52151143                0.12275846
               3.87345412                1.96069837               81.08033189                0.01000000                0.21755579               -0.05863364                0.06289855                1.07490503                0.45721108                0.06668965
               4.87685072                1.96509192               81.08513459                0.01000001                0.14743666               -0.21970573               -0.00302567                1.11283521                0.23067452                0.07403619
               5.87640286                1.96985285               81.08874857                0.01000002               -0.20562668               -0.21121048                0.04900234                0.96509674                0.04133244                0.07491803
               6.87273818                1.97463870               81.09018863                0.01000001               -0.26653090               -0.15013070                0.24293510                0.70874281                0.15865204               -0.03649726
               7.87107224                1.97789911               81.09387105                0.01000000               -0.09942994               -0.15921809                0.10744736                0.31837707                0.07703544                0.03116062
               8.87074958                1.98005664               81.09652549                0.99999999               -0.03225545               -0.03185653                0.10867364                0.00099037                0.01787695                0.02363008
               9.87042713                1.98219583               81.09901269                0.99999999               -0.03224547               -0.03390471                0.10891470               -0.00202795                0.00964017               -0.00940620
              -0.10713789                2.96641410               81.06966546                0.24487926               -0.01018254                0.09301849                0.08110378                0.18597486               -0.00142338               -0.03046376
               0.89276028                2.96016454               81.07328135                0.01000000               -0.03030554               -0.23382841                0.05324472                0.42274352                0.05875874                0.16855917
               1.89225600                2.95801071               81.07834035                0.01000000               -0.07967705               -0.14307590                0.11432151                0.94959361                0.14738417                0.05541579
               2.89116674                2.95751851               81.08235637                0.01000000               -0.19003508               -0.02473025                0.10622409                1.56168581                0.07475729                0.13749439
               3.88845530                2.95888727               81.08583270                0.01000002               -0.25359073               -0.11471303                0.06620884                1.65430273                0.10092665                0.19629505
               4.88609493                2.96331716               81.08939644                0.01000000               -0.25853611               -0.12073120                0.05725188                1.54130692                0.10543128                0.11577696
               5.88328457                2.96867456               81.09275917                0.01000000               -0.32722785               -0.08924604                0.07606267                1.36437247                0.08716912                0.05891251
               6.87955037                2.97271635               81.09578274                0.01000000               -0.45556619               -0.08640763                0.07923420                1.13217353                0.01545716                0.11777152
               7.87417325                2.97500780               81.09818527                0.01000001               -0.54534319               -0.07094890                0.16646783                0.82839419               -0.00026100                0.10720414
               8.86864351                2.97974083               81.10092667                0.99999999               -0.29462759               -0.03383737                0.11936173                0.13229524                0.02446331                0.03424876
               9.86828070                2.98184880               81.10314489                0.99999999               -0.03628083               -0.03558352                0.11560804               -0.00257912               -0.00079915               -0.00034161
              -0.09681029                3.96806781               81.07194754                0.17317727                0.04530605                0.07691190                0.03559879                0.18727333                0.01578711                0.11190841
               0.90364277                3.95642784               81.07682563                0.01000001                0.05607636               -0.33470169                0.03957308                0.74850455                0.00257177                0.22151827
               1.90431124                3.95552107               81.08167440                0.01000000               -0.03930070               -0.22125657                0.08923525                1.24220912                0.06006335                0.10268582
               2.90285676                3.95607854               81.08577378                0.01000002               -0.17848520               -0.16898394                0.09460941                1.35851025                0.06290243                0.08018823
               3.90074153                3.95840411               81.08967051                0.01000000               -0.24835929               -0.10893809                0.08630488                1.58985124                0.07085237                0.08482616
               4.89788957                3.96267729               81.09340042                0.01000000               -0.32252069               -0.08811515                0.08217637                1.75239573                0.08058510                0.08305988
               5.89429112                3.96806793               81.09700908                0.01000000               -0.44205776               -0.05137951                0.08406185                1.76516066                0.07234527                0.07284287
               6.88904841                3.97291055               81.10030962                0.01000002               -0.68377422                0.04880990                0.10121075                1.63728575                0.04720564                0.07937027
               7.88061563                3.97648013               81.10312671                0.01017310               -1.12469652                0.15575375                0.11784347                1.52964633                0.00357147                0.11924440
               8.86655448                3.97937989               81.10519776                0.01000001               -0.72280111               -0.11270991                0.13081269                1.56482979                0.00327377                0.10924992
               9.86615961                3.98148416               81.10732682                0.05374493               -0.03948723               -0.88751745                0.12524315                1.57239896                0.00751301                0.12937805
              -0.08011248                4.96795234               81.07625815                0.19176989                0.03895933               -0.16713767                0.03993437                0.13490506               -0.02900896                0.22335396
               0.92027712                4.95347051               81.08007433                0.01000000               -0.12190210               -0.07090623                0.03962890                0.83102445                0.01548854                0.12134456
               1.91744948                4.95358558               81.08474804                0.01000001               -0.24116076               -0.17963308                0.07638630                1.33088067                0.06475716                0.07504930
               2.91545390                4.95413883               81.08900217                0.01000000               -0.18979590               -0.23797890                0.09034632                1.42451990                0.06249602                0.05338198
               3.91365356                4.95670851               81.09309831                0.01000000               -0.19874380               -0.23276683                0.09377167                1.69248041                0.06760186                0.05836870
               4.91147903                4.96155485               81.09710870                0.01000000               -0.26495150               -0.17162460                0.09456602                1.95459543                0.06989906                0.05584974
               5.90835453                4.96764697               81.10101489                0.01000003               -0.37975709               -0.08066461                0.09945701                2.10464019                0.06895293                0.05340018
               6.90388388                4.97369254               81.10472898                0.01010429               -0.50288501                0.03007850                0.10623411                2.15284419                0.05205324                0.07662952
               7.89829683                4.97812287               81.10802495                0.01000000               -0.44739049                0.03074874                0.11667826                2.12252090                0.02894212                0.10999478
               8.89493607                4.97748664               81.11107310                0.01000526               -0.13883475               -0.26276162                0.11944009                1.86900185                0.01822172                0.18505992
               9.89552014                4.96409845               81.11404450                0.01000000                0.05840641               -1.05375633                0.11814833                1.23254313                0.00675437                0.28982519
              -0.06514853                5.96472506               81.07977420                0.81431832               -0.02214523               -0.18058800                0.07447494                0.25999334                0.01798254                0.02898518
               0.93463002                5.95500971               81.08333788                0.01000001               -0.22954736                0.07173267                0.07569442                0.55936452                0.04294832                0.08925271
               1.93026053                5.95192841               81.08747062                0.01012121               -0.32028994               -0.18498402                0.07708313                0.99922814                0.05762740                0.03963351
               2.92822422                5.95131896               81.09186984                0.01000000               -0.15427038               -0.35047926                0.09081535                1.33019546                0.07157322                0.02410050
               3.92717512                5.95374878               81.09621930                0.01000000               -0.10906005               -0.38714966                0.09891239                1.72026475                0.06934598                0.03628656
               4.92604302                5.95924480               81.10054900                0.01000003               -0.14644425               -0.30941371                0.10395694                2.08791822                0.06896687                0.03594612
               5.92424623                5.96645464               81.10479975                0.01000000               -0.22068138               -0.16976790                0.10875226                2.29908534                0.06452626                0.03623068
               6.92162939                5.97351212               81.10897825                0.01000000               -0.24871368               -0.06302533                0.11277466                2.29005571                0.05124096                0.07612281
               7.91927196                5.97709510               81.11296489                0.01000001               -0.18352269               -0.08011912                0.11772042                2.01898317                0.04141726                0.10916132
               8.91795894                5.97412466               81.11671733                0.01000000               -0.08425597               -0.17953036                0.12215576                1.26477950                0.02211000                0.18251627
               9.91758684                5.96040903               81.12021656                0.01000000               -0.03720994               -0.11325155                0.12473625                0.61726485                0.00613417                0.27397416
              -0.05548192                6.96434058               81.08148793                1.00000000               -0.02570231               -0.03879777                0.08598450                0.00742020               -0.00122028               -0.04641300
               0.94426106                6.95490516               81.08534930                0.01000002               -0.16966412               -0.01251656                0.08119026                0.22627282                0.02780970                0.00784390
               1.94112480                6.94988590               81.08981780                0.01009242               -0.20118090               -0.30633209                0.08779497                0.76545822                0.06223163                0.00342202
               2.94023744                6.94712925               81.09432569                0.01000000               -0.04958919               -0.45307735                0.09547166                1.06639719                0.06997716               -0.00029028
               3.94013302                6.94896552               81.09899310                0.01000002                0.01470446               -0.63957570                0.10435912                1.64437636                0.07875576                0.00516397
               4.94053153                6.95536658               81.10368015                0.01007074               -0.00320454               -0.44685179                0.11085710                2.12583457                0.08678528                0.00774781
               5.94006893                6.96425161               81.10837576                0.01000000               -0.07435001               -0.22417003                0.11429418                2.26828288                0.09757719                0.01617639
               6.93904453                6.97243204               81.11310855                0.01001526               -0.10024845               -0.12037742                0.11962990                2.16050043                0.09433736                0.06491713
               7.93806396                6.97652049               81.11780162                0.01000002               -0.10633960               -0.01813013                0.12239588                1.79543051                0.07443397                0.11780711
               8.93691774                6.97389603               81.12227026                0.01000001               -0.13836355                0.14226079                0.12882177                1.05711359                0.03840080                0.20178040
               9.93529669                6.96183342               81.12636434                0.01000000               -0.16210529                0.32085601                0.13523834                0.47487244                0.01871285                0.29880758
              -0.04612929                7.96394910               81.08319460                0.99999999               -0.02605535               -0.03829804                0.09435770                0.00433890               -0.00211734               -0.03542441
               0.95361016                7.95475938               81.08727320                1.00000000               -0.02625540               -0.02044604                0.09418065                0.01325660                0.00044132               -0.00433510
               1.95334561                7.94580177               81.09141351                0.01000002               -0.15688063               -0.22004388                0.09754958                0.43595833                0.03924333               -0.01066829
               2.95047255                7.94225741               81.09629579                0.01000001               -0.07601464               -0.52893080                0.10400412                0.84738130                0.08967700               -0.03336953
               3.95182531                7.94095726               81.10121346                0.01012331                0.14005363               -1.06600482                0.11450704                1.47979436                0.09399108               -0.07690384
               4.95327362                7.95030776               81.10626453                0.01000000                0.03605608               -0.41945956                0.11889005                2.06392094                0.11121624               -0.01739577
               5.95254643                7.96197124               81.11168143                0.01000001               -0.03515489               -0.19310688                0.11978280                1.96780703                0.12599919                0.00331410
               6.95257052                7.97110457               81.11710014                0.01000002                0.05850720               -0.15413132                0.12320065                1.76436653                0.13568923                0.04667690
               7.95371658                7.97673250               81.12276379                0.01000001                0.06088784               -0.05146401                0.12657653                1.59620089                0.12605687                0.11042809
               8.95378828                7.97696987               81.12814263                0.01000002               -0.12535378                0.33527778                0.13664645                1.20232224                0.07914391                0.29854544
               9.95120950                7.96682615               81.13299039                0.01000002               -0.25787761                0.80657604                0.14906527                0.74047581                0.05143541                0.35211622
              -0.03701570                8.96357462               81.08495858                0.99999999               -0.03107741               -0.03582016                0.10246318                0.00082865               -0.00015950               -0.02050254
               0.96267353                8.95449624               81.08915623                0.99999998               -0.03191827               -0.02930202                0.10522578               -0.00018770                0.00225284               -0.00551012
               1.96234594                8.94548502               81.09338012                0.99999997               -0.03219798               -0.03236326                0.10881464                0.00189711                0.00911229                0.00505769
               2.96202957                8.93655063               81.09769875                0.99999999               -0.03336942               -0.30312310                0.11640124                0.13207402                0.01008902               -0.02237553
               3.96167855                8.92764542               81.10195402                0.01003580               -0.06167968               -0.68399486                0.12176625                1.45931383                0.12687253               -0.05291936
               4.96079598                8.94697739               81.10863232                0.01000001               -0.15251430               -0.17268821                0.12145528                1.77632648                0.21512299               -0.02269712
               5.95862826                8.96038947               81.11472171                0.01000000               -0.06126905               -0.12955737                0.12595130                1.20937023                0.18662422               -0.00461491
               6.95957059                8.96934941               81.12083714                0.01000001                0.27472030               -0.20272667                0.13103898                1.00526364                0.20208761                0.01999064
               7.96412267                8.97549121               81.12733224                0.01000002                0.56499696               -0.24695611                0.13864297                1.06985976                0.29483538                0.07525744
               8.97087053                8.98060158               81.13561155                0.99997989                0.31354866                0.15788651                0.14642261                1.11415127                0.17020890                0.19512149
               9.97039364                8.97796494               81.14033926                0.99999999               -0.04768916                0.52857545                0.17441705                0.82752076               -0.00747359                0.17427553
              -0.02795596                9.96323270               81.08684524                0.99999916               -0.03480372               -0.03419213                0.11258652                0.00003817               -0.00438999               -0.01119897
               0.97169601                9.95417334               81.09106532                1.00000000               -0.03574423               -0.03229016                0.11558232               -0.00166228               -0.00179418               -0.00303111
               1.97132916                9.94515450               81.09529540                1.00000000               -0.03711887               -0.03305213                0.11725494               -0.00059753                0.00163348                0.00257908
               2.97095363                9.93619495               81.09954979                0.99999997               -0.03721632               -0.03556838                0.11934399               -0.00145078                0.00305403               -0.00049818
               3.97058483                9.92727737               81.10379077                0.05615416               -0.74487649               -0.03680552                0.12305959                1.42358091                0.15191858                0.00029979
               4.95605610                9.94685400               81.11103579                0.01000000               -0.81115070               -0.01233894                0.12525682                1.13114849                0.30556866               -0.02161376
               5.95436182                9.95938009               81.11765351                0.01000000                0.07589797               -0.10093828                0.13160500                0.58315718                0.26339596               -0.00650980
               6.95757406                9.96705003               81.12424853                0.01000000                0.47498912               -0.22993771                0.13990153                0.42101092                0.27015847                0.00993247
               7.96386160                9.97179338               81.13137130                0.01000004                0.80117565               -0.36978285                0.15506128                0.62777157                0.31648371                0.06272967
               8.97359757                9.98012760               81.13932549                0.99997426                0.45858006               -0.04739818                0.17266805                0.55291774                0.16838889                0.00706290
               9.97303320                9.97739766               81.14405319                0.99978572               -0.05643694               -0.05672817                0.20066252               -0.00903822                0.00716268               -0.00716664
              -0.12510739               -0.03549975               82.06482790                1.00000000               -0.01840428               -0.02052256                0.08523161               -0.00199316                0.00326213                0.00167376
               0.87470857               -0.04007221               82.06736228                0.93492007               -0.01239575               -0.02724918                0.07626231                0.00180518               -0.00135247                0.00890036
               1.87464470               -0.04434847               82.06984447                0.38554034                0.03926734               -0.01685235                0.06783711                0.07543638               -0.03284471                0.00379251
               2.87549392               -0.04675845               82.07197995                0.22851447                0.10872488                0.00406639                0.06257091                0.12442948               -0.07714122                0.02676218
               3.87681920               -0.04461326               82.07452651                0.15162809                0.02892945                0.04471481                0.02599688                0.20467361                0.03892808                0.00047130
               4.87607251               -0.03613521               82.07859916                0.19106024               -0.16936507                0.04376075                0.05210280                0.14581832                0.12706723               -0.04537318
               5.87343189               -0.02997806               82.08198706                0.99917218               -0.14916115               -0.02373437                0.08465392                0.18494688               -0.00770704                0.02083512
               6.87308928               -0.02758701               82.08460664                1.00000000               -0.03707022               -0.02541085                0.09012658                0.00199013               -0.04879645               -0.00437554
               7.87269049               -0.02538039               82.08700477                1.00000000               -0.03838093               -0.02605928                0.09454218                0.00238900               -0.05056602                0.00506623
               8.87232166               -0.02336543               82.08941400                1.00000000               -0.03405658               -0.02896915                0.09504982               -0.00030399               -0.03597103               -0.00019352
               9.87200936               -0.02138538               82.09198562                0.99999998               -0.03123061               -0.03058453                0.09769835               -0.00137729               -0.02505060               -0.01967713
              -0.12055486                0.96429502               82.06681989                0.99999999               -0.02941550               -0.01798443                0.08696160                0.00061295                0.00277184               -0.00129765
               0.87915098                0.95965530               82.06938175                0.01000000               -0.03514759               -0.03073744                0.07632087                0.02203830                0.00743780                0.01411738
               1.87874218                0.95548301               82.07195157                0.01000001               -0.11401865                0.00883289                0.06989252                0.07575769                0.06149307                0.13161203
               2.87687061                0.95328221               82.07532309                0.01000000               -0.25939365                0.07792320                0.06029976                0.32220235                0.18320210                0.05318931
               3.87355431                0.95583389               82.07886191                0.01000002               -0.33287590                0.07950938                0.06410030                0.61791050                0.14259541               -0.07932224
               4.87021309                0.96430240               82.08177564                0.01000000               -0.12735230               -0.09425582                0.05931968                0.68323642                0.03873134               -0.01412857
               5.87100726                0.96978460               82.08521936                0.01000001                0.02986295               -0.17084071                0.07832399                0.43104805                0.06002849                0.05270944
               6.87081035                0.97215888               82.08806584                0.01745089               -0.02018364               -0.09789672                0.08436890                0.14518619                0.02123740                0.05151560
               7.87060359                0.97435902               82.09088310                0.99999999               -0.02446127               -0.02709859                0.09683152                0.00835642                0.00664290                0.01234056
               8.87032112                0.97634488               82.09347643                0.99999999               -0.02940271               -0.03063615                0.10100403               -0.00107809               -0.00339903                0.00378910
               9.87001554                0.97830877               82.09606607                1.00000000               -0.03055854               -0.03217058                0.10388531               -0.00234385               -0.00207695               -0.02024520
              -0.11581569                1.96414056               82.06876225                0.55613525               -0.02229615               -0.00820265                0.09132352                0.01637861                0.00193171               -0.01326771
               0.88396135                1.95931305               82.07145738                0.01000001               -0.08256864               -0.04694531                0.07196472                0.08795178                0.12820611                0.03768474
               1.88253294                1.95582819               82.07674323                0.01000001               -0.11871337               -0.01223263                0.03594582                0.31819459                0.31316885                0.12763103
               2.88158708                1.95480001               82.07958705                0.01000000               -0.21878600                0.06177773                0.13478008                0.62738689                0.58933315                0.14285755
               3.87815722                1.95697693               82.08179886                0.01000000               -0.29002785                0.03707239                0.16131129                0.99861474                0.44939862                0.03598731
               4.87578653                1.96197968               82.08552956                0.01000001               -0.19804228               -0.18386130                0.08531114                1.16921437                0.22610059                0.09037357
               5.87419637                1.96660513               82.08919014                0.01010827               -0.21839712               -0.22152780                0.06449527                0.91730812                0.10043528                0.08665273
               6.87141858                1.97045506               82.09268308                0.01017935               -0.27623746               -0.14822385                0.25205963                0.67085690               -0.02939250                0.15191384
               7.86867162                1.97407764               82.09491416                0.01000000               -0.15341160               -0.15264119                0.10425496                0.34226958                0.00536140                0.05247374
               8.86835035                1.97602185               82.09760480                0.99999999               -0.03184657               -0.03286435                0.10712744               -0.00089490                0.01910327                0.02338191
               9.86803469                1.97797121               82.10010977                0.99999999               -0.03156586               -0.03439032                0.10847689               -0.00156890                0.01036296               -0.01703560
              -0.11057226                2.96413097               82.07062765                0.20722369               -0.02053492                0.08299349                0.10347059                0.17816859                0.00000286               -0.03144351
               0.88922239                2.95871640               82.07379403                0.01000000                0.00956853               -0.20251262                0.05912958                0.30037704                0.10987238                0.12846773
               1.88961911                2.95523836               82.07933478                0.01000000               -0.04763899               -0.13117345                0.07379624                0.68620088                0.19642563                0.03396982
               2.88826961                2.95451777               82.08307092                0.01000000               -0.16360815               -0.06606549                0.07583965                0.96528031                0.12118642                0.07699244
               3.88634694                2.95657534               82.08654302                0.01000001               -0.21502138               -0.06578805                0.07963867                1.28109175                0.14498716                0.17882695
               4.88396918                2.96062518               82.09002808                0.01000000               -0.27344477               -0.10896427                0.07978767                1.40300449                0.12758466                0.15155029
               5.88087805                2.96535404               82.09356750                0.01000000               -0.36071033               -0.08907555                0.09602706                1.29535909                0.06874158                0.12756985
               6.87675497                2.96919441               82.09668580                0.01000000               -0.44979261               -0.05612973                0.09745519                1.04672087                0.04593218                0.10266931
               7.87188220                2.97130620               82.09959364                0.01000000               -0.51726553               -0.06668268                0.13595407                0.79326223                0.03373976                0.09919577
               8.86640966                2.97568759               82.10205235                1.00000000               -0.28983774               -0.03362992                0.11284399                0.12214063                0.01125742                0.03003315
               9.86608544                2.97762097               82.10424305                0.99999997               -0.03242209               -0.03427097                0.11011322               -0.00078211               -0.00090774               -0.00955844
              -0.10142317                3.96580043               82.07254378                0.13229136                0.02846750                0.10281322                0.08999084                0.26245698                0.02913508                0.07067696
               0.89886151                3.95526279               82.07718121                0.01000001                0.09393765               -0.36655351                0.04127730                0.71674577                0.03899388                0.22931037
               1.90045558                3.95320472               82.08244712                0.01000000                0.03471014               -0.19313235                0.06860732                1.11287002                0.10264248                0.07795570
               2.89955571                3.95347870               82.08666583                0.01000001               -0.13919675               -0.14793018                0.07858964                1.30578178                0.07554413                0.08178547
               3.89767165                3.95566117               82.09047555                0.01000000               -0.22438985               -0.12730890                0.08161727                1.51313660                0.07525684                0.10285891
               4.89506791                3.95980039               82.09421965                0.01000001               -0.30686619               -0.10209137                0.08729857                1.66990214                0.08304973                0.11476121
               5.89153432                3.96482362               82.09785783                0.01000000               -0.43335327               -0.04927888                0.09237496                1.69394528                0.07682585                0.10243581
               6.88640085                3.96933246               82.10128026                0.01000003               -0.67453197                0.04348317                0.10539604                1.60584860                0.06167344                0.10419647
               7.87804369                3.97274399               82.10441013                0.01000000               -1.09612251                0.14707877                0.12229120                1.48512968                0.01172732                0.10089962
               8.86447840                3.97534925               82.10632989                0.01000000               -0.69456919               -0.10446089                0.11625353                1.51463239               -0.00169750                0.10832162
               9.86415230                3.97728579               82.10842650                0.05270772               -0.03260944               -0.85184623                0.11257592                1.52063167                0.00861497                0.12577411
              -0.08424785                4.96618723               82.07677299                0.14458016                0.04008631               -0.16930895                0.06757005                0.16160384               -0.03193211                0.21462944
               0.91615301                4.95138533               82.08059767                0.01000000               -0.10457765               -0.10497714                0.06471311                0.87547564                0.02273276                0.14468485
               1.91366059                4.95137571               82.08551506                0.01000001               -0.21121077               -0.17307958                0.07511642                1.31529576                0.08772665                0.07029482
               2.91192879                4.95155917               82.08986197                0.01000000               -0.16863032               -0.23090027                0.08387169                1.38303580                0.07170124                0.05422426
               3.91028799                4.95402916               82.09400683                0.01000001               -0.18620108               -0.22568774                0.09003521                1.64311480                0.07017888                0.06934722
               4.90820477                4.95858335               82.09804530                0.01000000               -0.25315526               -0.17338904                0.09534362                1.88561283                0.07183970                0.07323652
               5.90522488                4.96436846               82.10199766                0.01000006               -0.36266007               -0.08154863                0.10100964                2.03273142                0.07193559                0.07593060
               6.90095157                4.97006407               82.10579231                0.01000009               -0.48284390                0.02771303                0.10770545                2.08222283                0.06120498                0.07816256
               7.89556800                4.97424777               82.10922672                0.01000000               -0.43955304                0.02787211                0.11955483                2.06637758                0.05085759                0.09537439
               8.89216051                4.97359837               82.11234000                0.01000001               -0.14715041               -0.25193518                0.12543763                1.82159635                0.02660343                0.18822529
               9.89262500                4.96058404               82.11525057                0.01000002                0.04644852               -1.01491574                0.12292575                1.19997822                0.00597760                0.29147374
              -0.06858728                5.96241425               82.08049403                0.86126447               -0.02301793               -0.20327581                0.07129450                0.32049433                0.01382105                0.04686938
               0.93118254                5.95316325               82.08416333                0.01000001               -0.24125321                0.07901782                0.08491927                0.57894402                0.03578419                0.08861807
               1.92658766                5.94974313               82.08828762                0.01010538               -0.33097848               -0.17360529                0.08522062                0.96514771                0.05974692                0.04101862
               2.92456297                5.94886070               82.09278615                0.01000000               -0.15389481               -0.33443161                0.09279217                1.29110046                0.07337874                0.03498220
               3.92350976                5.95114741               82.09720485                0.01000000               -0.10610555               -0.37647906                0.09886006                1.66903971                0.07003745                0.04049208
               4.92244086                5.95633261               82.10157623                0.01000006               -0.14007654               -0.29734116                0.10330567                2.02006992                0.07176250                0.04487417
               5.92070823                5.96319264               82.10590859                0.01000001               -0.21374343               -0.16569916                0.11017071                2.22230187                0.07128932                0.04986406
               6.91816599                5.96988672               82.11011428                0.01000000               -0.24356486               -0.05983914                0.11438594                2.21375425                0.06999505                0.05661676
               7.91583693                5.97330143               82.11414966                0.01001373               -0.17959700               -0.07402450                0.11978567                1.94980639                0.05000765                0.10903484
               8.91457405                5.97031054               82.11793354                0.01000002               -0.08282022               -0.17323706                0.12487603                1.22515293                0.02605474                0.17655898
               9.91418053                5.95698747               82.12148534                0.01000000               -0.03935245               -0.10938625                0.13018354                0.60457324                0.01246343                0.27657100
              -0.05933597                6.96212172               82.08232843                1.00000000               -0.02610217               -0.03098646                0.08253409                0.00284654               -0.00075483               -0.04348618
               0.94040301                6.95296568               82.08620736                0.01000001               -0.16989674               -0.01997416                0.08821770                0.20581435                0.03248082                0.00401637
               1.93726610                6.94790360               82.09075402                0.01003442               -0.20282457               -0.29310326                0.09555819                0.72770130                0.07139464               -0.00073130
               2.93634652                6.94487053               82.09530480                0.01000000               -0.05346143               -0.43267034                0.09984890                1.02452390                0.07382236                0.00505325
               3.93619687                6.94649958               82.10002375                0.01000003                0.01072105               -0.62244997                0.10569657                1.59807207                0.07904611                0.01298650
               4.93656094                6.95263652               82.10477429                0.01000000               -0.00400311               -0.42964295                0.10997294                2.05867923                0.07407027                0.01538142
               5.93611681                6.96105448               82.10952819                0.01000000               -0.07215358               -0.21798139                0.11565512                2.19422833                0.07411489                0.03103648
               6.93511787                6.96886729               82.11432370                0.01000002               -0.09882479               -0.11395722                0.12099015                2.09462167                0.07508172                0.04665698
               7.93414031                6.97276728               82.11903669                0.01000002               -0.10701706               -0.01490605                0.12505218                1.74086664                0.06413535                0.11556652
               8.93297753                6.97013363               82.12356734                0.01000000               -0.13888532                0.14331338                0.13119574                1.02223395                0.03783222                0.19550968
               9.93136261                6.95839632               82.12772002                0.01000000               -0.16149227                0.31454868                0.13809598                0.45746331                0.01910772                0.30121433
              -0.05021828                7.96179452               82.08411256                0.99999999               -0.02647788               -0.03257652                0.08966087                0.00240553               -0.00020934               -0.03809862
               0.94951695                7.95276377               82.08821855                0.99999999               -0.02724457               -0.02366074                0.09477616                0.00794869                0.00357807               -0.00401462
               1.94923683                7.94388106               82.09240355                0.01003246               -0.15297343               -0.21711338                0.10068466                0.41663276                0.04436646               -0.00871568
               2.94645748                7.94020729               82.09735196                0.01000000               -0.07658102               -0.50937607                0.10857730                0.81504084                0.09227053               -0.02741932
               3.94770521                7.93869841               82.10237063                0.01000000                0.13010338               -1.03367097                0.11531679                1.44011842                0.08713001               -0.06030260
               4.94905954                7.94773975               82.10748989                0.01000000                0.03284118               -0.41196534                0.12142307                2.00537973                0.09817919               -0.00494358
               5.94836204                7.95883302               82.11288306                0.01002018               -0.03569592               -0.18523326                0.12160823                1.90378401                0.11959195                0.00889240
               6.94834563                7.96760758               82.11834172                0.01000002                0.05129434               -0.14778720                0.12551530                1.71299054                0.12884198                0.03288814
               7.94938792                7.97300331               82.12402748                0.01000000                0.05220367               -0.04498646                0.12981084                1.55236371                0.11873795                0.10654045
               8.94938970                7.97317681               82.12951535                0.01000000               -0.12917477                0.33482578                0.13873746                1.16133832                0.07372661                0.28489745
               9.94680443                7.96327844               82.13449196                0.01000002               -0.25852722                0.78243887                0.15120636                0.71459677                0.04988830                0.35585531
              -0.04122635                8.96147019               82.08595234                1.00000000               -0.02982088               -0.03173361                0.09628180                0.00049375                0.00030019               -0.02431472
               0.95847544                8.95249247               82.09019351                0.99999998               -0.03092118               -0.02915631                0.10231349               -0.00018004                0.00325216               -0.00529800
               1.95815523                8.94356133               82.09446774                0.99999999               -0.03227275               -0.03250693                0.10889716                0.00134674                0.01213055                0.00782872
               2.95782999                8.93468301               82.09887376                0.99999999               -0.03442245               -0.29421599                0.11875865                0.12566612                0.01363207               -0.01791993
               3.95746678                8.92582616               82.10319678                0.01000000               -0.06480269               -0.66268942                0.12692451                1.41701472                0.12676273               -0.04793181
               4.95653393                8.94439722               82.10989145                0.01000001               -0.15710586               -0.17571981                0.12758351                1.73258159                0.21012138               -0.01356676
               5.95432466                8.95734982               82.11598898                0.01000002               -0.06632736               -0.12233679                0.12906611                1.17725300                0.17883529               -0.00364582
               6.95520739                8.96591154               82.12215308                0.01000001                0.26468462               -0.19640864                0.13291141                0.97655772                0.19225483                0.01548040
               7.95961835                8.97186755               82.12873440                0.01006347                0.53608863               -0.23373162                0.13879536                1.04911079                0.28004791                0.07394470
               8.96592916                8.97683015               82.13708197                0.99999997                0.29164600                0.15881465                0.14763862                1.07941985                0.16008713                0.18703125
               9.96545127                8.97404509               82.14208042                0.99999999               -0.04778850                0.51012125                0.17379715                0.79313214               -0.00746532                0.17328605
              -0.03225296                9.96115985               82.08792935                1.00000000               -0.03248419               -0.03103386                0.10393768               -0.00058202               -0.00747066               -0.01454604
               0.96742220                9.95218064               82.09219263                0.99999997               -0.03369081               -0.03118265                0.10983513               -0.00177072               -0.00518343               -0.00302991
               1.96707322                9.94323092               82.09645541                1.00000000               -0.03581104               -0.03304097                0.11486366               -0.00108389               -0.00199784                0.00403716
               2.96670598                9.93432297               82.10074860                0.99999999               -0.03709608               -0.03600392                0.12038716               -0.00171613                0.00028858               -0.00072853
               3.96633130                9.92544462               82.10504211                0.06179529               -0.72592284               -0.03815332                0.12711773                1.38157139                0.14855178                0.00161096
               4.95218752                9.94422536               82.11231273                0.01000002               -0.79692648               -0.01718618                0.13012298                1.11244131                0.30104723               -0.01445504
               5.95039277                9.95638628               82.11900422                0.01000000                0.05857619               -0.09635356                0.13783998                0.57951348                0.26202037               -0.00345355
               6.95335904                9.96367941               82.12564559                0.01000000                0.45293817               -0.22321367                0.14336360                0.41228554                0.26790596                0.00779094
               7.95945153                9.96832868               82.13295911                0.01097867                0.77207565               -0.35388759                0.15263109                0.61700298                0.31244829                0.06532086
               8.96880056                9.97635310               82.14105537                0.99999999                0.43928216               -0.04770426                0.17328881                0.54474938                0.16195529                0.00706722
               9.96823718                9.97348087               82.14605381                0.99999998               -0.05633783               -0.05642232                0.19944737               -0.00863306                0.00716503               -0.00716091
              -0.12756729               -0.03746770               83.06563081                0.99628162               -0.01955674               -0.02031118                0.07507069               -0.00053605                0.00333905                0.00424421
               0.87223714               -0.04201437               83.06812505                0.90685756               -0.01753651               -0.02512043                0.07588850                0.00071281                0.00208975                0.00549046
               1.87208198               -0.04641279               83.07060341                0.37322940                0.00858482               -0.02324097                0.08174461                0.04214930               -0.01081993                0.00305654
               2.87240884               -0.04981529               83.07296578                0.17656911                0.09090135               -0.02135374                0.12291665                0.16051325               -0.06800823                0.01442293
               3.87390001               -0.04906465               83.07510744                0.10915975                0.06677349                0.02657942                0.12692374                0.29054227                0.01868604                0.03269846
               4.87374431               -0.03995509               83.07919178                0.12604359               -0.17681827                0.04533824                0.10333546                0.17071657                0.15774745               -0.04333030
               5.87036364               -0.03298144               83.08284403                0.99843199               -0.18374390               -0.02686808                0.08628310                0.25255112                0.01069238                0.01913198
               6.87006943               -0.03105636               83.08549160                1.00000000               -0.03133773               -0.02708181                0.08769896                0.00018945               -0.04730250               -0.00308028
               7.86973689               -0.02920437               83.08792221                0.99999999               -0.03242879               -0.02660512                0.08970788                0.00094326               -0.05402254                0.00746114
               8.86942085               -0.02745556               83.09033800                1.00000000               -0.02986545               -0.02814997                0.08952318               -0.00060974               -0.04149893                0.00052873
               9.86913958               -0.02571379               83.09293227                1.00000000               -0.02812773               -0.02883706                0.09039895               -0.00189812               -0.02959553               -0.02277998
              -0.12302598                0.96232919               83.06766007                1.00000000               -0.02572060               -0.01989871                0.08060294               -0.00013835                0.00248743                0.00450119
               0.87671681                0.95773442               83.07014840                0.01000000               -0.02850451               -0.02699011                0.07789552                0.00780625                0.00719171                0.00862783
               1.87640393                0.95335480               83.07268014                0.01000001               -0.06884562               -0.00176089                0.07889701                0.04809078                0.04963062                0.08945854
               2.87533990                0.94997118               83.07590102                0.01000000               -0.22642999                0.07488737                0.06828907                0.23340669                0.16409453                0.06172775
               3.87187533                0.95120115               83.07948957                0.01000002               -0.39650153                0.14008305                0.06061826                0.65633459                0.17058444               -0.01102679
               4.86740987                0.96049829               83.08257163                0.01000000               -0.17177709               -0.06989826                0.09694813                0.78929387                0.06458527               -0.00418997
               5.86843979                0.96674988               83.08609765                0.01000001                0.03864591               -0.18903934                0.09424400                0.45344642                0.06075404                0.05089228
               6.86818279                0.96867282               83.08895600                0.10429942               -0.02469357                0.00566870                0.09352805                0.00682901                0.02397425                0.13603328
               7.86794592                0.97052958               83.09184482                1.00000000               -0.02566615               -0.02787931                0.09664974                0.00554942                0.00948329                0.01647812
               8.86766947                0.97226295               83.09447058                0.99999999               -0.02835441               -0.02980434                0.09789176               -0.00082736               -0.00393896                0.00478072
               9.86737883                0.97399784               83.09708445                0.99999999               -0.02906376               -0.03040393                0.09873586               -0.00226646               -0.00309164               -0.02342222
              -0.11838053                1.96213433               83.06967841                0.55991784               -0.02518169               -0.01627380                0.09056796                0.00892020                0.00204613                0.00388805
               0.88136765                1.95744583               83.07221038                0.01000001               -0.04062132               -0.03621788                0.07960625                0.04757305                0.09254236                0.02333098
               1.88080704                1.95355199               83.07659468                0.01000001               -0.10685115               -0.01842958                0.01388347                0.23701604                0.19025825                0.13135663
               2.87923063                1.95168246               83.08019111                0.01000000               -0.21537314                0.10042014                0.05762435                0.56136750                0.11639291                0.10654045
               3.87649958                1.95373701               83.08355812                0.01000000               -0.26245875                0.12929893                0.12998774                0.97435177                0.12706000                0.07715661
               4.87398145                1.95864695               83.08684081                0.01000001               -0.26207690               -0.14201093                0.11882947                1.18565139                0.10821829                0.09309473
               5.87125804                1.96323777               83.09003848                0.01014347               -0.37775725               -0.20958071                0.11519954                0.99859806                0.13279239                0.10176603
               6.86642631                1.96905701               83.09522982                0.01001605               -0.25001450               -0.12501353                0.15828978                0.66301797               -0.06908008                0.18130859
               7.86625775                1.97023804               83.09595615                0.01000001               -0.02451324               -0.15169180                0.10576987                0.22134647               -0.06901678                0.06649810
               8.86593604                1.97194836               83.09866804                1.00000000               -0.03166486               -0.03232705                0.10610000               -0.00050686                0.02015641                0.02470674
               9.86562445                1.97367813               83.10118223                1.00000000               -0.03115898               -0.03284735                0.10561444               -0.00190710                0.01061382               -0.02099850
              -0.11347058                2.96200371               83.07173488                0.19303626               -0.02788155                0.06008435                0.11365637                0.14453874                0.00279430               -0.00369786
               0.88625061                2.95701007               83.07446394                0.01000000                0.01890972               -0.16177130                0.07719242                0.20670722                0.12771175                0.08982552
               1.88690762                2.95298621               83.07981628                0.01000000                0.00658137               -0.13260468                0.04505793                0.55209696                0.19653310                0.10211315
               2.88638223                2.95197958               83.08387317                0.01000000               -0.12548682               -0.03796350                0.06819609                0.89547485                0.14972137                0.10276507
               3.88439788                2.95378712               83.08742547                0.01000001               -0.23800468               -0.03697678                0.08809610                1.19358819                0.12780914                0.11058948
               4.88162214                2.95765808               83.09099219                0.01000000               -0.31980984               -0.08458268                0.10257554                1.34789852                0.11449946                0.12008717
               5.87800168                2.96255826               83.09467971                0.01000001               -0.35896317               -0.07756450                0.11323778                1.30117282                0.06761220                0.13909310
               6.87444288                2.96617255               83.09773184                0.01000000               -0.42600901               -0.15845223                0.12553815                1.11203759                0.07022978                0.03914688
               7.86948150                2.96749574               83.10090435                0.01000000               -0.51118188               -0.06865006                0.12445840                0.74933270                0.03378991                0.10093397
               8.86421924                2.97161640               83.10318355                1.00000000               -0.28001835               -0.03448429                0.11473443                0.12066338                0.00437558                0.03167997
               9.86388113                2.97334089               83.10534715                0.99999996               -0.03381036               -0.03430082                0.11111919               -0.00183932               -0.00240216               -0.01334838
              -0.10550247                3.96333601               83.07374735                0.10705400                0.00217636                0.11454796                0.15333513                0.34094410                0.02176840                0.05007208
               0.89451930                3.95421040               83.07765117                0.01000001                0.11909678               -0.38139895                0.05795397                0.66514937                0.06949139                0.23274281
               1.89687947                3.95089990               83.08304655                0.01000000                0.09099577               -0.19176133                0.05816786                0.98724427                0.14426035                0.09701084
               2.89633921                3.95092319               83.08734557                0.01000001               -0.10933113               -0.14382891                0.06734852                1.20557500                0.10008315                0.09148904
               3.89469285                3.95299748               83.09130286                0.01000000               -0.20854635               -0.12104834                0.08288510                1.42540179                0.09318694                0.10727352
               4.89216829                3.95695529               83.09514639                0.01000001               -0.29629121               -0.09975366                0.09597673                1.59959273                0.08813529                0.11251079
               5.88876702                3.96168648               83.09885658                0.01000000               -0.42193522               -0.07217246                0.10722955                1.64886168                0.08404391                0.09963456
               6.88372958                3.96588797               83.10241754                0.01000001               -0.64832348                0.01246132                0.11615230                1.53073072                0.07016384                0.10803741
               7.87580055                3.96886504               83.10557253                0.01000000               -1.06127107                0.13975451                0.12063970                1.43277498                0.02234770                0.08925043
               8.86250416                3.97125867               83.10752284                0.01000000               -0.68309332               -0.09844532                0.12302419                1.46760602                0.00498602                0.10715865
               9.86213869                3.97299212               83.10957834                0.06224253               -0.03654732               -0.82359030                0.11806298                1.47021443                0.00753952                0.12367302
              -0.08840047                4.96429467               83.07760955                0.11637798                0.03901778               -0.16145026                0.11710635                0.17332989               -0.01802807                0.17413028
               0.91198970                4.94938209               83.08136859                0.01000000               -0.08299081               -0.15190102                0.08976529                0.89445699                0.03355205                0.17996343
               1.90993971                4.94915098               83.08625037                0.01000001               -0.17967738               -0.16950383                0.07359650                1.28370472                0.10521015                0.08779131
               2.90839616                4.94910300               83.09067961                0.01000000               -0.15329490               -0.21737077                0.08081384                1.33252632                0.08506259                0.07708348
               3.90687381                4.95136616               83.09489902                0.01000001               -0.17355836               -0.22278882                0.09019204                1.58264678                0.07767322                0.08020988
               4.90492499                4.95566300               83.09901557                0.01000000               -0.24137862               -0.17709987                0.09939994                1.81774479                0.07797348                0.07998240
               5.90204624                4.96111481               83.10303508                0.01000000               -0.35230301               -0.08825480                0.10726688                1.95628627                0.07505535                0.07875902
               6.89787893                4.96642178               83.10688309                0.01000000               -0.46399706                0.01125458                0.11414602                2.01173347                0.06374934                0.07607813
               7.89276630                4.97029083               83.11041605                0.01000000               -0.42173228                0.03003924                0.12092061                1.99390127                0.05206150                0.09151758
               8.88944428                4.96964750               83.11358185                0.01000001               -0.14738826               -0.24150896                0.12650641                1.76092223                0.03059323                0.18029505
               9.88981853                4.95686909               83.11650301                0.01007530                0.03742496               -0.97605562                0.12823879                1.15184957                0.01066526                0.28766737
              -0.07221070                5.96010701               83.08120009                0.90739761               -0.02371742               -0.22211690                0.07061099                0.36381702                0.01056295                0.04585101
               0.92755212                5.95117238               83.08503627                0.01000001               -0.24783237                0.07740948                0.08854020                0.59491022                0.02529336                0.08298939
               1.92283265                5.94750982               83.08917503                0.01000002               -0.33887787               -0.16978206                0.09322831                0.94594709                0.05909995                0.05444327
               2.92077457                5.94657578               83.09372569                0.01000001               -0.15234350               -0.32192499                0.09553654                1.25399375                0.07273435                0.05625151
               3.91978578                5.94854170               83.09819650                0.01000000               -0.10000205               -0.36533484                0.10043503                1.61040778                0.07121749                0.05126408
               4.91877452                5.95341330               83.10261511                0.01000000               -0.13259038               -0.29512233                0.10591297                1.94815930                0.07140442                0.05041578
               5.91713397                5.95992139               83.10700317                0.01000000               -0.19931466               -0.16084732                0.11054163                2.13276701                0.07097465                0.05102237
               6.91478823                5.96611306               83.11126597                0.01000000               -0.23405571               -0.06420213                0.11688849                2.13515903                0.06934123                0.05566378
               7.91245286                5.96946583               83.11536060                0.01000001               -0.18219417               -0.06684179                0.12332020                1.88260782                0.05268438                0.10001690
               8.91114435                5.96642849               83.11921486                0.01000001               -0.08601815               -0.17115462                0.13095953                1.17759727                0.02744639                0.17004152
               9.91073250                5.95347100               83.12282023                0.01000000               -0.04118529               -0.10089976                0.13613622                0.58199829                0.01276282                0.27349602
              -0.06325488                6.95985233               83.08313862                1.00000000               -0.02600292               -0.02718903                0.07979781                0.00105723               -0.00046827               -0.03859156
               0.93648509                6.95093028               83.08711365                0.01000001               -0.16449321               -0.02397201                0.09160842                0.18708114                0.03181958               -0.00063469
               1.93345526                6.94575534               83.09172897                0.01008532               -0.20204680               -0.27980490                0.10064537                0.70005482                0.07327490               -0.00180437
               2.93244416                6.94266450               83.09632266                0.01000000               -0.06054045               -0.42178556                0.10677860                0.99402112                0.07432924                0.01879261
               3.93224445                6.94405946               83.10110703                0.01000001                0.00321676               -0.59817606                0.11108830                1.53701300                0.07743394                0.02159769
               4.93250849                6.94976056               83.10587961                0.01000000               -0.01213161               -0.41607821                0.11356532                1.98943274                0.07166159                0.01756968
               5.93200182                6.95789787               83.11068886                0.01000000               -0.07354113               -0.21165435                0.11742416                2.11648222                0.07098620                0.03002378
               6.93103767                6.96513774               83.11552835                0.01000001               -0.09493960               -0.10900564                0.12134594                2.01354229                0.07092295                0.04182781
               7.93010302                6.96895400               83.12030267                0.01000000               -0.10233083               -0.01501109                0.12719460                1.67757598                0.06064994                0.10551918
               8.92899105                6.96622441               83.12489418                0.01000000               -0.13647738                0.13623470                0.13445581                0.97755406                0.03614224                0.18668740
               9.92737348                6.95485109               83.12912626                0.01000000               -0.16175760                0.30559257                0.14413707                0.43874707                0.01904980                0.29855725
              -0.05434545                7.95956323               83.08498782                0.99999999               -0.02638176               -0.02903986                0.08555755                0.00111296                0.00121429               -0.03799903
               0.94539074                7.95069294               83.08916873                1.00000000               -0.02775156               -0.02570396                0.09490282                0.00442878                0.00541923               -0.00525920
               1.94509952                7.94191373               83.09342720                0.01000000               -0.15199327               -0.20828053                0.10389751                0.39500851                0.04756217               -0.00668962
               2.94235087                7.93814006               83.09846734                0.01000000               -0.08347687               -0.49344545                0.11487846                0.78967348                0.08985448               -0.01837320
               3.94342999                7.93657818               83.10351980                0.01000000                0.11869511               -1.00220776                0.11906336                1.39516657                0.08479048               -0.05042304
               4.94472477                7.94509173               83.10869299                0.01000000                0.03282265               -0.39386712                0.12247872                1.94039159                0.09303911               -0.00302203
               5.94408644                7.95568830               83.11411360                0.01000001               -0.03609124               -0.18512356                0.12528596                1.83913709                0.10886842                0.00865130
               6.94400295                7.96393295               83.11961045                0.01000001                0.04156350               -0.13912899                0.12878453                1.65549566                0.11771192                0.02713417
               7.94491771                7.96916561               83.12536000                0.01000000                0.03976924               -0.04577624                0.13400366                1.49559751                0.10866697                0.09342707
               8.94479833                7.96915319               83.13091738                0.01000001               -0.13318241                0.32888950                0.14100552                1.10762250                0.06619760                0.27258621
               9.94225406                7.95958286               83.13601452                0.01000002               -0.25442729                0.75088572                0.15383251                0.68666501                0.04761200                0.35558562
              -0.04549205                8.95927154               83.08688422                1.00000000               -0.02847851               -0.02877384                0.09017406                0.00014199                0.00080204               -0.02597320
               0.95422317                8.95041620               83.09120250                0.99999998               -0.02998251               -0.02892165                0.09950659               -0.00031298                0.00401623               -0.00529046
               1.95390830                8.94158973               83.09555807                1.00000000               -0.03249977               -0.03269091                0.10917567                0.00065521                0.01436636                0.00968669
               2.95357317                8.93279559               83.10007393                1.00000000               -0.03560954               -0.28546842                0.12148192                0.12236996                0.01661426               -0.01438435
               3.95319611                8.92401531               83.10449251                0.01000000               -0.06834841               -0.64796293                0.13252815                1.38246886                0.12395262               -0.03928625
               4.95220620                8.94188321               83.11118399                0.01000001               -0.16263854               -0.16846919                0.13206072                1.67851251                0.20208253               -0.01065860
               5.94994334                8.95419540               83.11730303                0.01000001               -0.07679646               -0.12038837                0.13493296                1.13274352                0.17082310               -0.00454537
               6.95067027                8.96235516               83.12349537                0.01000000                0.24256972               -0.18560536                0.13736409                0.94087098                0.17820097                0.01319698
               7.95479473                8.96803847               83.13010815                0.01000002                0.50279880               -0.22576164                0.14178697                1.01150590                0.25869797                0.05947691
               8.96072625                8.97280220               83.13856432                0.99999998                0.27263511                0.15844869                0.14883041                1.03869882                0.15289702                0.17836687
               9.96024744                8.96986881               83.14381520                0.99999999               -0.04788135                0.48624036                0.17316827                0.75293881               -0.00746151                0.17122398
              -0.03663193                9.95898775               83.08892399                1.00000000               -0.03017895               -0.02837863                0.09514505               -0.00131256               -0.00943819               -0.01636823
               0.96306628                9.95011451               83.09326202                1.00000000               -0.03174183               -0.03016909                0.10421384               -0.00208083               -0.00758815               -0.00295535
               1.96273323                9.94125991               83.09759267                1.00000000               -0.03467913               -0.03298246                0.11263039               -0.00169750               -0.00481216                0.00500567
               2.96237270                9.93243070               83.10195754                1.00000000               -0.03707460               -0.03648960                0.12131288               -0.00209685               -0.00203224               -0.00103730
               3.96199174                9.92361892               83.10633312                0.09260818               -0.71288823               -0.03963849                0.13099053                1.34414553                0.14436951                0.00261171
               4.94811493                9.94172235               83.11363825                0.01000002               -0.78611867               -0.01608656                0.13681231                1.07395337                0.29520957               -0.01068450
               5.94626937                9.95328053               83.12041031                0.01000000                0.04311798               -0.09148656                0.14424854                0.55752730                0.25546324               -0.00363063
               6.94897729                9.96022084               83.12711580                0.01000000                0.42157097               -0.21343142                0.14990379                0.39919381                0.25495669                0.01017365
               7.95470079                9.96465037               83.13442392                0.01000001                0.73823410               -0.33880999                0.15476895                0.59567113                0.29791875                0.05336821
               8.96374197                9.97232216               83.14279126                0.99999999                0.42394120               -0.04800344                0.17389833                0.53443687                0.16288787                0.00706676
               9.96317961                9.96930766               83.14804214                1.00000000               -0.05623633               -0.05611446                0.19823621               -0.00823238                0.00716215               -0.00715988
              -0.13002909               -0.03947340               84.06632932                0.96907293               -0.01931438               -0.01891544                0.06773182                0.00116325                0.00466415                0.00617560
               0.86977776               -0.04400909               84.06888005                0.88666273               -0.01916712               -0.02483828                0.07625754                0.00132800                0.00786655                0.00249901
               1.86958757               -0.04844080               84.07147937                0.40675474               -0.00740200               -0.02782854                0.09156832                0.02289242                0.02735675                0.00226239
               2.86962972               -0.05234046               84.07443829                0.16953922                0.06896796               -0.03680965                0.14643144                0.15719702                0.01405693               -0.00051879
               3.87096692               -0.05272356               84.07706498                0.09761978                0.09305677               -0.01137720                0.23037065                0.36179319                0.03609816                0.01505342
               4.87149086               -0.04376152               84.08066587                0.10963794               -0.18105053                0.03310927                0.19361017                0.17163015                0.06118891                0.00741684
               5.86734591               -0.03610266               84.08371272                0.99930745               -0.22129008               -0.02893447                0.08783197                0.30841298               -0.01344413                0.01618369
               6.86706506               -0.03457740               84.08636062                1.00000000               -0.02911371               -0.02812671                0.08640913               -0.00092503               -0.04341634               -0.00150865
               7.86676364               -0.03307638               84.08879893                1.00000000               -0.02917159               -0.02689748                0.08588278               -0.00062779               -0.05355117                0.00930779
               8.86648163               -0.03162001               84.09120446                1.00000000               -0.02673608               -0.02695280                0.08362235               -0.00133872               -0.04331013                0.00116259
               9.86622892               -0.03014533               84.09379360                1.00000000               -0.02527076               -0.02642935                0.08151248               -0.00282564               -0.03145033               -0.02438763
              -0.12548177                0.96033745               84.06843195                1.00000000               -0.02434872               -0.01915420                0.07503024                0.00002644                0.00124510                0.00988026
               0.87427475                0.95574252               84.07093966                0.01000001               -0.02680296               -0.02633949                0.08072703                0.00308147                0.00568224                0.00434130
               1.87398217                0.95128091               84.07352951                0.01000002               -0.04658381               -0.01200056                0.09023531                0.01593641                0.03753200                0.07087269
               2.87334307                0.94729144               84.07668887                0.01000000               -0.18433934                0.06495686                0.08852581                0.16017694                0.09985764                0.08148524
               3.87029539                0.94716267               84.08007427                0.01000000               -0.42231788                0.16538559                0.06900296                0.61799631                0.15602052                0.05857894
               4.86489671                0.95656957               84.08371460                0.01000000               -0.22287032               -0.04087330                0.13766904                0.82124981                0.10756697                0.05605668
               5.86583798                0.96360800               84.08710424                0.01000000                0.03229783               -0.19194779                0.10549293                0.48445322                0.05004614                0.06415609
               6.86554267                0.96514134               84.08993641                0.21413307               -0.02796551               -0.00586076                0.10158784                0.00504517                0.02164891                0.11449754
               7.86527867                0.96665464               84.09281609                1.00000000               -0.02699766               -0.02877727                0.09772350                0.00292752                0.00919532                0.01907405
               8.86500272                0.96811046               84.09543427                0.99999998               -0.02763446               -0.02884839                0.09493323               -0.00092479               -0.00421603                0.00552197
               9.86472598                0.96959037               84.09804079                0.99999999               -0.02767341               -0.02830685                0.09250773               -0.00252448               -0.00342550               -0.02537479
              -0.12083872                1.96014352               84.07057361                0.58045155               -0.02653509               -0.01746907                0.08804972                0.00742260                0.00164617                0.02265125
               0.87889593                1.95546412               84.07304951                0.01002482               -0.04019515               -0.03352045                0.08672400                0.02980711                0.07529749                0.01468577
               1.87835738                1.95131918               84.07702090                0.01000001               -0.09722139               -0.02260831                0.05463719                0.18264645                0.13561707                0.11544697
               2.87695150                1.94895868               84.08073954                0.01000000               -0.21543267                0.10635845                0.05858262                0.47883699                0.12413877                0.13923831
               3.87404872                1.95058416               84.08439862                0.01000000               -0.27404849                0.19398561                0.07929592                0.89755240                0.10839867                0.13303100
               4.87147053                1.95542101               84.08790615                0.01000001               -0.27927553               -0.09241152                0.10398104                1.17912229                0.10665212                0.11890383
               5.86846321                1.96005839               84.09149413                0.01000001               -0.36756084               -0.21450980                0.13389047                0.97685212                0.14140130                0.11455630
               6.86411931                1.96530539               84.09584888                0.01000002               -0.23050720               -0.11758558                0.06719641                0.63409766                0.04642270                0.08122493
               7.86385307                1.96634807               84.09702956                0.01000000               -0.02959556               -0.14730775                0.10937095                0.21626222               -0.04468426                0.06959761
               8.86352740                1.96780302               84.09972680                0.99999999               -0.03172348               -0.03220315                0.10607270               -0.00039470                0.02055824                0.02563255
               9.86321860                1.96928853               84.10222206                1.00000000               -0.03088038               -0.03162447                0.10255401               -0.00223863                0.01075766               -0.02408554
              -0.11597452                2.95998806               84.07290078                0.20706553               -0.03302635                0.03918389                0.11747189                0.11056896                0.00460968                0.05230320
               0.88369522                2.95507212               84.07533788                0.01000000                0.00575310               -0.12255565                0.09489584                0.14484446                0.12389758                0.05888724
               1.88414054                2.95082874               84.08023594                0.01000000               -0.00201907               -0.13041681                0.05169241                0.48177562                0.18975090                0.11037932
               2.88365484                2.94941861               84.08443484                0.01000000               -0.11782224               -0.02283144                0.06075595                0.82816017                0.13248911                0.11799460
               3.88178410                2.95104238               84.08830494                0.01000001               -0.23249550               -0.01255321                0.08518543                1.14942882                0.11422203                0.12343585
               4.87900493                2.95472134               84.09207959                0.01000000               -0.31467267               -0.06968882                0.10581298                1.30408904                0.11494814                0.11993988
               5.87549065                2.95931780               84.09583225                0.01000001               -0.35349969               -0.07987253                0.11597242                1.27745628                0.11020808                0.09533568
               6.87193493                2.96278962               84.09919657                0.01000000               -0.41921807               -0.14817117                0.13492630                1.06797721                0.06859274                0.03157766
               7.86710628                2.96370849               84.10208280                0.01000000               -0.49402836               -0.06653880                0.11907550                0.71045227                0.02687210                0.10363227
               8.86205437                2.96746639               84.10434704                1.00000000               -0.26980494               -0.03544494                0.11815106                0.11471502                0.00541719                0.03271901
               9.86171019                2.96895788               84.10646544                0.99999993               -0.03441807               -0.03425711                0.11208130               -0.00217698               -0.00248808               -0.01660048
              -0.10879544                3.96092719               84.07561048                0.10260592               -0.02524188                0.11145202                0.19328297                0.40098243               -0.00402081                0.08762313
               0.89095214                3.95301300               84.07834029                0.01000000                0.12209185               -0.37363066                0.08204280                0.61358365                0.10673733                0.19681364
               1.89364639                3.94871085               84.08361048                0.01000000                0.11744629               -0.19128458                0.06142643                0.89011384                0.18608922                0.12068183
               2.89330106                3.94850205               84.08801280                0.01000001               -0.09559111               -0.13489454                0.06971005                1.14743996                0.13132022                0.11014028
               3.89173457                3.95033309               84.09213325                0.01000000               -0.20120841               -0.11513356                0.08681354                1.36232898                0.11203562                0.11176228
               4.88927689                3.95402723               84.09613919                0.01000000               -0.28952589               -0.10035315                0.10241914                1.53755465                0.10483357                0.10250915
               5.88594405                3.95846094               84.10000242                0.01000000               -0.40943626               -0.07603721                0.11621845                1.58412772                0.09268062                0.08630835
               6.88108817                3.96234196               84.10360331                0.01000000               -0.62793549               -0.00262125                0.12318141                1.47335129                0.07881747                0.07971250
               7.87338534                3.96501730               84.10682292                0.01000000               -1.02579299                0.12907830                0.12852298                1.37781705                0.02006416                0.08597625
               8.86057231                3.96709412               84.10879038                0.01000001               -0.65966306               -0.09770705                0.13016932                1.41085645                0.00896343                0.10418207
               9.86019208                3.96860339               84.11078776                0.19965957               -0.03802279               -0.79311948                0.12277139                1.41521613                0.00893099                0.12206360
              -0.09212649                4.96221710               84.07911512                0.11294637                0.03097268               -0.15624940                0.17088667                0.17559317                0.00616160                0.08238548
               0.90818324                4.94759950               84.08239298                0.01000000               -0.07098656               -0.19675134                0.12223963                0.87736392                0.06855157                0.20622725
               1.90645378                4.94700305               84.08698699                0.01000001               -0.16009219               -0.16787282                0.07764326                1.22775306                0.12258563                0.11719716
               2.90498139                4.94672072               84.09147825                0.01000000               -0.14741437               -0.20796868                0.08293756                1.27158950                0.10615588                0.09780637
               3.90350549                4.94873971               84.09581067                0.01000000               -0.16766081               -0.21842030                0.09430290                1.51518381                0.09379091                0.09095138
               4.90162818                4.95271428               84.10003330                0.01000000               -0.23235104               -0.17751734                0.10467690                1.74213665                0.08740304                0.08010283
               5.89885847                4.95779706               84.10414300                0.01000001               -0.33912899               -0.09508121                0.11381100                1.87778655                0.08277138                0.06865118
               6.89484560                4.96273720               84.10807523                0.01000000               -0.44739999                0.00063853                0.12166041                1.93001068                0.07235874                0.06477340
               7.88991047                4.96629006               84.11164513                0.01000000               -0.40800950                0.01989239                0.12711278                1.91657251                0.05414590                0.08346470
               8.88668541                4.96551225               84.11487012                0.01000003               -0.14572490               -0.23475352                0.13224918                1.69482382                0.03252611                0.16785619
               9.88699597                4.95309549               84.11781535                0.01000002                0.03105657               -0.93846211                0.13482276                1.10997126                0.01244358                0.28830201
              -0.07604838                5.95780221               84.08190625                0.95496749               -0.02381568               -0.23274727                0.07044381                0.36913162                0.00778367                0.01074457
               0.92371347                5.94907798               84.08593414                0.01000000               -0.24356939                0.06105125                0.09008357                0.59085003                0.01706447                0.06947038
               1.91908024                5.94535339               84.09015218                0.01000001               -0.33586378               -0.16938529                0.10528342                0.91667491                0.06408013                0.08260167
               2.91699619                5.94434267               84.09469688                0.01000001               -0.15177727               -0.31079930                0.10002996                1.20424730                0.08025242                0.07247161
               3.91604469                5.94596469               84.09921355                0.01000000               -0.09669537               -0.35657399                0.10457432                1.54086642                0.07638167                0.06441187
               4.91506228                5.95047689               84.10369449                0.01000001               -0.12839149               -0.29021175                0.11018555                1.86893923                0.07272033                0.05409205
               5.91347686                5.95655931               84.10811943                0.01000000               -0.19334499               -0.16262662                0.11462798                2.04535824                0.06877941                0.04484218
               6.91119538                5.96235473               84.11245205                0.01000000               -0.22675611               -0.06889167                0.12105021                2.04663806                0.06225245                0.04995278
               7.90894174                5.96541515               84.11661606                0.01000001               -0.17660180               -0.07058963                0.12809732                1.80606644                0.05079929                0.08419012
               8.90766335                5.96239905               84.12055273                0.01000001               -0.08583558               -0.16737008                0.13655096                1.13051852                0.02872512                0.15811624
               9.90722503                5.94983414               84.12420807                0.01000000               -0.04383214               -0.09611569                0.14294419                0.55768244                0.01188260                0.27001291
              -0.06729540                6.95756216               84.08392439                1.00000000               -0.02555485               -0.02566344                0.07733266                0.00046481               -0.00004844               -0.03325261
               0.93244905                6.94882053               84.08803953                0.01000001               -0.15910090               -0.02541226                0.09256654                0.17628331                0.03096794               -0.00453487
               1.92952258                6.94361535               84.09276692                0.01000001               -0.19970030               -0.27176101                0.11089190                0.67467173                0.06963789                0.00334453
               2.92845505                6.94050473               84.09744037                0.01000000               -0.06669882               -0.41270528                0.11705506                0.95793316                0.06618616                0.03534451
               3.92818861                6.94160823               84.10224551                0.01000000               -0.00213545               -0.58301074                0.11622728                1.47679957                0.06998743                0.03188101
               4.92841234                6.94691004               84.10704560                0.01000000               -0.01504086               -0.40509768                0.11866526                1.91002662                0.06597651                0.02585244
               5.92788779                6.95454452               84.11187668                0.01000000               -0.07449061               -0.20837201                0.12063786                2.02972023                0.06818894                0.02317128
               6.92692252                6.96135937               84.11675062                0.01000001               -0.09501512               -0.10857439                0.12394089                1.92959064                0.06753289                0.03764994
               7.92598749                6.96487826               84.12158058                0.01000001               -0.10228722               -0.01743886                0.13003850                1.60590384                0.05645617                0.08732944
               8.92487678                6.96216485               84.12625646                0.01000003               -0.13540281                0.12796703                0.13946439                0.93453535                0.03290171                0.17447638
               9.92327943                6.95117318               84.13060276                0.01000000               -0.15973498                0.29335350                0.15022601                0.41770148                0.01930875                0.29192970
              -0.05855582                7.95728894               84.08582371                1.00000000               -0.02582385               -0.02738050                0.08184970                0.00050592                0.00251602               -0.03699605
               0.94118595                7.94856973               84.09011660                1.00000000               -0.02773601               -0.02635806                0.09448510                0.00310513                0.00683832               -0.00669326
               1.94088946                7.93991817               84.09448150                0.01000001               -0.15119889               -0.20128766                0.10672340                0.37836914                0.05030585               -0.00565773
               2.93816197                7.93608857               84.09964953                0.01000811               -0.08570446               -0.47998020                0.12299965                0.75795426                0.09032823               -0.01148852
               3.93917538                7.93430447               84.10475190                0.01000000                0.10822789               -0.96905628                0.12824159                1.34667659                0.08345781               -0.04475245
               4.94032653                7.94237493               84.10993946                0.01000000                0.02232830               -0.38356287                0.12861880                1.87200610                0.08724973                0.00123221
               5.93962194                7.95239187               84.11538878                0.01000001               -0.04365333               -0.17911627                0.12978212                1.76751336                0.09652133                0.00646732
               6.93945346                7.96018325               84.12091741                0.01000001                0.03161942               -0.13446153                0.13188779                1.58591315                0.10448645                0.02445364
               7.94025433                7.96506637               84.12670755                0.01000003                0.03028400               -0.04425433                0.13628294                1.42555067                0.09791225                0.07926578
               8.94005914                7.96495839               84.13233546                0.01000000               -0.13459641                0.31793771                0.14438713                1.05190551                0.06294556                0.26157575
               9.93756240                7.95570121               84.13756861                0.01000002               -0.24967381                0.71343845                0.15734230                0.65032500                0.04731230                0.34959573
              -0.04984687                8.95701455               84.08775582                0.99999999               -0.02712093               -0.02679969                0.08420990               -0.00021692                0.00126846               -0.02701715
               0.94988192                8.94829337               84.09218364                0.99999998               -0.02909994               -0.02836189                0.09670063               -0.00045763                0.00460306               -0.00549160
               1.94957113                8.93958959               84.09665125                1.00000000               -0.03270438               -0.03281744                0.10944367                0.00018818                0.01618561                0.01096180
               2.94922783                8.93090513               84.10130340                0.99999999               -0.03676792               -0.27767800                0.12468261                0.12002146                0.01935127               -0.01173496
               3.94883577                8.92222711               84.10584734                0.01003011               -0.07313863               -0.62444208                0.13881487                1.33481276                0.11945655               -0.03083566
               4.94776506                8.93923878               84.11253267                0.01000003               -0.17030142               -0.16358979                0.13935679                1.62115458                0.18970378               -0.00877971
               5.94542974                8.95096220               84.11868764                0.01000001               -0.08993845               -0.11463756                0.14210454                1.09169490                0.15896584               -0.00259341
               6.94596629                8.95867013               84.12490036                0.01000003                0.21468075               -0.17706156                0.14357698                0.90110416                0.16596142                0.01047495
               7.94972336                8.96399318               84.13157014                0.01000000                0.46568775               -0.21509328                0.14742098                0.96667939                0.24473085                0.05411139
               8.95528004                8.96852361               84.14005858                0.99999999                0.25384609                0.15410856                0.15001482                0.99148620                0.14279699                0.16978458
               9.95480028                8.96544195               84.14554379                0.99999999               -0.04797652                0.45912925                0.17254984                0.70764733               -0.00745863                0.16756316
              -0.04111779                9.95675294               84.08983225                1.00000000               -0.02804640               -0.02616059                0.08668379               -0.00213646               -0.01097280               -0.01772683
               0.95860175                9.94800249               84.09427691                0.99999999               -0.03003744               -0.02908715                0.09888413               -0.00257303               -0.00961130               -0.00301682
               1.95828146                9.93926182               84.09870802                0.99999999               -0.03384329               -0.03277704                0.11040999               -0.00234094               -0.00744074                0.00561106
               2.95792488                9.93053501               84.10317486                0.99999998               -0.03717434               -0.03701226                0.12194182               -0.00260453               -0.00444892               -0.00139931
               3.95753798                9.92181563               84.10766192                0.19457275               -0.69551782               -0.04114784                0.13449567                1.29862711                0.14100296                0.00361207
               4.94401453                9.93910314               84.11504897                0.01000095               -0.77567445               -0.01356455                0.14752786                1.03912127                0.29443952               -0.01035736
               5.94202449                9.95009912               84.12188919                0.01000000                0.02150195               -0.08630794                0.15317471                0.53641839                0.24951047               -0.00271392
               6.94444457                9.95664202               84.12864366                0.01000000                0.38549792               -0.20281192                0.15772683                0.38109673                0.24844887                0.00932119
               7.94973445                9.96076450               84.13605449                0.01008925                0.69977630               -0.32286733                0.16376782                0.57103607                0.29273599                0.05302176
               8.95844009                9.96804056               84.14453333                0.99999995                0.40721084               -0.04830459                0.17451619                0.52196947                0.15674885                0.00706673
               9.95787866                9.96488380               84.15001854                0.99995665               -0.05614285               -0.05581492                0.19705123               -0.00783774                0.00715959               -0.00715980
              -0.13257548               -0.04154946               85.06698544                0.94670933               -0.01800992               -0.01680454                0.06384791                0.00248177                0.00442697                0.00462905
               0.86724442               -0.04608361               85.06965020                0.87046938               -0.01768207               -0.02645897                0.07710635                0.00292990                0.01256853               -0.00169162
               1.86707088               -0.05046782               85.07243477                0.46760772               -0.00700313               -0.03014547                0.09767310                0.02128703                0.05690078                0.00132698
               2.86710436               -0.05432684               85.07589441                0.19931082                0.06617540               -0.03735325                0.13541604                0.15307570                0.11331666               -0.00357002
               3.86839439               -0.05478216               85.07971485                0.11545300                0.06079949               -0.01787491                0.22145180                0.37869272                0.10753046               -0.02693959
               4.86832035               -0.04590422               85.08306398                0.14731058               -0.19971886                0.02833657                0.18835450                0.18815632               -0.12281463                0.05184321
               5.86440001               -0.03944081               85.08460067                1.00000000               -0.21027265               -0.03075930                0.09068293                0.26519545               -0.08143086                0.01252940
               6.86411490               -0.03823811               85.08721979                1.00000000               -0.02889974               -0.02873800                0.08555203               -0.00168385               -0.03862958                0.00086966
               7.86382202               -0.03705254               85.08963986                0.99999998               -0.02774561               -0.02670304                0.08222067               -0.00169562               -0.05107376                0.01076079
               8.86355998               -0.03589191               85.09201045                0.99999999               -0.02448567               -0.02570390                0.07760848               -0.00212250               -0.04302471                0.00150722
               9.86333230               -0.03469592               85.09456252                1.00000000               -0.02276817               -0.02421921                0.07266979               -0.00390303               -0.03171734               -0.02513933
              -0.12801650                0.95828250               85.06916068                0.97376473               -0.02505938               -0.01660112                0.07234012                0.00073398               -0.00050507                0.01242538
               0.87173290                0.95365180               85.07176294                0.01000001               -0.02890678               -0.02875271                0.08407720                0.00650613                0.00380375               -0.00043695
               1.87140536                0.94923073               85.07448485                0.01000000               -0.04703078               -0.01888384                0.09859456                0.02031562                0.02631643                0.05801138
               2.87079229                0.94529963               85.07767154                0.01012972               -0.17176758                0.05240464                0.10241512                0.15198451                0.04215392                0.09452926
               3.86797001                0.94503909               85.08086963                0.01000000               -0.41305235                0.14745645                0.10370394                0.60930286                0.09711704                0.14172349
               4.86253124                0.95437914               85.08532501                0.01000000               -0.23755497               -0.07178705                0.18725845                0.79555695                0.12912076                0.11503956
               5.86321891                0.96025159               85.08820751                0.01000000                0.01863404               -0.18791481                0.11436878                0.44193478                0.02119535                0.05569683
               6.86290392                0.96147451               85.09098775                0.33049729               -0.02934746               -0.01702687                0.10727213                0.00666368                0.01697556                0.09141334
               7.86263196                0.96268043               85.09379929                1.00000000               -0.02717353               -0.02920881                0.09835752                0.00203354                0.00703254                0.02043964
               8.86236045                0.96385105               85.09636925                0.99999998               -0.02673405               -0.02799229                0.09206309               -0.00119075               -0.00452251                0.00586897
               9.86209728                0.96506189               85.09893460                1.00000000               -0.02631704               -0.02661524                0.08667840               -0.00307637               -0.00345072               -0.02682738
              -0.12329940                1.95811852               85.07143940                0.61549568               -0.02742875               -0.01347930                0.08757411                0.01047771                0.00083251                0.04048333
               0.87642632                1.95334133               85.07394486                0.01000001               -0.04356241               -0.03773848                0.09320520                0.03482409                0.06188542                0.00892914
               1.87582936                1.94915450               85.07768742                0.01000001               -0.10453160               -0.03132556                0.07812292                0.17901158                0.11139473                0.10349896
               2.87433568                1.94672126               85.08136276                0.01000000               -0.21642104                0.08832872                0.07412856                0.45915969                0.10245933                0.16624160
               3.87150093                1.94816697               85.08514404                0.01005723               -0.26583490                0.17410587                0.08603769                0.85031700                0.11835695                0.19901019
               4.86901899                1.95266004               85.08892043                0.01000001               -0.26787969               -0.12776506                0.11105236                1.12482343                0.13427553                0.13068417
               5.86614334                1.95680089               85.09271629                0.01000000               -0.35998268               -0.21474532                0.12505020                0.93156367                0.15250313                0.11273483
               6.86181933                1.96142135               85.09657375                0.01000003               -0.23285967               -0.12124165                0.08127452                0.61113273                0.04177557                0.07960727
               7.86148615                1.96236328               85.09814357                0.01000000               -0.03323103               -0.14527035                0.11282433                0.21817024               -0.02287341                0.06882337
               8.86115471                1.96354824               85.10078949                1.00000000               -0.03185257               -0.03219195                0.10648120               -0.00035051                0.02046925                0.02632197
               9.86084910                1.96477177               85.10323331                0.99999998               -0.03056164               -0.03093549                0.09990244               -0.00278191                0.01075495               -0.02684845
              -0.11825257                2.95801291               85.07408431                0.24990793               -0.03540273                0.03778087                0.11635637                0.10125565                0.00552207                0.11022589
               0.88139340                2.95289703               85.07636186                0.01011138               -0.00708812               -0.11248791                0.10673671                0.14095132                0.11554275                0.03646645
               1.88160567                2.94860421               85.08085013                0.01000000               -0.02151930               -0.12960091                0.07424785                0.46342857                0.19098920                0.10274866
               2.88096301                2.94706621               85.08508829                0.01000000               -0.12840475               -0.03193344                0.07706617                0.80120783                0.15031752                0.14279543
               3.87903757                2.94852121               85.08912918                0.01000001               -0.22846134               -0.02199894                0.09109875                1.10319364                0.13392945                0.14609232
               4.87639379                2.95182384               85.09310845                0.01000000               -0.29743511               -0.08041347                0.10802195                1.24061408                0.13520342                0.12744486
               5.87308887                2.95595669               85.09699916                0.01000000               -0.34148037               -0.08494931                0.11890340                1.21195017                0.12298296                0.08733701
               6.86956418                2.95904967               85.10043036                0.01000000               -0.41101965               -0.14088966                0.12408218                1.02422149                0.07957283                0.03596372
               7.86486848                2.95977502               85.10328586                0.01000001               -0.48096153               -0.06705204                0.12206964                0.68430786                0.03525412                0.09934006
               8.85994495                2.96320721               85.10554657                0.99999998               -0.26369506               -0.03645072                0.12195043                0.11160153                0.00868804                0.03416343
               9.85959457                2.96444318               85.10758878                0.99999997               -0.03503757               -0.03441495                0.11229838               -0.00273139               -0.00284541               -0.01968629
              -0.11104251                3.95887414               85.07761301                0.12400301               -0.03034476                0.08168468                0.17430530                0.39272444               -0.01771490                0.14844397
               0.88865404                3.95109157               85.07929203                0.01000000                0.09856295               -0.34921183                0.10865223                0.58919058                0.15303925                0.14244241
               1.89092875                3.94656248               85.08427508                0.01005307                0.08944038               -0.18254930                0.07974614                0.83457488                0.21759510                0.12805663
               2.89044285                3.94608259               85.08873977                0.01000001               -0.10607867               -0.13455776                0.08377709                1.09485420                0.15296961                0.12723441
               3.88880717                3.94772699               85.09303913                0.01000000               -0.20235286               -0.12081589                0.09737965                1.30630932                0.13018707                0.12018713
               4.88639579                3.95105177               85.09719477                0.01000000               -0.28253310               -0.10570442                0.11001894                1.46609242                0.11892390                0.10082465
               5.88315651                3.95510190               85.10118095                0.01002943               -0.39551820               -0.07929273                0.12060302                1.50613314                0.10680502                0.07383494
               6.87848543                3.95860356               85.10488117                0.01000000               -0.60708698               -0.00905845                0.13034984                1.40900675                0.08904408                0.06249266
               7.87101477                3.96102224               85.10814299                0.01000000               -0.98834186                0.11959842                0.13370155                1.32007578                0.03251697                0.07306857
               8.85871859                3.96281923               85.11012622                0.01000000               -0.63461203               -0.09824683                0.13715095                1.35204326                0.01514389                0.09981594
               9.85832253                3.96408347               85.11203377                0.21792549               -0.03960583               -0.76141753                0.12573094                1.35554386                0.00990615                0.12036133
              -0.09483295                4.95964660               85.08102729                0.14732341                0.03218186               -0.16807532                0.15857659                0.17320445                0.03800399               -0.04646132
               0.90548886                4.94591279               85.08381338                0.01000000               -0.09304493               -0.20881704                0.16312570                0.81500346                0.09895791                0.20227937
               1.90330615                4.94495323               85.08780323                0.01000001               -0.18966355               -0.15902795                0.09359670                1.14425138                0.12284929                0.13905743
               2.90169559                4.94437505               85.09233836                0.01000000               -0.15557841               -0.20097504                0.09385445                1.20135321                0.12672060                0.11313952
               3.90019458                4.94610489               85.09678508                0.01000000               -0.16774352               -0.21659473                0.10369760                1.44216634                0.10935560                0.09588464
               4.89834072                4.94970975               85.10110911                0.01002630               -0.22674195               -0.17844617                0.11244843                1.65966024                0.09654963                0.07580576
               5.89565974                4.95437083               85.10531130                0.01000000               -0.32583740               -0.10086759                0.11991678                1.78771228                0.08793583                0.05600459
               6.89182398                4.95886851               85.10931629                0.01000001               -0.43027089               -0.00834138                0.12693554                1.84236901                0.07679060                0.04617236
               7.88705432                4.96216699               85.11295830                0.01000000               -0.39496960                0.00959663                0.13506256                1.83635820                0.05835334                0.06549260
               8.88392458                4.96124227               85.11622683                0.01000001               -0.14386847               -0.23073691                0.14019946                1.62280453                0.03687681                0.15553511
               9.88417695                4.94921483               85.11919947                0.01000001                0.02523698               -0.89998116                0.14504406                1.06410228                0.01598126                0.28888676
              -0.08011079                5.95551263               85.08260896                0.98615289               -0.02417212               -0.21883898                0.07207956                0.30760092                0.00533158               -0.04430842
               0.91964748                5.94691523               85.08683794                0.01000000               -0.22688473                0.03721625                0.09223301                0.53211727                0.01488756                0.03904458
               1.91535151                5.94338193               85.09128070                0.01000000               -0.31646181               -0.17301536                0.10745605                0.86444415                0.07964228                0.10176781
               2.91331825                5.94206309               85.09572629                0.01000000               -0.15178569               -0.29781549                0.11007497                1.13034315                0.08541111                0.08396127
               3.91231580                5.94339510               85.10028799                0.01000002               -0.09975979               -0.34730806                0.11115737                1.46320733                0.08277677                0.07140117
               4.91132305                5.94748284               85.10481882                0.01000000               -0.12818973               -0.28385576                0.11600215                1.77727955                0.07372337                0.05241912
               5.90975200                5.95308455               85.10929573                0.01000000               -0.18932034               -0.16394477                0.12051190                1.94773603                0.06719689                0.03501546
               6.90753665                5.95843673               85.11368698                0.01000000               -0.21919170               -0.07215666                0.12532969                1.94950351                0.06112760                0.03386102
               7.90536817                5.96121418               85.11792255                0.01000000               -0.17049011               -0.07789479                0.13283701                1.72198723                0.05091724                0.06736489
               8.90412684                5.95820449               85.12194587                0.01000000               -0.08543516               -0.16555373                0.14223690                1.07859990                0.03027935                0.14394764
               9.90365947                5.94608385               85.12567912                0.01000000               -0.04673781               -0.09428391                0.15261471                0.53244056                0.01288486                0.26375227
              -0.07148614                6.95526982               85.08468527                1.00000000               -0.02519476               -0.02603772                0.07565940                0.00022312                0.00080668               -0.02795825
               0.92826191                6.94665711               85.08896498                0.01000001               -0.15333440               -0.02501344                0.09265084                0.17226644                0.03593306               -0.00708585
               1.92544717                6.94149292               85.09394681                0.01000001               -0.19863139               -0.27328426                0.14094698                0.64914149                0.05591345                0.01793064
               2.92428929                6.93841874               85.09866377                0.01000000               -0.07041019               -0.40079093                0.11758609                0.91172949                0.06155970                0.03831186
               3.92403897                6.93915873               85.10343157                0.01000000               -0.00462144               -0.56568964                0.12283342                1.40536532                0.06524396                0.04458632
               4.92419686                6.94403264               85.10825291                0.01000001               -0.01891983               -0.39267674                0.12314683                1.82215189                0.05838448                0.02908029
               5.92366057                6.95109194               85.11310162                0.01000000               -0.07562187               -0.20389338                0.12382834                1.93398223                0.05926957                0.01764640
               6.92268442                6.95742537               85.11800717                0.01000000               -0.09671324               -0.10822261                0.12637142                1.83772111                0.06011675                0.02532153
               7.92172631                6.96060910               85.12290344                0.01000001               -0.10287578               -0.02264039                0.13329480                1.52977795                0.05268096                0.07205467
               8.92062691                6.95793120               85.12768346                0.01000001               -0.13296365                0.11890446                0.14474924                0.88946989                0.03189244                0.16061301
               9.91906704                6.94732915               85.13213078                0.01000000               -0.15598692                0.27749473                0.15857700                0.39352271                0.01998690                0.28316685
              -0.06288091                7.95499188               85.08662481                0.99999998               -0.02493720               -0.02735861                0.07841278                0.00049882                0.00395728               -0.03599211
               0.93686972                7.94641496               85.09105843                0.99997496               -0.02731878               -0.02555263                0.09372049                0.00411203                0.00843445               -0.00739893
               1.93657271                7.93791624               85.09556167                0.01000000               -0.14913436               -0.19552362                0.10923909                0.36486965                0.05513861               -0.00920183
               2.93388703                7.93404727               85.10092733                0.01000001               -0.08817531               -0.46915887                0.13287719                0.73199417                0.09352467               -0.01041549
               3.93480921                7.93208130               85.10608463                0.01000001                0.09729267               -0.93350791                0.13542264                1.29495212                0.07175676               -0.02504685
               4.93583288                7.93962931               85.11126536                0.01000000                0.01148525               -0.37172647                0.13547691                1.79442531                0.07370039                0.00792504
               5.93503891                7.94900668               85.11670924                0.01000000               -0.05294874               -0.17244087                0.13271289                1.68686785                0.08372172                0.00566565
               6.93477391                7.95627228               85.12224821                0.01000001                0.02094954               -0.12934831                0.13387390                1.50886348                0.09382156                0.01750492
               7.93545790                7.96076137               85.12808566                0.01000002                0.02111398               -0.04176654                0.13831209                1.35575617                0.08870924                0.06787764
               8.93519619                7.96058258               85.13380513                0.01000001               -0.13619432                0.30344103                0.14764960                0.99270057                0.05625560                0.24400264
               9.93273402                7.95163375               85.13916136                0.01000000               -0.24621714                0.67204972                0.16107673                0.60815772                0.04401824                0.33642087
              -0.05432233                8.95472265               85.08856842                0.99999999               -0.02578749               -0.02557658                0.07830231               -0.00064857                0.00175511               -0.02837909
               0.94541979                8.94614606               85.09313651                0.99999998               -0.02827024               -0.02736586                0.09385853               -0.00058166                0.00520591               -0.00579167
               1.94511226                8.93758245               85.09774694                0.99999995               -0.03278412               -0.03288175                0.10973897                0.00016279                0.01816451                0.01216023
               2.94476411                8.92903556               85.10256758                0.99999351               -0.03781436               -0.26937391                0.12850841                0.11744520                0.02249725               -0.01073184
               3.94435597                8.92048857               85.10726881                0.01000000               -0.08020626               -0.60096495                0.14591404                1.28455100                0.11494605               -0.02214229
               4.94315998                8.93659811               85.11397112                0.01000001               -0.18005062               -0.15733605                0.14897150                1.55490576                0.17442253                0.00248933
               5.94075496                8.94764312               85.12014512                0.01000000               -0.10264887               -0.10917704                0.14818392                1.04331367                0.14435815               -0.00068798
               6.94110701                8.95483841               85.12636691                0.01002076                0.18880857               -0.16758055                0.14765742                0.85688560                0.15299833                0.00825664
               7.94453113                8.95977376               85.13305657                0.01000005                0.42507661               -0.20096320                0.14955060                0.91847714                0.23218305                0.04918659
               8.94960854                8.96400002               85.14156462                0.99999999                0.22983591                0.14657082                0.15118556                0.93565456                0.13295965                0.15949100
               9.94912785                8.96077014               85.14726620                1.00000000               -0.04806871                0.42906125                0.17193301                0.65793138               -0.00745487                0.16193859
              -0.04574070                9.95448035               85.09065766                1.00000000               -0.02610115               -0.02423078                0.07846774               -0.00310649               -0.01257815               -0.01925421
               0.95399829                9.94586765               85.09523970                1.00000000               -0.02864164               -0.02784161                0.09373174               -0.00323718               -0.01176908               -0.00321999
               1.95368647                9.93725861               85.09980087                1.00000000               -0.03342382               -0.03238426                0.10811823               -0.00297210               -0.01054801                0.00607463
               2.95332981                9.92865979               85.10439637                0.99999997               -0.03743918               -0.03757732                0.12205688               -0.00325974               -0.00760727               -0.00189436
               3.95293768                9.92006200               85.10902304                0.23322528               -0.67766806               -0.04265672                0.13724060                1.24931081                0.14042455                0.00488076
               4.93977645                9.93648259               85.11658881                0.01000000               -0.76363978               -0.01155211                0.16246842                0.99970374                0.29387945               -0.00138456
               5.93766489                9.94682314               85.12347380                0.01000000                0.00022621               -0.08199758                0.16733382                0.51289664                0.24275988               -0.00201202
               6.93978098                9.95292067               85.13027033                0.01000000                0.35004736               -0.19177399                0.16662003                0.36334499                0.23847854                0.00912095
               7.94466584                9.95674210               85.13769927                0.01000001                0.65659635               -0.30316605                0.16571574                0.54313658                0.28582683                0.05258651
               8.95291290                9.96351399               85.14628159                1.00000000                0.38432797               -0.04860244                0.17513396                0.50407976                0.15110422                0.00706787
               9.95235240                9.96021497               85.15198317                1.00000000               -0.05605073               -0.05551712                0.19588151               -0.00744780                0.00715869               -0.00715839
              -0.13527007               -0.04373129               86.06760627                0.93097809               -0.01501288               -0.01367174                0.06142313                0.00365638                0.00393136                0.00203666
               0.86457980               -0.04826840               86.07042218                0.85538374               -0.01242815               -0.02924776                0.07690139                0.00552864                0.01699811               -0.00528875
               1.86448137               -0.05251441               86.07343283                0.53798832                0.00180892               -0.02970973                0.09902988                0.02696828                0.07173910               -0.00043103
               2.86461598               -0.05596611               86.07714661                0.25640238                0.07332990               -0.03202168                0.11452679                0.16566383                0.14821712               -0.00016146
               3.86594797               -0.05557190               86.08149402                0.16925906               -0.02336186                0.01398614                0.13173271                0.29959760                0.09625401               -0.01643193
               4.86414874               -0.04724673               86.08443296                0.25881709               -0.21932387                0.02606358                0.11082026                0.22455800               -0.19107274                0.11008919
               5.86156149               -0.04306575               86.08552638                0.99999999               -0.14477349               -0.03279349                0.09579927                0.16130524               -0.09433459                0.00805006
               6.86125327               -0.04209594               86.08807166                1.00000000               -0.03049943               -0.02884207                0.08473970               -0.00200026               -0.03446923                0.00420937
               7.86095150               -0.04118001               86.09044334                0.99999999               -0.02773986               -0.02602541                0.07837748               -0.00194378               -0.04802639                0.01196212
               8.86069848               -0.04030746               86.09275663                0.99999999               -0.02305323               -0.02437412                0.07181732               -0.00276608               -0.04182243                0.00154853
               9.86049044               -0.03939228               86.09524699                1.00000000               -0.02080409               -0.02246785                0.06503745               -0.00489913               -0.03137254               -0.02566984
              -0.13069639                0.95613199               86.06987875                0.93521707               -0.02769585               -0.01195835                0.07242802                0.00256617               -0.00259764                0.01398582
               0.86902665                0.95143912               86.07262121                0.01000379               -0.03518520               -0.03439114                0.08721424                0.01811561                0.00107805               -0.00382385
               1.86859990                0.94718849               86.07550140                0.01000000               -0.06126420               -0.02308523                0.10299664                0.04802776                0.01274521                0.05196942
               2.86780137                0.94371367               86.07873718                0.01001615               -0.20078271                0.04164322                0.10997765                0.21537775                0.01811261                0.10085778
               3.86458425                0.94456796               86.08214835                0.01000000               -0.38300608                0.09383555                0.14237217                0.61052331                0.08646418                0.18054620
               4.86014124                0.95301391               86.08745977                0.01000000               -0.19925518               -0.12510106                0.18035809                0.72367032                0.12609154                0.08487455
               5.86059915                0.95660632               86.08939162                0.01000291                0.00745792               -0.17064107                0.12075935                0.34501005               -0.02998210                0.04341745
               6.86029040                0.95761564               86.09208185                0.44701353               -0.02806603               -0.02245711                0.10937669                0.01138450                0.01140516                0.07379118
               7.86003783                0.95855974               86.09478324                1.00000000               -0.02567255               -0.02910088                0.09760733                0.00307524                0.00429331                0.02106153
               8.85977695                0.95944879               86.09727553                0.99999999               -0.02557816               -0.02701995                0.08909837               -0.00140626               -0.00474195                0.00614068
               9.85952626                0.96038304               86.09977435                1.00000000               -0.02506891               -0.02551679                0.08187572               -0.00379368               -0.00332843               -0.02825406
              -0.12583300                1.95602955               86.07232510                0.66193969               -0.02813850               -0.00565130                0.08942042                0.01528399               -0.00110231                0.05351720
               0.87388562                1.95104378               86.07491361                0.01000001               -0.04998161               -0.04924221                0.09988909                0.06039758                0.05330590                0.00308813
               1.87316737                1.94702389               86.07858336                0.01015871               -0.11707731               -0.04462169                0.09902370                0.22284893                0.10149070                0.09569790
               2.87154407                1.94486676               86.08222211                0.01000000               -0.21545867                0.05919178                0.09973310                0.49308436                0.09632604                0.17804596
               3.86885820                1.94630481               86.08611937                0.01000001               -0.24801414                0.07505903                0.11548855                0.86213848                0.13261264                0.21354172
               4.86658379                1.95025125               86.09012720                0.01000001               -0.24991194               -0.20090082                0.13261460                1.04571986                0.14718574                0.08818515
               5.86385996                1.95352143               86.09399513                0.01002892               -0.35281209               -0.20032193                0.12840226                0.86164573                0.13736170                0.09980048
               6.85952755                1.95745492               86.09747437                0.01000002               -0.23400523               -0.12070824                0.09486029                0.58329162                0.03802538                0.07626784
               7.85917985                1.95823797               86.09928605                0.01000001               -0.03402492               -0.14319358                0.11427626                0.21772766               -0.00784107                0.06563075
               8.85884705                1.95915214               86.10185642                0.99999996               -0.03168895               -0.03179299                0.10667544                0.00038313                0.02033293                0.02768662
               9.85854607                1.96009738               86.10422010                0.99999999               -0.03009743               -0.03096721                0.09772161               -0.00334584                0.01059171               -0.03007299
              -0.12041917                2.95601897               86.07522791                0.31362480               -0.03405654                0.04617778                0.10859012                0.10979184                0.00605272                0.13380953
               0.87924026                2.95045428               86.07747261                0.01000784               -0.01734620               -0.13167221                0.11378568                0.18711647                0.10905052                0.02413359
               1.87923390                2.94629606               86.08172090                0.01000000               -0.04290651               -0.13525047                0.09980923                0.49132078                0.18592046                0.09726477
               2.87838213                2.94489751               86.08597617                0.01013247               -0.13956905               -0.05350464                0.10066841                0.79127064                0.15863747                0.15398147
               3.87644252                2.94606914               86.09012691                0.01000001               -0.22715576               -0.06119335                0.11196004                1.05617506                0.15170757                0.15308095
               4.87383902                2.94899589               86.09424003                0.01000000               -0.29070643               -0.11040894                0.12256707                1.17302531                0.14958011                0.12454734
               5.87062839                2.95259988               86.09821032                0.01000000               -0.32996605               -0.09479703                0.12579527                1.13696922                0.12743781                0.07591980
               6.86723970                2.95520148               86.10167821                0.01000000               -0.39666150               -0.13745167                0.12723673                0.97377224                0.08391144                0.04510320
               7.86269516                2.95569586               86.10452420                0.01000000               -0.46572449               -0.07158734                0.12787318                0.66111158                0.04072836                0.09506565
               8.85792521                2.95881293               86.10678605                1.00000000               -0.25631532               -0.03709820                0.12615145                0.11025975                0.01401681                0.03695466
               9.85756886                2.95976369               86.10871140                0.99999999               -0.03563483               -0.03487290                0.11194124               -0.00347214               -0.00348636               -0.02385586
              -0.11250778                3.95695310               86.07909658                0.17593461               -0.01413657                0.01364789                0.12014985                0.31975154               -0.00666645                0.14584425
               0.88735086                3.94841033               86.08051334                0.01000000                0.05291648               -0.31775476                0.13279171                0.57559813                0.17712882                0.12498482
               1.88855055                3.94431888               86.08520541                0.01000002                0.01227738               -0.17587395                0.11015346                0.82691083                0.22052530                0.13133463
               2.88759640                3.94379666               86.08968834                0.01000001               -0.13336192               -0.14502570                0.10804576                1.04569459                0.15964340                0.13673787
               3.88588331                3.94508094               86.09408085                0.01000001               -0.20414263               -0.13302947                0.11350130                1.23628730                0.13983311                0.12218792
               4.88351355                3.94804307               86.09833957                0.01000000               -0.27447779               -0.11947758                0.12170042                1.38692389                0.12919322                0.09392388
               5.88039376                3.95162549               86.10241448                0.01000001               -0.38032723               -0.08987544                0.12816072                1.42222092                0.11540850                0.06117692
               6.87590701                3.95470589               86.10621031                0.01000000               -0.58015651               -0.01733209                0.13474164                1.33377257                0.09550076                0.05145419
               7.86879063                3.95680623               86.10949696                0.01000001               -0.94612973                0.10622443                0.14009330                1.25880605                0.04829254                0.05791541
               8.85698441                3.95841017               86.11153340                0.01000002               -0.61077578               -0.10048164                0.14444085                1.29251344                0.02619899                0.09622259
               9.85657511                3.95939992               86.11330238                0.27537084               -0.04093007               -0.72679084                0.12720007                1.28904855                0.01160767                0.12187338
              -0.09693860                4.95629193               86.08228665                0.24448598                0.03250531               -0.18475236                0.10527892                0.18612978                0.08952698               -0.12235679
               0.90338645                4.94409918               86.08565549                0.01000000               -0.13378040               -0.18515307                0.16728617                0.72376396                0.07477248                0.17774353
               1.90038579                4.94277858               86.08885893                0.01000001               -0.24262452               -0.15368509                0.11996950                1.05659976                0.08878362                0.13086043
               2.89853396                4.94199700               86.09335534                0.01000000               -0.17319660               -0.20500859                0.11426600                1.13653456                0.13129153                0.11898773
               3.89692186                4.94340855               86.09788462                0.01000000               -0.17505085               -0.21673629                0.11883407                1.36668628                0.11583975                0.09468778
               4.89503294                4.94660634               86.10228227                0.01000002               -0.22559288               -0.18308060                0.12341931                1.57046412                0.09725488                0.06628014
               5.89241000                4.95080237               86.10654133                0.01000001               -0.31492646               -0.10780935                0.12749732                1.69036889                0.08620103                0.04071095
               6.88873441                4.95485484               86.11061394                0.01000001               -0.41214998               -0.01824036                0.13206080                1.74510448                0.07124716                0.03094492
               7.88416700                4.95782035               86.11434638                0.01000002               -0.37763184                0.00055407                0.13943155                1.74295119                0.05849563                0.04043423
               8.88118178                4.95680330               86.11767411                0.01000000               -0.13983360               -0.22944011                0.15015031                1.54677384                0.04303001                0.14003233
               9.88137033                4.94522788               86.12071623                0.01000003                0.01885511               -0.86110233                0.16577265                1.01451375                0.02147610                0.29393312
              -0.08439969                5.95325805               86.08334785                0.99612492               -0.02608247               -0.16523888                0.07865952                0.19991734                0.00294057               -0.06437054
               0.91533948                5.94470727               86.08777880                0.01006897               -0.19077874                0.01795682                0.09767448                0.42534234                0.00548624               -0.01001585
               1.91178473                5.94124517               86.09230130                0.01000001               -0.28211782               -0.15427938                0.10748323                0.77727492                0.07001611                0.08906149
               2.90969713                5.93969649               86.09689838                0.01000000               -0.15885199               -0.29635357                0.12733199                1.05842766                0.10724695                0.06468191
               3.90860769                5.94074621               86.10143670                0.01000001               -0.10840577               -0.33526154                0.12271981                1.38337264                0.08213080                0.07323898
               4.90752901                5.94438146               86.10601454                0.01000001               -0.13275254               -0.27806193                0.12536445                1.68000632                0.06968331                0.04299272
               5.90595264                5.94946930               86.11052966                0.01000001               -0.18689480               -0.16592162                0.12691858                1.84342714                0.06064550                0.01963772
               6.90379112                5.95434108               86.11495864                0.01000002               -0.21257284               -0.07751348                0.12925485                1.84683156                0.05747988                0.01646311
               7.90170119                5.95681731               86.11927280                0.01000003               -0.16393754               -0.08320556                0.13526527                1.63390508                0.05146550                0.04296549
               8.90051237                5.95382137               86.12339746                0.01000007               -0.08424746               -0.16427207                0.14806159                1.02330394                0.03053338                0.12496073
               9.90001624                5.94217788               86.12726036                0.01000000               -0.04961284               -0.09368024                0.17024657                0.50636083                0.01327841                0.25541989
              -0.07583869                6.95298715               86.08543758                1.00000000               -0.02551341               -0.02860533                0.07581824               -0.00009405                0.00208751               -0.02442347
               0.92390618                6.94445832               86.08989255                0.01000000               -0.16096221               -0.02285247                0.09309824                0.18920682                0.06365963               -0.00904591
               1.92094207                6.93969299               86.09558586                0.01000002               -0.18523519               -0.26555865                0.20844785                0.59751034                0.20764606               -0.15800428
               2.92020147                6.93606992               86.09979209                0.01000000               -0.05188641               -0.38600231                0.11733020                0.84113489                0.06958713                0.05447164
               3.91990434                6.93670332               86.10470218                0.01000000               -0.01457472               -0.53899562                0.13231243                1.33199831                0.07109122                0.04935744
               4.91990998                6.94104510               86.10950853                0.01000001               -0.02927069               -0.37831186                0.12801972                1.72137661                0.05257966                0.01841049
               5.91931892                6.94748394               86.11435324                0.01000002               -0.07934680               -0.20038121                0.12762791                1.83101764                0.05051499                0.00543699
               6.91832304                6.95330457               86.11927805                0.01000003               -0.09770566               -0.10837365                0.12930711                1.74173278                0.05069338                0.00816343
               7.91736481                6.95615624               86.12424648                0.01000000               -0.10178784               -0.02732584                0.13515150                1.44918515                0.04380598                0.05527475
               8.91628729                6.95351786               86.12915144                0.01011634               -0.12901395                0.10679578                0.14489758                0.83971090                0.02902491                0.14137066
               9.91478453                6.94335427               86.13377430                0.01000000               -0.15027532                0.25581674                0.16360427                0.36934404                0.02183986                0.26545110
              -0.06734391                7.95268595               86.08739197                0.99999999               -0.02383119               -0.02865188                0.07493216                0.00096373                0.00561455               -0.03586809
               0.93241778                7.94425022               86.09199101                1.00000000               -0.02663776               -0.02310294                0.09273069                0.00746957                0.01065225               -0.00706694
               1.93212333                7.93593400               86.09666628                0.01000001               -0.14541387               -0.20497002                0.11177409                0.36437565                0.06289427               -0.03301245
               2.92950950                7.93197644               86.10230707                0.01000000               -0.09254265               -0.44242355                0.14090392                0.69933695                0.09209242               -0.00175073
               3.93027248                7.92996630               86.10746035                0.01000002                0.08332116               -0.89287308                0.14307675                1.23327955                0.05574788               -0.00430233
               4.93117592                7.93681523               86.11264900                0.01000002                0.00205260               -0.35399890                0.13683609                1.69812957                0.05208500                0.00687787
               5.93031353                7.94546168               86.11804304                0.01000003               -0.06112269               -0.16500297                0.13282259                1.59802895                0.06602492               -0.00169296
               6.92995347                7.95217361               86.12359489                0.01000000                0.00790311               -0.12457140                0.13531966                1.43004393                0.08260469                0.00288755
               7.93047159                7.95627079               86.12947379                0.01000005                0.00775416               -0.03964727                0.13918174                1.27940872                0.07969703                0.05669086
               8.93010855                7.95595729               86.13528845                0.01000001               -0.13706508                0.28595527                0.14733328                0.92328711                0.05075336                0.22287820
               9.92773029                7.94729421               86.14079014                0.01000000               -0.23782587                0.62523222                0.15901684                0.55686677                0.04190637                0.31850097
              -0.05894796                8.95241411               86.08932186                0.99999999               -0.02445235               -0.02482922                0.07230242               -0.00126094                0.00226595               -0.03032334
               0.94080751                8.94399626               86.09406082                0.99999998               -0.02743412               -0.02592527                0.09100566               -0.00075693                0.00602444               -0.00593503
               1.94050336                8.93559359               86.09884603                0.99999995               -0.03258015               -0.03292764                0.11019262                0.00078477                0.02100876                0.01361394
               2.94015591                8.92722145               86.10387357                1.00000000               -0.03861033               -0.25684566                0.13309446                0.11466703                0.02700841               -0.01077405
               3.93973115                8.91884586               86.10876562                0.01000002               -0.08893603               -0.57807588                0.15387236                1.23126121                0.11140316               -0.00852288
               4.93837719                8.93396513               86.11551210                0.01000000               -0.19050137               -0.14875752                0.15711972                1.48017256                0.16016585                0.01047058
               5.93592112                8.94418388               86.12165132                0.01000000               -0.11311896               -0.10300775                0.14933336                0.98663190                0.13139999               -0.00625023
               6.93611481                8.95081314               86.12785351                0.01000000                0.16240927               -0.15780154                0.14755932                0.81073052                0.14509059                0.00050605
               7.93916931                8.95536330               86.13456115                0.01000000                0.38073973               -0.18699842                0.15221739                0.86959825                0.22438811                0.04467683
               8.94372961                8.95923697               86.14308229                0.99999999                0.20393552                0.13953481                0.15234234                0.87826773                0.12368671                0.14936913
               9.94324802                8.95585892               86.14898245                1.00000000               -0.04815890                0.40062454                0.17131695                0.60661432               -0.00745178                0.15447792
              -0.05053343                9.95218936               86.09140161                1.00000000               -0.02434159               -0.02247487                0.07033494               -0.00431111               -0.01454135               -0.02117659
               0.94922316                9.94373172               86.09615154                1.00000000               -0.02763697               -0.02645441                0.08869325               -0.00413136               -0.01442193               -0.00351706
               1.94891383                9.93527545               86.10087038                0.99999996               -0.03362911               -0.03181436                0.10576573               -0.00356127               -0.01477729                0.00652708
               2.94855058                9.92683953               86.10561600                0.99999999               -0.03799008               -0.03819222                0.12153633               -0.00406677               -0.01234136               -0.00266895
               3.94815403                9.91840478               86.11040673                0.32931102               -0.65546127               -0.04410722                0.13881093                1.19231558                0.14452234                0.00688567
               4.93544135                9.93384007               86.11829834                0.01002659               -0.74779375               -0.01250509                0.19445846                0.95625305                0.30616801                0.00557635
               5.93319816                9.94340153               86.12523587                0.01000000               -0.02263439               -0.07823540                0.18776697                0.48657875                0.22953280               -0.00354439
               6.93498866                9.94901758               86.13197606                0.01000000                0.31207872               -0.17955620                0.17021315                0.34384991                0.22419424                0.00545321
               7.93943973                9.95253082               86.13936880                0.01000001                0.60948115               -0.28324746                0.17237439                0.51356287                0.28116382                0.05332070
               8.94717829                9.95874798               86.14803601                0.99999999                0.35894726               -0.04889834                0.17575102                0.48366200                0.14542162                0.00706931
               9.94661868                9.95530670               86.15393617                0.99999999               -0.05596081               -0.05522146                0.19472525               -0.00706197                0.00715750               -0.00715790
              -0.13812866               -0.04605368               87.06821390                0.91940386               -0.01135103               -0.01029243                0.06161867                0.00415296                0.00442056               -0.00004527
               0.86175783               -0.05058745               87.07118823                0.84026949               -0.00450530               -0.03286659                0.07639832                0.00940405                0.02055250               -0.00666496
               1.86178123               -0.05461358               87.07441537                0.60548696                0.01248404               -0.02668349                0.09537668                0.03011864                0.07298665               -0.00218091
               2.86200751               -0.05751120               87.07818495                0.32542417                0.06259414               -0.02475106                0.09564587                0.15971302                0.12531171                0.00465865
               3.86303312               -0.05641946               87.08234950                0.25109173               -0.07704879                0.04441278                0.07227054                0.18211436                0.04653556                0.00899615
               4.86046653               -0.04975607               87.08528038                0.44226491               -0.20792482                0.01384602                0.07866639                0.20478539               -0.13074562                0.07129172
               5.85887462               -0.04701029               87.08651666                1.00000000               -0.09789925               -0.03385165                0.10116163                0.09134531               -0.07987064                0.00315790
               6.85850855               -0.04617431               87.08891458                1.00000000               -0.03490542               -0.02780752                0.08359759               -0.00095491               -0.03430028                0.00755628
               7.85817651               -0.04549310               87.09120741                0.99999999               -0.02943322               -0.02479458                0.07456262               -0.00145822               -0.04628196                0.01278621
               8.85791989               -0.04489874               87.09344680                0.99999999               -0.02261905               -0.02271927                0.06650781               -0.00308608               -0.04112092                0.00126613
               9.85772413               -0.04426404               87.09586327                0.99797657               -0.01957544               -0.02122630                0.05914473               -0.00563768               -0.03150860               -0.02661640
              -0.13355337                0.95384339               87.07060924                0.89995359               -0.03148164               -0.00533045                0.07383944                0.00555860               -0.00409806                0.01425768
               0.86613182                0.94908389               87.07350722                0.01637331               -0.04511688               -0.04304299                0.08887565                0.03762679               -0.00081118               -0.00428602
               1.86554430                0.94511959               87.07654478                0.01000000               -0.08121174               -0.02687282                0.10478936                0.09634208                0.00366929                0.05087586
               2.86450758                0.94224129               87.07987109                0.01000001               -0.22838012                0.02771935                0.11558554                0.28118780                0.02551201                0.10137433
               3.86097669                0.94402466               87.08371707                0.01000000               -0.33488902                0.04393539                0.14987309                0.56780392                0.11563970                0.14609582
               4.85780980                0.95038239               87.08893217                0.01000000               -0.14897509               -0.13002248                0.11943752                0.61234663                0.11522170                0.01014568
               5.85799719                0.95265119               87.09062270                0.01000000               -0.00347005               -0.15057539                0.12035943                0.29170053               -0.04364942                0.03202027
               6.85774040                0.95354762               87.09317529                0.56388278               -0.02365240               -0.02376741                0.10724083                0.01940725                0.00659636                0.06115728
               7.85752414                0.95425896               87.09575143                1.00000000               -0.02329522               -0.02859790                0.09519511                0.00486067                0.00199435                0.02106553
               8.85727450                0.95487407               87.09815122                0.99999999               -0.02455427               -0.02549023                0.08586575               -0.00139187               -0.00501571                0.00662399
               9.85703306                0.95552369               87.10057211                0.99999999               -0.02414384               -0.02513454                0.07826437               -0.00456568               -0.00329988               -0.03025254
              -0.12849847                1.95383971               87.07322781                0.71005705               -0.02673531                0.00371099                0.08925618                0.01782075               -0.00341936                0.05653168
               0.87123417                1.94855169               87.07594265                0.01000000               -0.04754258               -0.06519576                0.10392281                0.09794313                0.04911036               -0.00021837
               1.87055067                1.94484896               87.07966789                0.01000001               -0.12539914               -0.05960623                0.09943873                0.28838568                0.09293802                0.08494294
               2.86872619                1.94304319               87.08335743                0.01000001               -0.21512904                0.02191563                0.12429173                0.54162203                0.10417605                0.16988922
               3.86624809                1.94445924               87.08745381                0.01000003               -0.23196243               -0.02016544                0.13881267                0.87157286                0.15014409                0.17476085
               4.86408694                1.94764348               87.09157272                0.01000001               -0.23523441               -0.21399833                0.14243576                0.95055672                0.14345316                0.04347270
               5.86154340                1.94997820               87.09528433                0.01000000               -0.33990069               -0.17977274                0.12543687                0.79545573                0.11257072                0.07762708
               6.85728893                1.95335034               87.09847095                0.01000001               -0.22980659               -0.11659072                0.10040743                0.55724392                0.03643848                0.07147105
               7.85694727                1.95393494               87.10042909                0.01000001               -0.03308077               -0.13967655                0.11244667                0.21460886                0.00335909                0.06452030
               8.85662731                1.95459146               87.10292300                1.00000000               -0.03068522               -0.03023694                0.10615396                0.00309506                0.02098407                0.03098271
               9.85633357                1.95523327               87.10518774                0.99999999               -0.02937431               -0.03199559                0.09604879               -0.00376564                0.01041523               -0.03466025
              -0.12262092                2.95391761               87.07625612                0.38186100               -0.02976571                0.04462857                0.09685225                0.11069207                0.00689081                0.11979426
               0.87708142                2.94777997               87.07863758                0.01000001               -0.02792823               -0.15716519                0.11801999                0.24317354                0.10265758                0.02771563
               1.87682052                2.94392746               87.08284631                0.01000001               -0.06758397               -0.13989082                0.12340786                0.52566015                0.17576103                0.09814898
               2.87572975                2.94267960               87.08710166                0.01000000               -0.15063303               -0.08025068                0.12348910                0.78639888                0.15565512                0.14940000
               3.87380786                2.94362135               87.09136838                0.01000001               -0.22138816               -0.10231021                0.13280489                1.00636709                0.15136664                0.14305633
               4.87130198                2.94610242               87.09555979                0.01000000               -0.28042063               -0.13777383                0.13787793                1.09967296                0.14872685                0.09943142
               5.86819944                2.94905573               87.09951507                0.01000000               -0.31867242               -0.09918849                0.13358282                1.05819560                0.12380154                0.05907664
               6.86492853                2.95121580               87.10297510                0.01000000               -0.38121178               -0.13267160                0.13096534                0.92168649                0.08627428                0.04692361
               7.86057521                2.95146543               87.10584332                0.01000001               -0.44452277               -0.07882880                0.13525563                0.63818947                0.04929674                0.09696034
               8.85603808                2.95426933               87.10806960                0.99999999               -0.24505395               -0.03679240                0.13076405                0.11140922                0.01965159                0.04307739
               9.85567413                2.95488378               87.10982760                0.99999999               -0.03639488               -0.03585755                0.11109968               -0.00439791               -0.00466720               -0.03028670
              -0.11400935                3.95473228               87.08001601                0.25379779                0.00971442               -0.04847030                0.08004529                0.20965218                0.00833398                0.10287178
               0.88608779                3.94540839               87.08194786                0.01000000                0.00867985               -0.27888853                0.14330514                0.53247419                0.15709874                0.13644258
               1.88616425                3.94205115               87.08647815                0.01000003               -0.06637601               -0.17264615                0.13440088                0.82956176                0.18998982                0.14114187
               2.88476027                3.94143817               87.09090069                0.01000001               -0.16058179               -0.15674148                0.13084429                0.99639354                0.15357877                0.13291239
               3.88295261                3.94241304               87.09530915                0.01001095               -0.20571275               -0.14892789                0.13258070                1.16132090                0.13934718                0.11923596
               4.88064602                3.94488800               87.09962878                0.01000001               -0.26793366               -0.13710195                0.13648441                1.29542584                0.12782663                0.07907538
               5.87759394                3.94799443               87.10374416                0.01000003               -0.36665270               -0.09929339                0.13865697                1.33307774                0.11207997                0.04470207
               6.87331297                3.95069691               87.10757600                0.01009054               -0.54682020               -0.02383675                0.13953922                1.24396402                0.09577797                0.03519249
               7.86665753                3.95235837               87.11094486                0.01000000               -0.89379124                0.08672024                0.15097764                1.18737755                0.05526983                0.04440922
               8.85543714                3.95385561               87.11301504                0.01000000               -0.58204132               -0.10452404                0.15216396                1.22674988                0.04124237                0.09569315
               9.85501671                3.95451611               87.11457777                0.20147369               -0.04204328               -0.68741354                0.12724468                1.20845601                0.01463339                0.13414126
              -0.09978009                4.95294821               87.08313286                0.41529464                0.01921322               -0.18289919                0.07855896                0.18017261                0.07481350               -0.10031733
               0.90041204                4.94220220               87.08715911                0.01000000               -0.14189696               -0.14652663                0.12445348                0.61211446                0.01320537                0.15248834
               1.89738197                4.94047454               87.09020262                0.01000001               -0.25581575               -0.18074648                0.13693302                0.94052882                0.04566257                0.11879935
               2.89529573                4.93954477               87.09462368                0.01000000               -0.18987630               -0.22590997                0.13711664                1.08678897                0.11218767                0.12065735
               3.89358444                4.94064280               87.09916176                0.01000001               -0.18333079               -0.21853614                0.13638673                1.28526282                0.10515634                0.09098411
               4.89162911                4.94336038               87.10357749                0.01000000               -0.22661759               -0.18857844                0.13653598                1.47024007                0.08817344                0.05462472
               5.88905209                4.94706987               87.10786125                0.01000000               -0.30926180               -0.11645159                0.13813343                1.59027745                0.07549837                0.02159180
               6.88544387                4.95073907               87.11195751                0.01000000               -0.39440146               -0.02975123                0.13802092                1.63800528                0.05733421                0.00941352
               7.88116406                4.95319983               87.11574693                0.01000007               -0.35142717               -0.00924910                0.13808626                1.63704539                0.04827313                0.01818483
               8.87841533                4.95217885               87.11922984                0.01002708               -0.13209117               -0.23146164                0.15561968                1.46242451                0.04392398                0.12396435
               9.87852224                4.94113551               87.12251492                0.01000000                0.01069083               -0.81909677                0.21386518                0.95479275                0.02600964                0.31995948
              -0.08891388                5.95107430               87.08418215                1.00000000               -0.02823628               -0.11054859                0.08782321                0.11164384                0.00079985               -0.06105927
               0.91080375                5.94247786               87.08879143                0.01000000               -0.17269308                0.00308900                0.10238881                0.31683512                0.00176332               -0.03668488
               1.90763225                5.93843622               87.09343036                0.01000000               -0.22379780               -0.32533385                0.13460091                0.83803491                0.06368414                0.13395887
               2.90632780                5.93691997               87.09827293                0.01000000               -0.13949996               -0.27226457                0.13937705                1.04375407                0.10056450                0.05567311
               3.90484225                5.93804232               87.10274238                0.01000003               -0.13520228               -0.32602881                0.14087452                1.31781870                0.06489597                0.06904688
               4.90362375                5.94111643               87.10732611                0.01000000               -0.14107246               -0.27969999                0.13893821                1.57956807                0.05388055                0.02857884
               5.90202080                5.94566540               87.11183410                0.01000000               -0.18403216               -0.16912841                0.13647948                1.74173613                0.04322445               -0.00120155
               6.89994311                5.95010189               87.11627207                0.01008385               -0.20310726               -0.08933359                0.13518035                1.74345854                0.03729530               -0.00293891
               7.89795866                5.95217339               87.12062785                0.01002722               -0.15965781               -0.08431164                0.13517444                1.53447308                0.02965505                0.02791612
               8.89674995                5.94922638               87.12490711                0.01000001               -0.08797098               -0.16556146                0.14885831                0.96125203                0.01357998                0.11113082
               9.89619924                5.93813418               87.12908405                0.01000000               -0.05507108               -0.10135602                0.19421647                0.47757378                0.00359873                0.23368419
              -0.08035433                6.95073723               87.08620163                1.00000000               -0.02588451               -0.03420343                0.07681807                0.00003322                0.00305493               -0.02549429
               0.91938682                6.94226398               87.09082695                0.11435551                0.00274424               -0.01862489                0.09380434                0.01176630                0.13635987               -0.01002800
               1.91970055                6.93396786               87.09811576                0.01000001               -0.14110556               -0.22201987                0.16018963                0.58588928                0.20985371               -0.15685718
               2.91656471                6.93409948               87.10101037                0.01000000               -0.19780979               -0.34945950                0.14572423                0.93806831                0.00749127                0.05695031
               3.91574435                6.93412222               87.10607782                0.01010512               -0.04836594               -0.50552501                0.14198445                1.22034445                0.05831001                0.04900887
               4.91559739                6.93776638               87.11081331                0.01000000               -0.04214965               -0.36765655                0.13924471                1.61166119                0.03227379               -0.00444619
               5.91490136                6.94368730               87.11565418                0.01008200               -0.08961682               -0.19953226                0.13585608                1.72893627                0.03710973               -0.02241145
               6.91380505                6.94895239               87.12059331                0.01000000               -0.10861636               -0.11736613                0.13808979                1.64392217                0.03663064               -0.01166507
               7.91272903                6.95151360               87.12560647                0.01000003               -0.10627377               -0.02964354                0.13827015                1.36574230                0.02517601                0.04470568
               8.91167958                6.94886762               87.13058141                0.01000001               -0.12354631                0.09414565                0.14465631                0.78698747                0.01219008                0.12776325
               9.91025811                6.93910839               87.13540287                0.01000003               -0.14214704                0.23307209                0.16550059                0.34255357                0.00988507                0.23839599
              -0.07196671                7.95039023               87.08812345                1.00000000               -0.02248366               -0.03153443                0.07133654                0.00148379                0.00721819               -0.03758425
               0.92780845                7.94210536               87.09291304                1.00000000               -0.02593740               -0.01985745                0.09196448                0.01174410                0.01351691               -0.00556849
               1.92751454                7.93399582               87.09779715                0.01000002               -0.14368240               -0.01586187                0.11461401                0.19222798                0.07096091               -0.09934253
               2.92493480                7.92993078               87.10374541                0.01000001               -0.09661511               -0.42941597                0.14253164                0.63779862                0.09859422                0.01435612
               3.92558224                7.92793182               87.10894616                0.01000000                0.06785460               -0.83752440                0.15677482                1.15168366                0.03783953                0.00074627
               4.92629190                7.93376330               87.11400208                0.01000007               -0.00843589               -0.33041034                0.12991084                1.58115759                0.03361710               -0.02333481
               5.92541352                7.94167475               87.11936569                0.01001881               -0.06483221               -0.16810065                0.13804458                1.50657229                0.06361963               -0.04037884
               6.92499525                7.94775456               87.12495460                0.01000003               -0.00276196               -0.12425193                0.14004580                1.35998489                0.08153564               -0.01985258
               7.92535828                7.95158052               87.13086930                0.01001768               -0.00501716               -0.03706527                0.14259302                1.22079020                0.07229761                0.04739544
               8.92489491                7.95110929               87.13675179                0.01000001               -0.13947548                0.26861117                0.14867083                0.85982492                0.04479618                0.21257204
               9.92256877                7.94279562               87.14234170                0.01000001               -0.23261368                0.58026431                0.16189603                0.51465296                0.03724951                0.31350829
              -0.06375492                8.95010655               87.09001447                0.99999999               -0.02289713               -0.02464500                0.06618192               -0.00220586                0.00261175               -0.03285498
               0.93601611                8.94186683               87.09495663                0.99999999               -0.02626975               -0.02447536                0.08805458               -0.00116493                0.00706214               -0.00589909
               1.93571969                8.93365062               87.09995079                0.99999996               -0.03157111               -0.03276836                0.11061177                0.00281286                0.02542937                0.01523294
               2.93538469                8.92551116               87.10522947                0.99999998               -0.03870894               -0.24046145                0.13838890                0.11664680                0.03434902               -0.00864603
               3.93494551                8.91737173               87.11034625                0.01000000               -0.09535401               -0.55071601                0.16263979                1.16052820                0.10761973                0.00901049
               4.93347761                8.93115818               87.11711352                0.01001851               -0.19519799               -0.13708404                0.14973110                1.38661669                0.14950492               -0.00418766
               5.93104155                8.94032529               87.12313179                0.01000001               -0.11893097               -0.10458009                0.14726797                0.92367412                0.14038255               -0.04801811
               6.93109899                8.94646736               87.12931809                0.01000001                0.13742833               -0.14849684                0.14910381                0.77918418                0.15293262               -0.01587926
               7.93379011                8.95077229               87.13610092                0.01015850                0.32809925               -0.16936535                0.15316277                0.83216842                0.21975278                0.04423938
               8.93766097                8.95423984               87.14461146                0.99999999                0.16941953                0.13193258                0.15348720                0.81502234                0.11411259                0.14109105
               9.93717850                8.95071368               87.15069254                0.99999999               -0.04824681                0.36843781                0.17070056                0.55370654               -0.00744852                0.15083485
              -0.05553140                9.94989733               87.09206436                0.99949884               -0.02275253               -0.02092190                0.06238119               -0.00579565               -0.01710305               -0.02361720
               0.94424108                9.94161585               87.09701357                0.99999999               -0.02710660               -0.02509808                0.08376373               -0.00534707               -0.01792690               -0.00398309
               1.94392647                9.93334045               87.10191619                1.00000000               -0.03472220               -0.03101704                0.10331777               -0.00403653               -0.02071814                0.00688876
               2.94354663                9.92512155               87.10682710                0.99999997               -0.03903424               -0.03896064                0.12044606               -0.00495345               -0.01954383               -0.00389620
               3.94314578                9.91691750               87.11179925                0.43161900               -0.62379779               -0.04542365                0.13911220                1.11503118                0.16840302                0.01021753
               4.93107068                9.93102162               87.12047798                0.01000000               -0.72839801               -0.01365549                0.27000899                0.89258958                0.33365840               -0.01298919
               5.92857782                9.93958315               87.12722914                0.01000000               -0.04693739               -0.07421362                0.18561952                0.44177790                0.21883466               -0.03107126
               6.93013193                9.94478463               87.13367460                0.01000000                0.28256693               -0.16827291                0.17257777                0.33379704                0.20869593               -0.00158894
               7.93422916                9.94819321               87.14114676                0.01000002                0.55610215               -0.25790836                0.17044919                0.49207055                0.27432496                0.06065990
               8.94125397                9.95374794               87.14979661                0.99999999                0.32330368               -0.04919027                0.17636754                0.45785827                0.13550902                0.00706898
               9.94069524                9.95016438               87.15587767                1.00000000               -0.05587350               -0.05492994                0.19358126               -0.00668319                0.00715814               -0.00715504
              -0.14113030               -0.04852286               88.06883865                0.90656211               -0.00803108               -0.00738982                0.06422969                0.00391470                0.00616474               -0.00101427
               0.85878939               -0.05303969               88.07195015                0.82147898                0.00373422               -0.03613270                0.07607186                0.01385046                0.02281913               -0.00562738
               1.85894438               -0.05681684               88.07534036                0.66582564                0.01993485               -0.02296675                0.08949392                0.02622807                0.06563864               -0.00242760
               2.85918808               -0.05924522               88.07905952                0.39058180                0.04194301               -0.01861008                0.08366296                0.12960959                0.08982453                0.00777596
               3.85978324               -0.05812712               88.08293943                0.32151558               -0.09107026                0.05126880                0.05970684                0.11130908                0.02311950                0.01086999
               4.85736668               -0.05312447               88.08600629                0.64041654               -0.17266806                0.00489576                0.06845573                0.16295997               -0.06791281                0.03196749
               5.85632988               -0.05121467               88.08754961                1.00000000               -0.07450827               -0.03062827                0.10017242                0.04822898               -0.06686691               -0.00086181
               6.85587651               -0.05046622               88.08974361                1.00000000               -0.04181175               -0.02513601                0.08194710                0.00182535               -0.04148394                0.00982430
               7.85549364               -0.05001233               88.09193459                1.00000000               -0.03281540               -0.02283053                0.07120685               -0.00042368               -0.04850309                0.01298295
               8.85522020               -0.04969098               88.09408679                0.99759668               -0.02331609               -0.02039527                0.06201004               -0.00292358               -0.04298211                0.00049272
               9.85502732               -0.04934230               88.09642989                0.99586865               -0.01928811               -0.02041775                0.05522832               -0.00601817               -0.03352783               -0.02874644
              -0.13657432                0.95140324               88.07135554                0.86308679               -0.03507921                0.00180786                0.07538111                0.00953610               -0.00366560                0.01313110
               0.86307488                0.94659898               88.07439872                0.01820545               -0.05581258               -0.05256271                0.08852477                0.05942987                0.00094489               -0.00109248
               1.86230942                0.94295349               88.07759719                0.01000000               -0.09677848               -0.03809709                0.10479261                0.13183344                0.00613575                0.03653841
               2.86113931                0.94056868               88.08104889                0.01000000               -0.22367329                0.01395949                0.11550483                0.30428402                0.04647990                0.09536624
               3.85783596                0.94238557               88.08514582                0.01000000               -0.27996309                0.01379147                0.12822344                0.51091733                0.14852362                0.08723490
               4.85554005                0.94692449               88.08984852                0.01000000               -0.11764565               -0.11912211                0.08315843                0.51745629                0.10562851               -0.01224302
               5.85548305                0.94847905               88.09179881                0.01000000               -0.01232292               -0.13018636                0.10987966                0.26205958               -0.02612487                0.02635636
               6.85529359                0.94928242               88.09422666                0.68605373               -0.01906304               -0.02246236                0.10165656                0.02576829                0.00438180                0.05155758
               7.85510178                0.94975937               88.09668714                1.00000000               -0.02188185               -0.02755913                0.09103965                0.00619969               -0.00025139                0.01995926
               8.85485596                0.95010507               88.09899284                0.99999996               -0.02416586               -0.02278068                0.08220412               -0.00089851               -0.00608978                0.00719833
               9.85461847                0.95045352               88.10133964                1.00000000               -0.02374896               -0.02545044                0.07552348               -0.00527585               -0.00392811               -0.03359275
              -0.13133106                1.95151330               88.07411022                0.74950685               -0.02412016                0.01117041                0.08697890                0.01607800               -0.00426516                0.05123304
               0.86842774                1.94590906               88.07699207                0.01000000               -0.05287959               -0.07978064                0.10487961                0.12681244                0.03290613                0.00429535
               1.86761135                1.94242121               88.08057213                0.01000000               -0.12930302               -0.07523517                0.11267764                0.35502688                0.10255806                0.09138215
               2.86584168                1.94103397               88.08470794                0.01000001               -0.19827832               -0.01132174                0.13083018                0.57806734                0.13093337                0.14934094
               3.86364578                1.94214871               88.08889563                0.01000001               -0.21096771               -0.06553277                0.14138851                0.83174355                0.15122629                0.12639542
               4.86162233                1.94449309               88.09297592                0.01000000               -0.22163208               -0.19980116                0.13460870                0.85798545                0.13262887                0.02568268
               5.85921314                1.94618160               88.09650387                0.01000279               -0.32553836               -0.15787336                0.12064434                0.73987582                0.09113202                0.06474134
               6.85511156                1.94908453               88.09948252                0.01000000               -0.22090781               -0.11237571                0.09753399                0.52991103                0.03693646                0.06814804
               7.85479499                1.94943649               88.10153498                0.01000000               -0.03017370               -0.13200330                0.10675703                0.21268477                0.01327286                0.06733355
               8.85450808                1.94985341               88.10397950                0.99999996               -0.02850385               -0.02613119                0.10415823                0.00950964                0.02304312                0.03766620
               9.85422491                1.95014869               88.10614108                1.00000000               -0.02831755               -0.03427951                0.09430991               -0.00342049                0.01047190               -0.04117141
              -0.12504428                2.95162665               88.07716495                0.44495347               -0.02525052                0.03102442                0.08823563                0.09398431                0.00724268                0.09191417
               0.87470322                2.94500337               88.07983301                0.01000000               -0.03353401               -0.16457013                0.11853037                0.27125432                0.09518630                0.04404872
               1.87428504                2.94144878               88.08418905                0.01000001               -0.08650287               -0.13179055                0.13018168                0.55625268                0.15683548                0.12071525
               2.87297316                2.94034225               88.08844595                0.01000001               -0.16366642               -0.10505431                0.13934785                0.78107126                0.14571777                0.13845539
               3.87101172                2.94107492               88.09278301                0.01000000               -0.21531462               -0.12382146                0.14422144                0.94412994                0.14581680                0.12032738
               4.86866687                2.94292846               88.09699759                0.01000002               -0.26612980               -0.14431013                0.14480014                1.01297085                0.13747127                0.07557817
               5.86568912                2.94532158               88.10088198                0.01000059               -0.30149708               -0.10041279                0.13860537                0.97907178                0.11149584                0.04918093
               6.86263693                2.94703490               88.10429752                0.01000000               -0.35512594               -0.13286016                0.13495050                0.86540176                0.08758316                0.04716163
               7.85858660                2.94711930               88.10722931                0.01000000               -0.41514867               -0.08228468                0.13754446                0.61047720                0.06394170                0.10778119
               8.85433395                2.94958245               88.10940133                1.00000000               -0.23135498               -0.03448074                0.13513971                0.11584460                0.02679799                0.05524360
               9.85395950                2.94976793               88.11093340                0.99999998               -0.03744530               -0.03766284                0.11038590               -0.00558125               -0.00686384               -0.03944004
              -0.11620481                3.95213379               88.08069749                0.32642873                0.02355021               -0.07536087                0.06736466                0.12585945                0.01076185                0.06869050
               0.88403069                3.94261765               88.08337944                0.01000001               -0.01988336               -0.23489923                0.13293165                0.47645975                0.10876697                0.15552070
               1.88339753                3.93978540               88.08789342                0.01000001               -0.10968609               -0.16232173                0.14065841                0.79323284                0.14633841                0.14261529
               2.88183697                3.93893289               88.09230523                0.01000000               -0.17276796               -0.16521717                0.14442257                0.93661476                0.13155605                0.13190210
               3.87994217                3.93967228               88.09673246                0.01000003               -0.21009484               -0.16399567                0.14763573                1.08667262                0.12491015                0.10783472
               4.87763508                3.94160688               88.10106925                0.01000006               -0.26270139               -0.14634781                0.14832915                1.19655575                0.11267535                0.06650594
               5.87468814                3.94417335               88.10518762                0.01000000               -0.35066021               -0.10886547                0.14854272                1.23356352                0.10090550                0.03070148
               6.87062187                3.94642733               88.10900109                0.01000000               -0.51155761               -0.03439353                0.14666502                1.14879691                0.09385638                0.00953394
               7.86445699                3.94779080               88.11251651                0.01000001               -0.82227607                0.06908759                0.16353640                1.10050003                0.04786869                0.03466491
               8.85417635                3.94916379               88.11457667                0.01000002               -0.53573335               -0.10959627                0.16062836                1.12814725                0.06095780                0.09595605
               9.85374232                3.94939543               88.11584728                0.55279054               -0.04340316               -0.63235712                0.12704418                1.09120636                0.02003584                0.17717096
              -0.10349482                4.95011944               88.08385783                0.61345669                0.00756165               -0.15828451                0.06727579                0.14872335                0.03679174               -0.04696616
               0.89658080                4.94030539               88.08814456                0.01000000               -0.13353583               -0.11559602                0.08773666                0.50893800               -0.01520950                0.13233523
               1.89383447                4.93820235               88.09159759                0.01000000               -0.23811121               -0.18870963                0.13728768                0.84559555                0.02476131                0.13055194
               2.89181858                4.93703790               88.09609767                0.01000002               -0.18816483               -0.22548125                0.14820438                1.00760393                0.08836678                0.12087935
               3.89007117                4.93779500               88.10061236                0.01000006               -0.18608286               -0.22305973                0.15012985                1.19369339                0.08453407                0.08683383
               4.88809692                4.94000151               88.10501299                0.01000000               -0.22656111               -0.19448303                0.15111195                1.36145507                0.07181242                0.04494316
               5.88553995                4.94314427               88.10930400                0.01000000               -0.30507510               -0.12605015                0.15156599                1.47642767                0.05416050                0.00651634
               6.88199542                4.94634703               88.11337436                0.01000001               -0.38399073               -0.03904124                0.14743909                1.52390888                0.02949526               -0.02010852
               7.87786013                4.94850105               88.11710810                0.01000001               -0.33515750               -0.01373525                0.13395031                1.51228784                0.00005839                0.00253146
               8.87529227                4.94739052               88.12078651                0.01000001               -0.12698889               -0.22356915                0.15540307                1.33855745               -0.01550365                0.14457874
               9.87532036                4.93712079               88.12499354                0.01000000                0.00280892               -0.77159077                0.29911083                0.87262681               -0.05632656                0.39931994
              -0.09360224                5.94896810               88.08510431                0.99999999               -0.02712185               -0.07917346                0.09138520                0.05709358               -0.00053836               -0.05517678
               0.90612654                5.94030573               88.08982657                0.01000000               -0.14104209               -0.00846215                0.10019070                0.25907784                0.02406978               -0.02978672
               1.90357692                5.93601121               88.09499332                0.01000000               -0.18650709               -0.30066429                0.13711928                0.76193895                0.06913487                0.13706925
               2.90239640                5.93442326               88.09968592                0.01000000               -0.13622432               -0.26507291                0.14306323                0.98852713                0.05010196                0.08817476
               3.90085243                5.93521109               88.10425419                0.01000000               -0.14407457               -0.31576444                0.15519603                1.22451964                0.04166522                0.06405707
               4.89951491                5.93771722               88.10879330                0.01000000               -0.14906318               -0.28606517                0.15527612                1.46617176                0.03076382                0.01600133
               5.89787117                5.94165235               88.11325925                0.01000001               -0.18858200               -0.18200784                0.15292749                1.63352223                0.01779815               -0.01883107
               6.89574327                5.94564650               88.11766225                0.01000000               -0.21059565               -0.09791464                0.14897623                1.64858485               -0.00558237               -0.01901179
               7.89365925                5.94751609               88.12197629                0.01000001               -0.17077494               -0.08460721                0.14785354                1.45330017               -0.04190154                0.04345214
               8.89232777                5.94469241               88.12637463                0.01000001               -0.09624648               -0.15810401                0.15521528                0.89449718               -0.06318773                0.14247419
               9.89173432                5.93396362               88.13114469                0.01000001               -0.05934436               -0.11281215                0.17785400                0.42806910               -0.04428834                0.23702839
              -0.08502821                6.94853597               88.08697394                1.00000000               -0.02525408               -0.04233337                0.07647499                0.00119319                0.00330643               -0.03349716
               0.91471925                6.94013614               88.09176864                0.28416221               -0.00080349               -0.01482814                0.09554304                0.02704879                0.11639714               -0.00760823
               1.91495572                6.93218906               88.09878966                0.01000000               -0.11650029               -0.19495447                0.06200084                0.53667855                0.06133160                0.02259710
               2.91238924                6.93173645               88.10270658                0.01000000               -0.18440576               -0.31893963                0.15616318                0.86133098               -0.01278106                0.04965708
               3.91126760                6.93147971               88.10754187                0.01000000               -0.07050714               -0.47491466                0.15569490                1.12319627                0.00963110                0.05121921
               4.91097910                6.93428020               88.11229343                0.01000001               -0.04932428               -0.38344520                0.15851942                1.49691157               -0.00109956               -0.03240238
               5.91028112                6.93950412               88.11707037                0.01000000               -0.09378652               -0.22379275                0.15587292                1.64353894                0.01218668               -0.05489842
               6.90910337                6.94438874               88.12203984                0.01000001               -0.12004440               -0.12973640                0.15652907                1.58210523                0.01719299               -0.02489161
               7.90788023                6.94680891               88.12701188                0.01000001               -0.11843391               -0.03959219                0.15170934                1.31504010                0.00263553                0.05471553
               8.90673469                6.94422844               88.13204457                0.01000000               -0.12704488                0.07431326                0.15279139                0.76299692               -0.00297403                0.15087516
               9.90533933                6.93486454               88.13708431                0.01000000               -0.13953583                0.21555442                0.17633654                0.34166743                0.00413713                0.22038694
              -0.07677873                7.94812143               88.08881870                1.00000000               -0.02068512               -0.03599327                0.06764075                0.00118213                0.00828206               -0.04205430
               0.92301442                7.94000917               88.09383030                1.00000000               -0.02555427               -0.01791944                0.09154442                0.01419371                0.01612070               -0.00378286
               1.92271018                7.93211212               88.09895856                0.01000002               -0.13410249               -0.02049264                0.11684790                0.19093427                0.07392534               -0.07252581
               2.92033237                7.92804447               88.10515770                0.01000000               -0.09687930               -0.38848002                0.13960752                0.58294336                0.10991790                0.02015406
               3.92077260                7.92571280               88.11059585                0.01000001                0.05481840               -0.76533689                0.17301101                1.03678722                0.00698675               -0.00944242
               4.92142874                7.93004832               88.11524722                0.01000001               -0.00695936               -0.34373618                0.14866829                1.45331746                0.00707170               -0.10590254
               5.92063341                7.93717649               88.12080393                0.01000001               -0.06740799               -0.20720232                0.16597778                1.46232670                0.10036771               -0.11733321
               6.92008058                7.94305177               88.12639581                0.01000001               -0.02565279               -0.13065924                0.15911782                1.33243654                0.08763729               -0.03584135
               7.92012035                7.94672425               88.13232565                0.01000001               -0.02742513               -0.04191460                0.15545250                1.17588324                0.06228982                0.04313089
               8.91953207                7.94617868               88.13826187                0.01000000               -0.14124434                0.23927658                0.15787865                0.81180005                0.03935497                0.20907485
               9.91729547                7.93827470               88.14402806                0.01000001               -0.22366060                0.52375497                0.16891258                0.48948107                0.04282534                0.30307359
              -0.06878005                8.94781610               88.09064550                0.99761381               -0.02075204               -0.02521046                0.06052470               -0.00359293                0.00221084               -0.03638130
               0.93101243                8.93977775               88.09582191                1.00000000               -0.02404241               -0.02354996                0.08454988               -0.00192562                0.00768409               -0.00647953
               1.93073910                8.93177921               88.10105827                0.99999996               -0.02824991               -0.03148448                0.10961120                0.00824247                0.03209560                0.01625312
               2.93044743                8.92396685               88.10664134                1.00000000               -0.03698036               -0.22390626                0.14347991                0.11690148                0.04666553                0.00070690
               3.92999949                8.91617298               88.11201842                0.01041379               -0.09328406               -0.50048325                0.17220569                1.02686262                0.09276526                0.03002729
               4.92858175                8.92740548               88.11850672                0.01000001               -0.17376495               -0.15984754                0.21147585                1.22214948                0.26168605               -0.27886694
               5.92652420                8.93536007               88.12459668                0.01000000               -0.11887060               -0.12955447                0.17009836                0.90574465                0.21579542               -0.12272518
               6.92620434                8.94177555               88.13083559                0.01000001                0.08733969               -0.13894937                0.16564370                0.78874659                0.16730041               -0.02350174
               7.92827099                8.94597062               88.13762440                0.01008442                0.26079482               -0.15359608                0.16062414                0.79611431                0.20224692                0.03476850
               8.93142023                8.94901397               88.14615204                0.99999999                0.13329536                0.11702018                0.15462188                0.74972542                0.10679613                0.13129615
               9.93093690                8.94533964               88.15239646                1.00000000               -0.04833380                0.32593184                0.17008343                0.49777923               -0.00744858                0.14041478
              -0.06077390                9.94761722               88.09264923                0.99648778               -0.02133093               -0.01988788                0.05548741               -0.00728966               -0.02071096               -0.02685224
               0.93901280                9.93953817               88.09782682                1.00000000               -0.02700818               -0.02395828                0.07902910               -0.00670300               -0.02289126               -0.00499556
               1.93868594                9.93148243               88.10293674                1.00000000               -0.03680809               -0.02967802                0.10033635               -0.00390742               -0.02863327                0.00701590
               2.93827663                9.92356634               88.10802492                0.99999998               -0.04073627               -0.04005016                0.11935647               -0.00604484               -0.02929644               -0.00595010
               3.93787122                9.91570313               88.11318898                0.66794742               -0.57960005               -0.04698452                0.13928864                0.95142333                0.24086165                0.01572183
               4.92668463                9.92685137               88.12369852                0.01000000               -0.67464929               -0.05541113                0.24883999                0.75440174                0.64658267               -0.27704733
               5.92437823                9.93458540               88.12894826                0.01000001               -0.07198366               -0.07746678                0.18379936                0.45647424                0.19600535               -0.06989606
               6.92524496                9.94027279               88.13542762                0.01000001                0.22129970               -0.15027684                0.18140227                0.35740838                0.20497127                0.00314484
               7.92880422                9.94365233               88.14277779                0.01000000                0.49562997               -0.23182909                0.16740972                0.46563808                0.25476831                0.05118796
               8.93515756                9.94851908               88.15156336                1.00000000                0.28977441               -0.04948922                0.17697851                0.43078300                0.13412923                0.00707915
               9.93459971                9.94479334               88.15780779                1.00000000               -0.05578467               -0.05463021                0.19245736               -0.00629246                0.00715015               -0.00716670
              -0.14422836               -0.05110776               89.06949850                0.87624043               -0.00591427               -0.00577985                0.07036987                0.00259360                0.00921767               -0.00033376
               0.85571250               -0.05559715               89.07270966                0.79259434                0.01064937               -0.03827385                0.07644347                0.01625657                0.02441663               -0.00228419
               1.85598463               -0.05917578               89.07620525                0.72394757                0.02462175               -0.02056375                0.08450647                0.01635896                0.05810238               -0.00101719
               2.85620493               -0.06133441               89.07985821                0.45019572                0.02820589               -0.01653983                0.07934243                0.09640914                0.06667697                0.00704288
               3.85654875               -0.06061483               89.08354364                0.35730251               -0.08534177                0.04279993                0.06526895                0.08653891                0.02112681                0.00375840
               4.85449810               -0.05680120               89.08664950                0.80219949               -0.13743927               -0.00309047                0.06299198                0.13157371               -0.03513901                0.02002012
               5.85379996               -0.05552592               89.08852011                1.00000000               -0.06021040               -0.02500174                0.09056595                0.02252246               -0.06192475               -0.00240939
               6.85329389               -0.05494394               89.09055352                0.99999429               -0.04683452               -0.02162082                0.07931304                0.00395070               -0.05399061                0.01066365
               7.85286327               -0.05473854               89.09263155                1.00000000               -0.03644691               -0.02037046                0.06855344                0.00111365               -0.05653260                0.01213103
               8.85256495               -0.05470100               89.09468700                0.99478284               -0.02479463               -0.01736826                0.05853586               -0.00247198               -0.04872921               -0.00122914
               9.85236738               -0.05465848               89.09696783                0.98663173               -0.01975737               -0.02008714                0.05277668               -0.00639625               -0.03805075               -0.03301514
              -0.13971303                0.94883444               89.07211686                0.81850656               -0.03778929                0.00813573                0.07738668                0.01261128               -0.00081242                0.01175725
               0.85990907                0.94402011               89.07527772                0.19491260               -0.06350596               -0.05997712                0.08681066                0.07510130                0.00770264                0.00640535
               1.85901685                0.94061859               89.07864063                0.01000000               -0.10102606               -0.03697413                0.10137490                0.16907071                0.01990420                0.04062236
               2.85788855                0.93850020               89.08218119                0.01000000               -0.19346586               -0.00163260                0.10689378                0.30055055                0.06492884                0.08178326
               3.85514753                0.93981317               89.08628154                0.01000000               -0.23095862               -0.00176060                0.10397032                0.45618009                0.16373344                0.05432962
               4.85326938                0.94316790               89.09059534                0.01000000               -0.10254875               -0.10953681                0.07371163                0.45220351                0.09817737               -0.00077714
               5.85309655                0.94422406               89.09282029                0.01000000               -0.01648381               -0.11421102                0.09528948                0.23657193               -0.00535797                0.03102069
               6.85293970                0.94483986               89.09520842                0.79720416               -0.01718088               -0.02068069                0.09408291                0.02681781                0.00391637                0.04170049
               7.85275294                0.94505776               89.09757223                1.00000000               -0.02197496               -0.02610056                0.08555404                0.00689708               -0.00396247                0.01706112
               8.85250020                0.94512532               89.09979530                1.00000000               -0.02460176               -0.01813519                0.07817851                0.00000045               -0.00877282                0.00688496
               9.85226090                0.94514064               89.10208258                1.00000000               -0.02393025               -0.02627169                0.07288203               -0.00584383               -0.00546588               -0.03913343
              -0.13434747                1.94905496               89.07496739                0.78653564               -0.02221429                0.01670904                0.08478871                0.00987831               -0.00317807                0.04477629
               0.86543038                1.94320331               89.07804024                0.01000000               -0.03832822               -0.08732712                0.10242469                0.15408813                0.03676658                0.01837794
               1.86488596                1.94008474               89.08192145                0.01000001               -0.12045099               -0.07990552                0.09836252                0.38785361                0.09602295                0.09201475
               2.86302136                1.93863294               89.08597403                0.01000001               -0.19406586               -0.03243871                0.12825668                0.57134023                0.13144411                0.13307461
               3.86100464                1.93934995               89.09028158                0.01000001               -0.19450441               -0.08110492                0.13193905                0.77000738                0.14499413                0.10383560
               4.85913127                1.94100807               89.09426490                0.01000000               -0.20726009               -0.18236247                0.12649375                0.77614817                0.12147219                0.03428072
               5.85685944                1.94218986               89.09769722                0.01000001               -0.30673636               -0.14342278                0.12064344                0.68336306                0.07084978                0.06821160
               6.85299655                1.94464245               89.10042163                0.01000270               -0.20718475               -0.10996970                0.09056022                0.49713787                0.03466412                0.07148638
               7.85271575                1.94473945               89.10256423                0.01000001               -0.02572371               -0.12091185                0.09893614                0.21455732                0.02400162                0.07198065
               8.85248207                1.94493630               89.10500617                1.00000000               -0.02479474               -0.01741449                0.09902470                0.02231885                0.02613813                0.04681190
               9.85221985                1.94481608               89.10707394                1.00000000               -0.02622208               -0.03759303                0.09083722               -0.00143125                0.00956827               -0.05019185
              -0.12781217                2.94916863               89.07802083                0.50509416               -0.02267729                0.01791278                0.08541978                0.06996774                0.00559218                0.07037640
               0.87196105                2.94227357               89.08100818                0.01000000               -0.04217689               -0.14980294                0.11267344                0.27443343                0.08051742                0.06119092
               1.87134429                2.93902047               89.08544994                0.01000001               -0.09554555               -0.12949098                0.12779251                0.54285581                0.13877169                0.12514747
               2.87005014                2.93785142               89.08988861                0.01000001               -0.15858682               -0.11042264                0.14016781                0.73507946                0.13626160                0.13182759
               3.86817255                2.93819107               89.09425281                0.01000000               -0.20488501               -0.13047842                0.14563793                0.86756867                0.13602849                0.10099989
               4.86595244                2.93952065               89.09845580                0.01000001               -0.25215593               -0.14026733                0.14354744                0.92388140                0.12451844                0.06596374
               5.86312943                2.94135560               89.10228717                0.01000000               -0.28097878               -0.10017120                0.14092080                0.89702902                0.10707181                0.04426500
               6.86033287                2.94264046               89.10567411                0.01000000               -0.31895991               -0.14158508                0.13864630                0.80742870                0.09076217                0.05365624
               7.85675023                2.94263952               89.10859421                0.01007129               -0.37314580               -0.07832897                0.13485328                0.57300738                0.08034771                0.12538788
               8.85286995                2.94477703               89.11077239                1.00000000               -0.21387621               -0.02733753                0.13559181                0.12963594                0.03732849                0.07783644
               9.85247271                2.94438878               89.11203532                1.00000000               -0.03972395               -0.04083435                0.11005488               -0.00600623               -0.00895406               -0.05088495
              -0.11915801                3.94941321               89.08136330                0.36772901                0.02252152               -0.07832809                0.07060642                0.08912686                0.00532837                0.05290965
               0.88106720                3.94020725               89.08460650                0.01000000               -0.03383789               -0.19359000                0.11364299                0.42443755                0.07132851                0.16620776
               1.88016523                3.93749492               89.08929132                0.01000001               -0.12574212               -0.15173984                0.13548684                0.73985155                0.11796677                0.14399504
               2.87855236                3.93642449               89.09378914                0.01000000               -0.17392195               -0.16348769                0.14731306                0.86218062                0.10791140                0.12958532
               3.87668679                3.93674039               89.09826187                0.01000000               -0.20539960               -0.16666606                0.15293156                0.99827436                0.10581968                0.09750784
               4.87444437                3.93820272               89.10259536                0.01000000               -0.25032896               -0.14927246                0.15378072                1.09336586                0.09782534                0.05784209
               5.87168021                3.94018643               89.10671502                0.01009680               -0.32915812               -0.11135222                0.15407237                1.11262639                0.08512695                0.02640212
               6.86786120                3.94181075               89.11050930                0.01000000               -0.48204420               -0.04823626                0.15678757                1.04416256                0.09061206               -0.00330035
               7.86203933                3.94317287               89.11421559                0.01000001               -0.72678380                0.05755790                0.17628096                0.97908236                0.04691497               -0.00368691
               8.85332553                3.94438955               89.11622761                0.01185570               -0.45815527               -0.07522813                0.17305092                0.90881998                0.09067905                0.09744214
               9.85287622                3.94399939               89.11711865                1.00000000               -0.04493078               -0.52821444                0.13305325                0.78643170                0.02696790                0.26816681
              -0.10761771                4.94760206               89.08447838                0.77812526               -0.00141894               -0.12792794                0.06030079                0.11941266                0.02101280               -0.01496790
               0.89236810                4.93840177               89.08891384                0.01000000               -0.12291019               -0.09746033                0.07540581                0.43562750               -0.00680012                0.11711468
               1.88992408                4.93598568               89.09294837                0.01000000               -0.21599038               -0.17546937                0.12939184                0.75851364                0.03011501                0.12435520
               2.88804829                4.93458167               89.09758777                0.01000001               -0.17821375               -0.21749631                0.14708088                0.91943406                0.07005554                0.12101145
               3.88635981                4.93485775               89.10216436                0.01000000               -0.18372877               -0.21732215                0.15614834                1.09174599                0.06618830                0.08496930
               4.88437371                4.93653520               89.10659973                0.01000001               -0.22929368               -0.20233484                0.16353181                1.25302022                0.05579915                0.04182332
               5.88177393                4.93912856               89.11089257                0.01000001               -0.30720176               -0.13320097                0.16476905                1.34840717                0.03606104                0.00043442
               6.87822968                4.94167574               89.11490629                0.01000001               -0.40104255               -0.03772900                0.16947813                1.39576694               -0.00693226               -0.02871952
               7.87375308                4.94379068               89.11842594                0.01000007               -0.40049259               -0.00171093                0.15283185                1.39828280               -0.10369234               -0.01895150
               8.87021983                4.94327247               89.12233790                0.01014874               -0.23857155               -0.17858736                0.37084632                1.15130419               -0.45049661                0.28091467
               9.86898165                4.93382449               89.12849714                0.01000000               -0.12381749               -0.66077135                0.09317139                0.70005937               -0.38404932                0.82381725
              -0.09836918                5.94685465               89.08600986                0.99999999               -0.02346849               -0.06245794                0.08524890                0.02734466               -0.00109425               -0.05338073
               0.90139614                5.93825805               89.09079524                0.01000000               -0.12376077               -0.01468426                0.09233243                0.23309142                0.03161928               -0.01044779
               1.89915561                5.93398553               89.09617275                0.01000001               -0.16635824               -0.27655554                0.11451459                0.69408379                0.06580300                0.11804825
               2.89806897                5.93207456               89.10113419                0.01000000               -0.12937148               -0.24804166                0.14089896                0.89584965                0.03853980                0.09906015
               3.89656818                5.93239394               89.10584630                0.01009560               -0.14175064               -0.30264032                0.16030279                1.10358909                0.02650748                0.06691042
               4.89523396                5.93415602               89.11043163                0.01000001               -0.15301795               -0.29353894                0.16975759                1.34008313                0.01270723                0.01713408
               5.89350782                5.93752241               89.11489265                0.01000001               -0.20597674               -0.20419542                0.17415557                1.52624468               -0.00459656               -0.02102185
               6.89111442                5.94105617               89.11925160                0.01000000               -0.25497832               -0.09773644                0.17241182                1.57969803               -0.03672617               -0.01755222
               7.88840825                5.94313865               89.12358492                0.01000000               -0.23983143               -0.07660671                0.19127993                1.43927855               -0.10665137                0.09287193
               8.88631780                5.94081780               89.12801141                0.01000000               -0.13174487               -0.16372927                0.16331761                0.94865770               -0.12245155                0.25091107
               9.88577335                5.93078397               89.13264113                0.01000000               -0.05444421               -0.15958688                0.20187414                0.56060190               -0.09005816                0.19915164
              -0.08987760                6.94635290               89.08773113                0.99999999               -0.02233515               -0.04885385                0.07407417                0.00276315                0.00547452               -0.04676650
               0.90989905                6.93810809               89.09273781                0.51232307               -0.00665783               -0.01408076                0.09623003                0.03482660                0.08912279               -0.00219682
               1.90998924                6.93045457               89.09935578                0.01000001               -0.11710869               -0.18544212                0.05379326                0.50113930                0.06183986                0.02521414
               2.90755687                6.92962083               89.10413363                0.01000000               -0.18195565               -0.28377321                0.13992289                0.78886357               -0.00282140                0.06836239
               3.90635013                6.92880494               89.10919172                0.01000000               -0.07549826               -0.45637617                0.16822098                1.00539363               -0.00600810                0.06510317
               4.90604691                6.93066442               89.11398370                0.01000001               -0.04757225               -0.43620304                0.18193559                1.36154988               -0.01946030               -0.02960747
               5.90539868                6.93504465               89.11877164                0.01000000               -0.09197539               -0.28603185                0.18342278                1.59105264               -0.00625106               -0.04871698
               6.90420740                6.93972101               89.12372389                0.01000000               -0.13108307               -0.14070881                0.18007965                1.56628729               -0.00770302               -0.01690108
               7.90277702                6.94225854               89.12864065                0.01000000               -0.13298668               -0.06540206                0.17732275                1.33033186               -0.02306673                0.06982988
               8.90154766                6.93999788               89.13363724                0.01000001               -0.12578329                0.01827576                0.18639242                0.80180087               -0.00969617                0.17089461
               9.90026135                6.93063276               89.13892960                0.01000000               -0.12863099                0.13804899                0.19063063                0.36946471                0.02081642                0.23987234
              -0.08182428                7.94587758               89.08947627                1.00000000               -0.01847138               -0.04022583                0.06461137                0.00058978                0.00892731               -0.04952228
               0.91799101                7.93797643               89.09474393                1.00000000               -0.02550374               -0.01836803                0.08960914                0.01285461                0.01693147               -0.00507773
               1.91766564                7.93027669               89.10013411                0.01000000               -0.12475677               -0.02285298                0.11368835                0.19877944                0.07242040               -0.04082555
               2.91549587                7.92639910               89.10653756                0.01008627               -0.10165915               -0.34813738                0.13615308                0.53953526                0.11881236                0.04276544
               3.91563246                7.92326642               89.11240638                0.01000001                0.03646880               -0.67128958                0.18437076                0.88090879               -0.00657055                0.00860302
               4.91622525                7.92543196               89.11697545                0.01000007                0.03199111               -0.67674437                0.20335823                1.43107601               -0.00736254               -0.07672278
               5.91627228                7.93180178               89.12268525                0.01000000               -0.04994849               -0.26590982                0.21109115                1.52199671                0.09671928               -0.11271492
               6.91522628                7.93824199               89.12813696                0.01000000               -0.07671353               -0.13777483                0.18928398                1.36193531                0.06611849               -0.02890972
               7.91473801                7.94183061               89.13397835                0.01000000               -0.06233385               -0.06215070                0.17927536                1.13414529                0.04369737                0.04550582
               8.91397960                7.94118332               89.13990936                0.01000003               -0.14225581                0.17831964                0.17315733                0.75957552                0.02716536                0.20309587
               9.91189290                7.93354495               89.14571995                0.01000001               -0.20867024                0.45547425                0.17464950                0.45012975                0.03951043                0.28260800
              -0.07406351                8.94554839               89.09122496                0.99402391               -0.01794630               -0.02623753                0.05632648               -0.00459174               -0.00007535               -0.04115975
               0.92575702                8.93774073               89.09664762                0.99999998               -0.01971631               -0.02351552                0.08033568               -0.00230707                0.00635377               -0.00899701
               1.92554216                8.92999751               89.10214302                1.00000000               -0.01995882               -0.02764267                0.10481865                0.02037100                0.03994991                0.01557522
               2.92535785                8.92265809               89.10809907                1.00000000               -0.03033613               -0.20818456                0.14392182                0.12971158                0.06808451                0.01478474
               3.92493544                8.91537915               89.11379037                0.02160647                0.03876116               -0.41878031                0.18573079                0.55641988                0.15102874                0.05994574
               4.92613307                8.91712953               89.12134303                0.01000001               -0.09534254               -0.51674468                0.38992144                1.31825534                0.27547371               -0.43512731
               5.92302859                8.92972645               89.12653376                0.01000001               -0.23579009               -0.11598579                0.20774630                1.21662642                0.18900288               -0.10965946
               6.92141727                8.93696551               89.13263097                0.01000001               -0.02549922               -0.12892650                0.20347018                0.82323137                0.15081354               -0.01563047
               7.92251860                8.94101553               89.13931340                0.01000000                0.18037850               -0.14602047                0.18052371                0.75247674                0.17781154                0.03053227
               8.92502484                8.94356428               89.14770390                0.99999999                0.10110421                0.09417773                0.15570036                0.68268318                0.09265987                0.11551261
               9.92454069                8.93974224               89.15409421                0.99989303               -0.04841522                0.28267153                0.16950662                0.44062096               -0.00743598                0.12959660
              -0.06630079                9.94535283               89.09317411                0.98543209               -0.02034634               -0.01955614                0.05076492               -0.00839862               -0.02595778               -0.03124093
               0.93349574                9.93750612               89.09859415                1.00000000               -0.02717517               -0.02346068                0.07475841               -0.00757743               -0.03007515               -0.00652375
               1.93315570                9.92972384               89.10392292                1.00000000               -0.03936418               -0.02736704                0.09567462               -0.00218127               -0.03907506                0.00618818
               2.93270846                9.92223541               89.10921423                1.00000000               -0.04331461               -0.04226797                0.11819023               -0.00658987               -0.04090719               -0.00790704
               3.93228941                9.91489081               89.11458503                0.99105203               -0.22327067               -0.04883349                0.14591363                0.37848052                0.23675927                0.02230304
               4.92824305                9.91509707               89.12545478                0.01000001               -0.57602884               -0.20324644                0.06606627                0.94055995                0.79640415               -0.46526333
               5.92076884                9.92948206               89.13090513                0.01000003               -0.39206096               -0.02443942                0.22130889                0.80234442                0.20754181               -0.06010625
               6.92040183                9.93566346               89.13730264                0.01000000                0.12099744               -0.13020490                0.19946532                0.36986299                0.19619372                0.01436891
               7.92318878                9.93891020               89.14449496                0.01000000                0.42523613               -0.21053280                0.18158262                0.43718856                0.24234565                0.04517034
               8.92890655                9.94306687               89.15333618                0.99999999                0.25802987               -0.04974042                0.17765118                0.40257996                0.12960231                0.00703309
               9.92834938                9.93919838               89.15972682                1.00000000               -0.05571692               -0.05438641                0.19126397               -0.00597981                0.00719487               -0.00709905
              -0.14736828               -0.05376625               90.07024605                0.85004659               -0.00607500               -0.00642452                0.07927088                0.00007664                0.00940861               -0.00168900
               0.85257097               -0.05822148               90.07347901                0.73778750                0.01630845               -0.03820028                0.07785911                0.01633480                0.02384010                0.00203502
               1.85295789               -0.06170795               90.07703049                0.77928390                0.03061321               -0.02423095                0.08183967                0.00817386                0.05545548                0.00135439
               2.85318323               -0.06375031               90.08064637                0.50787544                0.02282997               -0.01611603                0.07865278                0.07038534                0.05880938                0.00505315
               3.85341448               -0.06352775               90.08424481                0.36687130               -0.07478997                0.02619760                0.07771816                0.08492637                0.01845222                0.00228784
               4.85168743               -0.06061576               90.08726613                0.91502034               -0.11135623               -0.00906965                0.06171244                0.11096793               -0.02331516                0.01823350
               5.85118736               -0.05986323               90.08936093                0.99999999               -0.05010882               -0.02144251                0.07853483                0.01019585               -0.06135637               -0.00205051
               6.85068525               -0.05956274               90.09132987                1.00000000               -0.04789216               -0.01889422                0.07559196                0.00408150               -0.06625492                0.01052088
               7.85022952               -0.05965106               90.09330566                0.99999826               -0.03879594               -0.01810326                0.06624945                0.00214290               -0.06849355                0.01004225
               8.84990934               -0.05993216               90.09525751                0.99101486               -0.02624407               -0.01442398                0.05631890               -0.00297174               -0.05749680               -0.00343146
               9.84970464               -0.06023211               90.09748542                0.97042111               -0.02047003               -0.02031450                0.05091754               -0.00700051               -0.04415443               -0.03796546
              -0.14291229                0.94616950               90.07290328                0.75204584               -0.03825456                0.01355550                0.08026541                0.01409963                0.00316162                0.00852490
               0.85670516                0.94139652               90.07613493                0.38239037               -0.06418341               -0.06161851                0.08366350                0.07591410                0.01626945                0.01511914
               1.85580404                0.93804974               90.07962468                0.01000000               -0.09540908               -0.04199259                0.09274875                0.16660694                0.03584859                0.01150984
               2.85479698                0.93608853               90.08318676                0.01000000               -0.15537859               -0.01308236                0.09603846                0.28058449                0.07445298                0.08229990
               3.85269647                0.93673423               90.08722522                0.01004682               -0.19160665               -0.01090490                0.09487509                0.40226687                0.16015936                0.04926308
               4.85096485                0.93929355               90.09132276                0.01000001               -0.09668292               -0.10329984                0.07432311                0.40684080                0.09251402                0.01889987
               5.85076281                0.93992235               90.09370460                0.01000001               -0.01724319               -0.10289106                0.08539105                0.21204051                0.00570622                0.04377857
               6.85061999                0.94024832               90.09610832                0.87474574               -0.01635777               -0.01943470                0.08716964                0.02490671                0.00239317                0.03275781
               7.85043566                0.94016791               90.09839822                0.99999999               -0.02249212               -0.02474105                0.08049452                0.00681248               -0.00962243                0.01307456
               8.85017014                0.93992360               90.10055641                0.99999999               -0.02505390               -0.01276437                0.07389920                0.00043226               -0.01303597                0.00409291
               9.84993458                0.93956475               90.10279728                1.00000000               -0.02355656               -0.02878904                0.06908147               -0.00708020               -0.00780450               -0.04642278
              -0.13754032                1.94650486               90.07580599                0.82087467               -0.02506661                0.02343813                0.08356590                0.00438681               -0.00037933                0.04123551
               0.86220901                1.94054615               90.07904056                0.01000000               -0.04308308               -0.08677943                0.09471225                0.15633138                0.00793654                0.03509592
               1.86159802                1.93745220               90.08253938                0.01000001               -0.10492901               -0.07339370                0.05889174                0.39089482                0.08110673                0.09014098
               2.86011043                1.93598804               90.08727307                0.01000001               -0.16716080               -0.04624178                0.12512997                0.54502507                0.15056911                0.13058214
               3.85825480                1.93625415               90.09153441                0.01000001               -0.17371527               -0.08098035                0.12268161                0.68994200                0.12858531                0.10299465
               4.85663613                1.93731825               90.09550579                0.01000000               -0.18906997               -0.16881383                0.11357347                0.69914130                0.10922480                0.05729707
               5.85447340                1.93807895               90.09891674                0.01000432               -0.28491488               -0.13666331                0.13714106                0.62898755                0.06500059                0.07170214
               6.85093783                1.94004857               90.10129372                0.01000002               -0.18914587               -0.11139791                0.08677153                0.46501597                0.02626520                0.08143795
               7.85069048                1.93985412               90.10351370                0.01000000               -0.02083426               -0.10961026                0.09252716                0.22118025                0.03197866                0.07909450
               8.85052114                1.93981255               90.10596000                1.00000000               -0.02048736               -0.00029326                0.09191413                0.04036300                0.02710369                0.05266431
               9.85028074                1.93919211               90.10795782                0.99999999               -0.02404067               -0.04296184                0.08683966                0.00395509                0.00878178               -0.06018009
              -0.13090714                2.94663826               90.07887335                0.56352638               -0.02084071                0.01147867                0.08530187                0.05005111                0.00331577                0.06034450
               0.86888445                2.93966093               90.08208648                0.01000000               -0.04564051               -0.12549987                0.10368671                0.26319207                0.07685321                0.07255543
               1.86818005                2.93658186               90.08674490                0.01000001               -0.09944629               -0.11426619                0.12439880                0.52394821                0.13175369                0.15304243
               2.86689553                2.93516369               90.09124930                0.01000000               -0.15074742               -0.10812995                0.13465127                0.67234861                0.12191449                0.12313075
               3.86516510                2.93511462               90.09569577                0.01000001               -0.18863254               -0.12716286                0.13990151                0.78755589                0.11981650                0.09830842
               4.86312288                2.93591727               90.09986854                0.01001073               -0.22764283               -0.13492272                0.13900741                0.82883855                0.10818265                0.06800883
               5.86061224                2.93718908               90.10370039                0.01016555               -0.24888697               -0.09914792                0.13269738                0.80532140                0.09467124                0.04842616
               6.85814514                2.93802036               90.10707044                0.01000003               -0.27584853               -0.14597144                0.13793861                0.73911691                0.08748368                0.07939532
               7.85509527                2.93797571               90.10992637                0.01000001               -0.32528619               -0.09843953                0.12860984                0.54419365                0.08788860                0.15489769
               8.85163941                2.93991774               90.11211316                1.00000000               -0.19203564               -0.01327126                0.11756066                0.16477651                0.03979714                0.10377260
               9.85125456                2.93870551               90.11313449                1.00000000               -0.03848519               -0.04475813                0.10834544               -0.01028001               -0.01862500               -0.06495820
              -0.12258463                3.94673443               90.08210962                0.38353820                0.01138818               -0.07323711                0.08166147                0.07825538                0.00333371                0.04197315
               0.87752925                3.93803615               90.08565230                0.01000206               -0.04205760               -0.16009967                0.10480744                0.37613967                0.05975717                0.16073643
               1.87657422                3.93516687               90.09060316                0.01000001               -0.12523028               -0.13869226                0.12745636                0.66860391                0.10869856                0.13655754
               2.87502465                3.93382544               90.09525149                0.01000001               -0.16609412               -0.15253041                0.14240660                0.78261021                0.09641374                0.12414212
               3.87325234                3.93371090               90.09979109                0.01000001               -0.19431065               -0.16023333                0.14964337                0.90061125                0.09324148                0.09448300
               4.87113843                3.93461979               90.10414487                0.01000002               -0.23877980               -0.14577829                0.15269709                0.98734547                0.08837402                0.06099821
               5.86847674                3.93609600               90.10826907                0.01000000               -0.31024449               -0.11068763                0.15455131                0.99258542                0.08351813                0.02989271
               6.86493354                3.93712914               90.11213684                0.01000000               -0.43998802               -0.04950081                0.16282688                0.89838025                0.10555783                0.01758721
               7.85967698                3.93788533               90.11604213                0.01000000               -0.59233390                0.03884912                0.16231427                0.78386984                0.09288168                0.00065236
               8.85308687                3.93954713               90.11803769                0.21813628               -0.35886984                0.06536357                0.18870028                0.24916708                0.12473638                0.34234573
               9.85249958                3.93829695               90.11850834                1.00000000               -0.05872830               -0.03154293                0.15792067                0.07829894                0.04532119                0.08039257
              -0.11194548                4.94517352               90.08506385                0.89164048               -0.00797186               -0.10433502                0.05919447                0.09802817                0.01750957               -0.00570698
               0.88797480                4.93645893               90.08965268                0.01000001               -0.11458408               -0.08816715                0.07534283                0.38506399                0.00859689                0.10545853
               1.88576284                4.93380802               90.09418542                0.01000000               -0.19855483               -0.16010511                0.12255336                0.68169777                0.04273139                0.11553423
               2.88400371                4.93211308               90.09903929                0.01000001               -0.16899340               -0.19834206                0.14041095                0.82854645                0.06438963                0.11264916
               3.88238297                4.93190995               90.10373533                0.01000002               -0.17595100               -0.20944817                0.15492600                0.98607138                0.05838898                0.08728060
               4.88048469                4.93300171               90.10828363                0.01000000               -0.22141819               -0.19719258                0.16642067                1.13248250                0.05100242                0.04856459
               5.87795461                4.93497533               90.11259938                0.01000007               -0.30806409               -0.13715763                0.17397953                1.22555835                0.04599955                0.00365003
               6.87432340                4.93703034               90.11676392                0.01000000               -0.47999646               -0.03256399                0.18463630                1.25801405                0.00478145               -0.01959821
               7.86835468                4.93875269               90.12016474                0.01000001               -0.90561349                0.06367418                0.24178399                1.36420486                0.13316260               -0.00794597
               8.85621113                4.94122501               90.12820343                0.01000001               -0.65168921               -0.05679189                0.28728494                1.35288158               -0.31614462                0.20606643
               9.85532089                4.93807465               90.12685696                0.01001417               -0.08902400               -0.53913811               -0.03404899                1.09367178               -0.72605931                0.72469334
              -0.10319489                5.94464773               90.08680929                1.00000000               -0.02090725               -0.05196470                0.07525099                0.01317852               -0.00127551               -0.05518516
               0.89659603                5.93627281               90.09167322                0.01000001               -0.11255400               -0.01577094                0.08534738                0.21096469                0.03769394                0.00331720
               1.89455403                5.93196477               90.09728361                0.01001204               -0.15511969               -0.25380148                0.11223799                0.63098180                0.07506327                0.08000843
               2.89349364                5.92985860               90.10250390                0.01014568               -0.12344437               -0.22063789                0.13443495                0.80251642                0.04240567                0.10004604
               3.89208514                5.92952193               90.10746024                0.01000000               -0.13854669               -0.28441290                0.15872386                0.98658742                0.02542175                0.07695636
               4.89072271                5.93067594               90.11218845                0.01000007               -0.15629354               -0.29287347                0.17694602                1.21780980                0.00492270                0.04171923
               5.88895927                5.93335284               90.11674236                0.01000000               -0.22031197               -0.21190773                0.18748696                1.41316029               -0.01150395               -0.00916584
               6.88631647                5.93647786               90.12111049                0.01000000               -0.30964281               -0.09324914                0.19562169                1.52814286               -0.01696047               -0.01877922
               7.88276641                5.93915882               90.12580189                0.01000000               -0.27469681               -0.04703015                0.20664637                1.55421485               -0.07822220                0.08605512
               8.88082253                5.93841129               90.12964098                0.01000001               -0.10463435               -0.27383134                0.23137395                1.41980303               -0.04130554                0.02148386
               9.88067373                5.92751419               90.13518217                0.01000000               -0.01488056               -0.57457422                0.23240172                0.90279249                0.03168584                0.38283988
              -0.09493207                6.94413423               90.08845542                1.00000000               -0.01908759               -0.05052848                0.07145197                0.00389778                0.00885884               -0.05955848
               0.90487706                6.93614352               90.09369324                0.71089758               -0.01356224               -0.01375059                0.09149613                0.03484674                0.05799790                0.00094767
               1.90479669                6.92873199               90.09986552                0.01000000               -0.11900920               -0.17281990                0.05634899                0.46838713                0.06576832                0.02392670
               2.90249687                6.92770032               90.10550504                0.01000003               -0.17496549               -0.24621261                0.13288466                0.72162019                0.04257646                0.07668317
               3.90129738                6.92622170               90.11090629                0.01000000               -0.07434494               -0.41178622                0.16766395                0.87810353                0.01563871                0.09343464
               4.90100997                6.92714424               90.11593214                0.01000000               -0.04407396               -0.47607072                0.19218384                1.23976974               -0.01732454                0.02700381
               5.90041590                6.93073718               90.12073882                0.01000000               -0.09648422               -0.30963857                0.20033757                1.52340733               -0.02336799               -0.00192634
               6.89908029                6.93516536               90.12564143                0.01000001               -0.14551775               -0.14556762                0.19188939                1.54341442               -0.02798015               -0.00654247
               7.89750554                6.93781209               90.13055834                0.01000001               -0.14142333               -0.10985974                0.19815674                1.35192505               -0.02170788                0.05611449
               8.89625182                6.93574838               90.13577241                0.01000001               -0.11672970               -0.11186785                0.22879783                0.81411656               -0.01121288                0.18115422
               9.89517095                6.92658317               90.14089693                0.01001148               -0.10808734                0.06240318                0.21726557                0.37301778               -0.00867779                0.25238013
              -0.08713551                7.94363716               90.09011092                1.00000000               -0.01692780               -0.04195834                0.06331619                0.00132288                0.00847871               -0.05924592
               0.91269521                7.93599780               90.09562249                0.99999999               -0.02497618               -0.01979602                0.08445333                0.01078024                0.01443529               -0.01062923
               1.91236496                7.92850837               90.10123232                0.01000000               -0.11294348               -0.02150413                0.10225893                0.21132605                0.07172469               -0.01046801
               2.91043634                7.92493435               90.10788077                0.01000001               -0.10808319               -0.30572246                0.12972033                0.52213683                0.13840262                0.05710678
               3.91020330                7.92128621               90.11428326                0.01000000                0.02831418               -0.55142240                0.16598663                0.73494531                0.02980182                0.07379090
               4.91100262                7.92115453               90.11931438                0.01000001                0.06014964               -0.84603137                0.25027163                1.31058610                0.00458991                0.18027573
               5.91140629                7.92716007               90.12502576                0.01000000               -0.04463873               -0.28950877                0.21428877                1.55062001                0.03541254               -0.01545568
               6.91010985                7.93356651               90.13018149                0.01000001               -0.10921988               -0.14340515                0.20539429                1.35811146                0.02662085                0.00198073
               7.90922189                7.93696162               90.13591116                0.01000001               -0.08880346               -0.08737151                0.19235577                1.09280851                0.03599721                0.06123420
               8.90833378                7.93617393               90.14172502                0.01000001               -0.13786948                0.10745160                0.19824121                0.70207166                0.03408419                0.16089625
               9.90646450                7.92876225               90.14752105                0.01000003               -0.18692740                0.36707691                0.21125450                0.40066273                0.03643153                0.28208531
              -0.07962689                8.94329506               90.09177203                0.98321607               -0.01516656               -0.02715311                0.05458370               -0.00462715               -0.00342059               -0.04813667
               0.92022145                8.93574760               90.09742862                1.00000000               -0.01432274               -0.02415768                0.07586884               -0.00129366                0.00233264               -0.01371828
               1.92008666                8.92830191               90.10315464                1.00000000               -0.00298381               -0.02309881                0.09731871                0.03788393                0.04403100                0.01306255
               2.92016177                8.92158587               90.10951978                1.00000000               -0.01552784               -0.18782340                0.12548062                0.16256904                0.09238599                0.02195228
               3.91977610                8.91519325               90.11573303                0.26902360                0.05930304               -0.33631694                0.20107533                0.24001442                0.33889840                0.09575986
               4.92134783                8.91022361               90.12630515                0.01000001               -0.03798912               -0.59159556                0.24619246                1.25218729                0.11977666               -0.01389803
               5.91901632                8.92494700               90.12875160                0.01000003               -0.24534322               -0.12597665                0.24630863                1.36742783               -0.04586789                0.00027794
               6.91644097                8.93229726               90.13490499                0.01000000               -0.11310178               -0.11748471                0.24243705                0.82934056                0.12865108                0.00556000
               7.91675428                8.93606465               90.14123488                0.01000001                0.10258276               -0.13845004                0.20816223                0.69979324                0.13079887                0.05382040
               8.91849262                8.93789741               90.14926604                0.99999999                0.06266407                0.06106306                0.15708815                0.60220095                0.06812938                0.09171646
               9.91800757                8.93392471               90.15578659                0.99998795               -0.04850576                0.23119446                0.16865440                0.37762064               -0.00749246                0.11372437
              -0.07213313                9.94309410               90.09366453                0.97060531               -0.02043845               -0.02009632                0.04908549               -0.00856944               -0.03171957               -0.03721208
               0.92766249                9.93551464               90.09932198                1.00000000               -0.02912556               -0.02329517                0.07083646               -0.00828104               -0.03899408               -0.00881167
               1.92728436                9.92804640               90.10485023                0.99999999               -0.04330552               -0.02555108                0.09109185                0.00293199               -0.05089980                0.00537210
               2.92679638                9.92117788               90.11038872                1.00000000               -0.04592544               -0.04079964                0.11473449               -0.01086569               -0.05473718               -0.01630185
               3.92636585                9.91455987               90.11610725                1.00000000               -0.02518815               -0.06333780                0.16936579                0.06621194                0.10360619                0.03963770
               4.92629261                9.90932262               90.12501985                0.01000000               -0.48423268               -0.09009929                0.02195274                0.99851164                0.42666529               -0.32868311
               5.91668120                9.92464054               90.13337444                0.01000002               -0.53568053               -0.03064627                0.22858894                0.86119768                0.31433820                0.01722797
               6.91557900                9.93121681               90.13941692                0.01000000                0.04682023               -0.10804468                0.23113481                0.39140771                0.21168157                0.00201455
               7.91761760                9.93419262               90.14640944                0.01000002                0.34693698               -0.18720350                0.22409803                0.39525114                0.25057147                0.05084964
               8.92251774                9.93739519               90.15511639                0.99998462                0.21723614               -0.05022179                0.17793554                0.36218816                0.11658984                0.00728116
               9.92196233                9.93338614               90.16163307                1.00000000               -0.05554174               -0.05385661                0.19057899               -0.00542922                0.00693949               -0.00746813
              -0.15050613               -0.05645600               91.07108392                0.82525659               -0.00890212               -0.00990067                0.09029155               -0.00192787                0.00729356               -0.00403743
               0.84940485               -0.06086829               91.07426685                0.65736021                0.02162523               -0.03707635                0.08178926                0.01676647                0.02223690                0.00526444
               1.84992638               -0.06433707               91.07784204                0.79386889                0.03809744               -0.03230352                0.07766835                0.00326945                0.05461742                0.00218945
               2.85016680               -0.06631412               91.08143126                0.55349133                0.01858293               -0.01663877                0.08103003                0.05138583                0.05851043                0.00953171
               3.85029804               -0.06652990               91.08509800                0.36989816               -0.06255647                0.00387302                0.09229077                0.07988513                0.00748266                0.00783694
               4.84891567               -0.06454979               91.08788375                0.95640436               -0.08944740               -0.01439817                0.06460644                0.08624259               -0.02373589                0.01698640
               5.84850909               -0.06425427               91.09009080                1.00000000               -0.04458067               -0.02019088                0.07155831                0.00457038               -0.05935167                0.00011858
               6.84802406               -0.06429043               91.09206536                1.00000000               -0.04716637               -0.01784171                0.07090869                0.00356067               -0.07364702                0.00956361
               7.84756576               -0.06472282               91.09395654                1.00000000               -0.03944007               -0.01659732                0.06373689                0.00081247               -0.07893890                0.00748515
               8.84723526               -0.06536745               91.09581338                0.97984361               -0.02686520               -0.01278683                0.05582606               -0.00541818               -0.06522861               -0.00549664
               9.84702846               -0.06604152               91.09798619                0.95461715               -0.02067996               -0.02186971                0.04861381               -0.00794565               -0.04915975               -0.04092285
              -0.14611312                0.94344499               91.07372217                0.66323492               -0.03738280                0.01827961                0.08565372                0.01569204                0.00585275                0.00465995
               0.85351305                0.93876095               91.07695099                0.45571622               -0.06024458               -0.05890148                0.08056957                0.06728845                0.02222820                0.02094596
               1.85268199                0.93533989               91.08049561                0.01000001               -0.08679906               -0.04477934                0.08280105                0.15538718                0.04463970               -0.00382653
               2.85177707                0.93351949               91.08410195                0.01000001               -0.12336343               -0.02519189                0.09672759                0.25199283                0.08035146                0.09021907
               3.85021472                0.93350883               91.08817904                0.01000000               -0.15683954               -0.02654008                0.10954722                0.34161674                0.14417524                0.05843931
               4.84864028                0.93530623               91.09208181                0.01000000               -0.08948050               -0.09209929                0.08287313                0.35263792                0.08559502                0.02428429
               5.84842511                0.93554382               91.09452811                0.01000001               -0.01731712               -0.10588142                0.08430381                0.20436790                0.00934614                0.07225780
               6.84829394                0.93553116               91.09695181                0.89819679               -0.01563581               -0.02002430                0.08478287                0.02341077               -0.00043884                0.02626101
               7.84811240                0.93511121               91.09918212                1.00000000               -0.02267568               -0.02419960                0.07785406                0.00484075               -0.01649554                0.00884121
               8.84784043                0.93450469               91.10127328                0.99681684               -0.02446606               -0.00998587                0.06954254               -0.00133299               -0.01833666                0.00069618
               9.84762307                0.93373978               91.10346421                0.99722224               -0.02173519               -0.03416067                0.06384863               -0.00792151               -0.01107581               -0.04899792
              -0.14082420                1.94390959               91.07663870                0.81759392               -0.03200782                0.03134476                0.08042198                0.00145921                0.00193854                0.03811016
               0.85885572                1.93795368               91.07993448                0.01088598               -0.04501104               -0.08240046                0.08485252                0.14856283               -0.00749748                0.04556556
               1.85827558                1.93476734               91.08309928                0.01000001               -0.09090023               -0.06611732                0.05897904                0.36814503                0.09951273                0.10696504
               2.85703772                1.93318204               91.08847663                0.01000001               -0.14659742               -0.05919348                0.13101642                0.49662247                0.16441726                0.13691980
               3.85534363                1.93293930               91.09273521                0.01000000               -0.15521406               -0.08041394                0.11901920                0.60805548                0.10731324                0.10578966
               4.85393344                1.93360823               91.09653637                0.01000000               -0.14860563               -0.15322406                0.10288472                0.60799964                0.08650675                0.06738133
               5.85237152                1.93362810               91.10044004                0.01000000               -0.25042753               -0.12860125                0.18581987                0.55483507               -0.09290469                0.18857125
               6.84892489                1.93530909               91.10215706                0.01000000               -0.18412370               -0.10729540                0.09281100                0.43638531               -0.00132974                0.09360966
               7.84868905                1.93479319               91.10441478                0.01000000               -0.01724322               -0.09510808                0.09059655                0.22383211                0.03453939                0.08535018
               8.84858002                1.93443284               91.10684445                0.99999999               -0.01446074                0.01350500                0.08461756                0.05497111                0.02553790                0.04333824
               9.84839983                1.93327527               91.10881073                0.99998474               -0.01801914               -0.06003407                0.08501789                0.00596658                0.00849185               -0.06572306
              -0.13417212                2.94407189               91.07972687                0.61002465               -0.02013205                0.00762926                0.08754071                0.03647982                0.00643021                0.05627916
               0.86562656                2.93711294               91.08308192                0.01000000               -0.05056747               -0.10489513                0.10375692                0.24293674                0.07854713                0.08220264
               1.86481653                2.93401755               91.08793792                0.01000001               -0.10444999               -0.09908944                0.12783730                0.48435543                0.12514668                0.18389274
               2.86353756                2.93233562               91.09258164                0.01000000               -0.14334439               -0.10323484                0.13293584                0.60689945                0.11302180                0.11631262
               3.86194965                2.93190055               91.09705084                0.01000000               -0.17130466               -0.11744040                0.13196472                0.71103666                0.10481190                0.09634724
               4.86011147                2.93224175               91.10123595                0.01000000               -0.20643475               -0.13003148                0.13497861                0.74358392                0.07599700                0.09855897
               5.85782095                2.93297180               91.10494112                0.01000001               -0.21274561               -0.08714040                0.11812339                0.70652878                0.09581575                0.06329394
               6.85585656                2.93338525               91.10843288                0.01000000               -0.21778319               -0.14200364                0.12905402                0.67558312                0.07739844                0.11164187
               7.85346529                2.93320905               91.11116641                0.01000000               -0.26993934               -0.09228198                0.11530802                0.53483005                0.05863708                0.16506009
               8.85045777                2.93477479               91.11312361                0.99999294               -0.17038718                0.03566769                0.09639360                0.20520361                0.02668104                0.11489754
               9.85005754                2.93253910               91.11420223                0.99990953               -0.04002271               -0.06952451                0.11743768               -0.00149264               -0.01278570               -0.05751733
              -0.12617670                3.94406218               91.08299653                0.40002137               -0.00544926               -0.06418181                0.09477797                0.06570703                0.00633564                0.02532097
               0.87376880                3.93585578               91.08670265                0.01000000               -0.05416428               -0.13114603                0.11723259                0.32576337                0.06050028                0.14447884
               1.87274001                3.93278555               91.09184044                0.01000000               -0.12380505               -0.12008186                0.12265029                0.59185609                0.10517095                0.12793557
               2.87129270                3.93111734               91.09663727                0.01000000               -0.15408853               -0.13766899                0.13316145                0.70267768                0.09143724                0.11279384
               3.86965824                3.93059049               91.10125474                0.01000000               -0.17794156               -0.14831722                0.14126088                0.81119272                0.08567393                0.09498745
               4.86773387                3.93100760               91.10564931                0.01000001               -0.21498212               -0.13894208                0.14658356                0.88565178                0.08692570                0.07172925
               5.86535860                3.93188530               91.10980604                0.01000000               -0.27672853               -0.11217684                0.15137220                0.89270477                0.09717431                0.04884141
               6.86219930                3.93246901               91.11376584                0.01000003               -0.36812436               -0.05375605                0.15246228                0.79828235                0.12420418                0.04370282
               7.85799611                3.93294755               91.11746187                0.01000000               -0.44226294                0.03314747                0.12876968                0.70943551                0.14658594                0.10631208
               8.85335404                3.93514619               91.12000161                1.00000000               -0.25773816                0.05078601                0.13709536                0.28420826                0.12622487                0.23301255
               9.85284135                3.93188478               91.12027707                1.00000000               -0.05126947               -0.04472864                0.14912070                0.02865172                0.03192147                0.01429427
              -0.11644518                4.94278825               91.08566227                0.93354148               -0.01363600               -0.08514009                0.06379878                0.07288409                0.01519888               -0.00909813
               0.88341846                4.93449002               91.09042070                0.01000000               -0.10813619               -0.07859768                0.08325975                0.33672706                0.02053321                0.09292697
               1.88139209                4.93161591               91.09539944                0.01000000               -0.18161399               -0.14399741                0.11089378                0.60892031                0.05907852                0.10049958
               2.87978618                4.92958224               91.10039599                0.01000000               -0.15544222               -0.17538034                0.13176939                0.73830271                0.06870518                0.09950087
               3.87828325                4.92893421               91.10526288                0.01000001               -0.16282381               -0.19141937                0.14710958                0.88072407                0.06492392                0.08795600
               4.87652970                4.92946291               91.10992814                0.01000000               -0.20348103               -0.18328503                0.16101406                1.00552358                0.05693767                0.05965239
               5.87421363                4.93072826               91.11437216                0.01000000               -0.28848762               -0.13428182                0.17263252                1.09221627                0.05822118                0.01811064
               6.87075995                4.93231013               91.11859902                0.01000000               -0.46184035               -0.03329717                0.18148830                1.13300636                0.10154306               -0.00915284
               7.86497682                4.93387200               91.12326162                0.01000001               -0.67776193                0.07593044                0.22685056                1.18987906                0.22458145                0.00706251
               8.85720471                4.93579051               91.12808360                0.01000001               -0.39117082               -0.07338468               -0.01499681                1.02649449                0.30448199                0.04362192
               9.85715341                4.93164453               91.12781616                0.24398262               -0.00513055               -0.37419879                0.05868253                0.70956943                0.09102365                0.15391515
              -0.10812256                5.94235938               91.08751488                1.00000000               -0.02017535               -0.04640777                0.06995358                0.00590130               -0.00006087               -0.05500150
               0.89167569                5.93428383               91.09250219                0.01002251               -0.10256239               -0.01561219                0.08433378                0.18883359                0.04490276                0.00795770
               1.88982620                5.92990560               91.09841751                0.01000000               -0.14676163               -0.23157592                0.12369592                0.57133108                0.07541434                0.05935663
               2.88874046                5.92760974               91.10382289                0.01000000               -0.12170698               -0.19023066                0.12156776                0.72189757                0.05356590                0.08386050
               3.88739206                5.92676210               91.10902078                0.01000000               -0.13450840               -0.25417991                0.15088564                0.88423526                0.03647232                0.09289728
               4.88605029                5.92734190               91.11397055                0.01000000               -0.15181767               -0.26921690                0.17318145                1.08878696                0.01421852                0.05952867
               5.88435570                5.92919966               91.11864239                0.01000002               -0.21672988               -0.20027643                0.18651503                1.27347869               -0.00061391                0.00455950
               6.88171569                5.93180307               91.12316403                0.01000000               -0.30211951               -0.08954838                0.19887149                1.41674158                0.00789483               -0.02936822
               7.87831331                5.93446616               91.12771785                0.01000001               -0.28021460               -0.03002184                0.17801462                1.45552436                0.03945734               -0.04798211
               8.87611140                5.93367850               91.13263889                0.01000001               -0.14943118               -0.21267874                0.28656908                1.18573732               -0.12245153                0.19948540
               9.87532469                5.92440080               91.13728916                0.03688970               -0.07867107               -0.41515242                0.04145907                0.70649889               -0.12387528                0.44976231
              -0.10017606                6.94186010               91.08916017                1.00000000               -0.01750381               -0.04916645                0.06961496                0.00400434                0.00954221               -0.06707470
               0.89964890                6.93417778               91.09456773                0.83472201               -0.01655675               -0.01276836                0.08454132                0.03034566                0.03575350               -0.00123343
               1.89949281                6.92698439               91.10048276                0.01000000               -0.11406370               -0.15636974                0.06801052                0.43077565                0.07382417                0.01407341
               2.89736763                6.92577763               91.10679133                0.01000000               -0.16285046               -0.20416241                0.12529660                0.66693726                0.08955073                0.06369182
               3.89623580                6.92385061               91.11254500                0.01000003               -0.07498717               -0.34233047                0.15248626                0.78518840                0.04207163                0.10869620
               4.89586789                6.92407857               91.11782737                0.01000000               -0.05068848               -0.43387124                0.18138102                1.11981935               -0.01074048                0.10347344
               5.89522203                6.92672273               91.12277839                0.01000000               -0.10198028               -0.28598893                0.19691190                1.40991584               -0.03937530                0.02305595
               6.89382828                6.93051916               91.12756168                0.01000002               -0.15050721               -0.13925099                0.19254833                1.48532125               -0.04490955               -0.02606186
               7.89221188                6.93327156               91.13260379                0.01000000               -0.14217322               -0.10437030                0.19512144                1.33094430               -0.00907382                0.02423684
               8.89098482                6.93153693               91.13821320                0.01000003               -0.11865545               -0.13854424                0.22706112                0.85049567                0.03331809                0.31400317
               9.88983877                6.92334148               91.14327491                0.01000002               -0.11460416               -0.00519061                0.28170121                0.46569353                0.07306186                0.28030980
              -0.09267783                7.94137605               91.09074259                1.00000000               -0.01638612               -0.04140239                0.06313585                0.00178907                0.00674350               -0.06885844
               0.90715831                7.93402846               91.09643300                0.99838625               -0.02401577               -0.02054582                0.07852161                0.00871615                0.00993180               -0.01811250
               1.90684186                7.92677821               91.10217929                0.01000000               -0.09726643               -0.01717677                0.09052718                0.21684212                0.07394637                0.00653258
               2.90521298                7.92352649               91.10913197                0.01000000               -0.10234867               -0.25942255                0.11750364                0.51984153                0.14293478                0.03708589
               3.90479488                7.91991549               91.11572612                0.01000003                0.01807852               -0.41901252                0.13234134                0.69151117                0.09904951                0.12436967
               4.90557455                7.91866447               91.12198088                0.01000001                0.06592727               -0.64662309                0.20487903                1.16032684                0.00883877                0.22855970
               5.90611343                7.92347988               91.12697102                0.01000001               -0.03506323               -0.26697011                0.17478408                1.43214694               -0.05476803                0.06448897
               6.90487329                7.92901805               91.13224484                0.01000000               -0.10995013               -0.13389429                0.19416794                1.32888044                0.00220782                0.02331789
               7.90391443                7.93237875               91.13782546                0.01000000               -0.09109480               -0.08389502                0.16702761                1.02256023               -0.00920541                0.02299669
               8.90305139                7.93090761               91.14387419                0.01000000               -0.14424835                0.02351523                0.26194542                0.63845658                0.05451082                0.28941435
               9.90102946                7.92429699               91.14994504                0.01000002               -0.20219329                0.22816149                0.32646963                0.41448606                0.15595270                0.27036123
              -0.08544510                8.94103205               91.09231663                0.97213063               -0.01338308               -0.02762286                0.05504964               -0.00513249               -0.00610924               -0.05581208
               0.91442107                8.93376686               91.09816500                0.99980312               -0.01116379               -0.02426520                0.07143021               -0.00096723               -0.00139894               -0.01946234
               1.91433162                8.92664085               91.10408939                0.99999999                0.01030544               -0.01690512                0.08909399                0.05257162                0.03443535                0.01154913
               2.91462717                8.92058918               91.11060868                1.00000000                0.02982095               -0.16775002                0.10380586                0.19866083                0.10422590                0.01309059
               3.91492804                8.91547036               91.11781187                1.00000000                0.04414311               -0.24901794                0.14711857                0.27462281                0.22645466                0.10542249
               4.91551004                8.91114611               91.12626688                0.01008370               -0.07083268               -0.37852317               -0.00832457                0.99237922                0.05322014                0.27337630
               5.91351139                8.92138333               91.13145993                0.01000001               -0.20015104               -0.14494665                0.27152622                1.16201298                0.19572476               -0.08691631
               6.91150702                8.92784127               91.13747971                0.01000001               -0.13689294               -0.11690828                0.22886039                0.84687504                0.27916292                0.07903222
               7.91077353                8.93159366               91.14347664                0.01000005                0.01643483               -0.14003409                0.26606192                0.63761436                0.26424693                0.08836730
               8.91183571                8.93200724               91.15084567                1.00000000                0.02881072                0.03020981                0.15786519                0.46371867                0.03024008                0.05444125
               9.91134974                8.92790471               91.15746730                0.99999999               -0.04859709                0.15295338                0.16807873                0.31101462               -0.00702959                0.06385891
              -0.07825010                9.94082359               91.09415582                0.95454155               -0.02197401               -0.02084599                0.04836279               -0.00854276               -0.03559500               -0.04266374
               0.92153016                9.93354316               91.10001088                0.99841474               -0.03394651               -0.02237035                0.06602302               -0.00826455               -0.04307810               -0.01189668
               1.92107097                9.92644011               91.10574475                0.99999997               -0.05867339               -0.02007482                0.08881270                0.00535175               -0.05882089                0.00498207
               2.92035669                9.92017149               91.11150892                0.99999999               -0.06702812               -0.04176886                0.12176397               -0.00229655               -0.04913431               -0.01082416
               3.91973041                9.91493514               91.11797234                1.00000000               -0.04237644               -0.05352237                0.15526822                0.02636295                0.02663144                0.02958257
               4.91950917                9.91109401               91.12589383                0.22258771               -0.35359439               -0.00521000                0.05462125                0.68220352                0.14880253                0.08101046
               5.91265852                9.92058095               91.13547691                0.01000002               -0.39543533               -0.08023830                0.05772189                0.69400752                0.40019482               -0.09244714
               6.91160046                9.92667989               91.14192534                0.01000000               -0.00788853               -0.11613882                0.31388383                0.45920057                0.26142423                0.10592374
               7.91250075                9.92957807               91.14897692                0.01000000                0.22071279               -0.20155882                0.35377166                0.41431856                0.25333233                0.18066789
               8.91601472                9.93151181               91.15689489                0.99999999                0.14770252               -0.04954275                0.17908167                0.30679949                0.07062973                0.00614482
               9.91545480                9.92735606               91.16353840                1.00000000               -0.05599133               -0.05486541                0.18836275               -0.00506914                0.00826073               -0.00557122
              -0.15358827               -0.05912350               92.07205188                0.81075902               -0.01541482               -0.01685838                0.10284222               -0.00255703                0.00382883               -0.00625976
               0.84625758               -0.06348447               92.07511480                0.56281114                0.02370464               -0.03677263                0.08973938                0.01948186                0.01643250                0.00563665
               1.84688582               -0.06697129               92.07858386                0.70831675                0.04199508               -0.03127402                0.06798636               -0.00482444                0.04632021                0.00476919
               2.84709748               -0.06890106               92.08226697                0.61640901                0.01129175               -0.02513969                0.09092676                0.03421991                0.06674777                0.01623630
               3.84711165               -0.06953309               92.08609063                0.42215208               -0.04387821               -0.02011050                0.09110723                0.06029305                0.00186348                0.00574108
               4.84621991               -0.06867214               92.08855825                0.93796022               -0.06464703               -0.02012411                0.07676498                0.05065723               -0.02779496                0.01289490
               5.84581871               -0.06873547               92.09079210                0.99999999               -0.04366686               -0.02462603                0.06849444                0.00249046               -0.05543315               -0.00009493
               6.84534658               -0.06914436               92.09274804                0.99999999               -0.04579936               -0.01737975                0.06585694                0.00021082               -0.07595265                0.01056908
               7.84490273               -0.06995251               92.09458040                0.99999999               -0.03857294               -0.01609919                0.06194184               -0.00272204               -0.08223744                0.00714305
               8.84457512               -0.07096190               92.09637403                0.94825661               -0.02634509               -0.01316447                0.05618210               -0.00808602               -0.06741008               -0.00705038
               9.84437582               -0.07200662               92.09845770                0.91188067               -0.01992952               -0.02331335                0.04397994               -0.00893408               -0.05124000               -0.03752612
              -0.14925288                0.94070791               92.07461635                0.56623495               -0.03708348                0.01929330                0.09474335                0.01874727                0.00503515               -0.00236027
               0.85037629                0.93614780               92.07774633                0.31173048               -0.06006273               -0.05944976                0.08228924                0.06744832                0.02590276                0.02431722
               1.84954587                0.93271597               92.08128070                0.01032238               -0.08278562               -0.04397632                0.07788099                0.14300225                0.05906239               -0.00306850
               2.84872058                0.93084754               92.08512131                0.01000000               -0.09728727               -0.04260928                0.12363381                0.21076045                0.10375031                0.09773011
               3.84760012                0.93026581               92.08941617                0.01000000               -0.11964480               -0.04843832                0.13561056                0.27543763                0.12379869                0.05567309
               4.84632768                0.93112662               92.09298022                0.01000001               -0.07601975               -0.09080618                0.09663302                0.25969864                0.06804693                0.01524643
               5.84607973                0.93101827               92.09539067                0.10417572               -0.01852381                0.00864203                0.09532027                0.03655591                0.00970644                0.13463563
               6.84595720                0.93068184               92.09780398                0.96906947               -0.01477271               -0.02079733                0.08535364                0.02290769               -0.00412801                0.02569057
               7.84578427                0.92988650               92.09995531                0.99999720               -0.02179450               -0.02353275                0.07513338                0.00078871               -0.02442235                0.00712485
               8.84552131                0.92890645               92.10194727                0.93279624               -0.02265376               -0.01045507                0.06716796               -0.00327119               -0.02463029               -0.00189041
               9.84533120                0.92776025               92.10407426                0.96867777               -0.01901149               -0.04268728                0.05897666               -0.00751097               -0.01501586               -0.04192391
              -0.14409311                1.94126236               92.07741443                0.72079499               -0.03084068                0.03490538                0.07244190               -0.00537106                0.00594928                0.02733587
               0.85559849                1.93532653               92.08073761                0.02378986               -0.04303842               -0.08054918                0.07969183                0.13774371               -0.00628184                0.06085446
               1.85504612                1.93214918               92.08371896                0.01000000               -0.09178183               -0.05987062                0.11896676                0.32788064                0.14363205                0.14611635
               2.85376285                1.93024675               92.08989340                0.01000000               -0.13523973               -0.07591201                0.16443226                0.43357142                0.22437421                0.13021257
               3.85234133                1.92949815               92.09391479                0.01000001               -0.15507100               -0.08718857                0.12107083                0.51359450                0.09370691                0.09118018
               4.85066143                1.92951173               92.09756349                0.01000000               -0.26733600               -0.11755528                0.11640268                0.61820381                0.12223087                0.07211922
               5.84699461                1.93143737               92.10263314                0.01000000               -0.18624648               -0.09646545                0.12772279                0.50899245               -0.09847852                0.18919349
               6.84693650                1.93043969               92.10314994                0.01000001               -0.01503622               -0.10187078                0.09855495                0.28250426               -0.07029273                0.09620031
               7.84669388                1.92957684               92.10532563                0.01000000               -0.01502759               -0.08283449                0.08668625                0.20911624                0.02519103                0.08492632
               8.84663595                1.92882900               92.10765235                1.00000000               -0.00879354                0.00760363                0.08053593                0.05893470                0.01895292                0.03630809
               9.84651801                1.92713964               92.10965818                0.99999999               -0.01179331               -0.08357093                0.08942261                0.00658379                0.00692108               -0.04810518
              -0.13748864                2.94140602               92.08062416                0.66949541               -0.02670203                0.00215423                0.09521333                0.02422800                0.01235753                0.05927104
               0.86224434                2.93453682               92.08416162                0.01000000               -0.06640493               -0.08697906                0.12565003                0.22047005                0.08059545                0.10825825
               1.86118326                2.93151856               92.08930165                0.01000000               -0.11006499               -0.09425609                0.16625053                0.42446859                0.13088443                0.22071587
               2.86004304                2.92932930               92.09390802                0.01000000               -0.12881157               -0.09898914                0.12103460                0.53398647                0.09870755                0.09390339
               3.85860703                2.92852204               92.09833506                0.01000001               -0.16452527               -0.10497678                0.12421740                0.65293318                0.10020279                0.09378135
               4.85675253                2.92877551               92.10256811                0.01000000               -0.16377039               -0.10747773                0.12427264                0.71155667                0.06525290                0.10818378
               5.85533162                2.92908896               92.10606286                0.01000000               -0.16423573               -0.18977922                0.12726249                0.75889980                0.08424875                0.02982773
               6.85346782                2.92864442               92.10965152                0.01000001               -0.18771654               -0.13013156                0.10946617                0.59830760                0.06386299                0.13073098
               7.85157729                2.92822981               92.11223253                0.01000000               -0.21653056               -0.08302374                0.11303027                0.50465716                0.02946760                0.14813955
               8.84913721                2.92905853               92.11404103                1.00000000               -0.13678481                0.02091949                0.08949249                0.20096210                0.01493282                0.07719923
               9.84884160                2.92608883               92.11548325                0.99999999               -0.02956137               -0.10853634                0.12963404                0.00648484                0.00351852               -0.04281638
              -0.12987014                3.94130545               92.08400518                0.47118710               -0.02345076               -0.04664029                0.09418679                0.04466477                0.00310743                0.01487736
               0.86989535                3.93358695               92.08799695                0.01000000               -0.06934214               -0.10094429                0.13711023                0.26812851                0.05080086                0.12677043
               1.86874301                3.93026406               92.09305617                0.01000001               -0.12281251               -0.11388068                0.12337952                0.52329383                0.08730232                0.10403054
               2.86743910                3.92826697               92.09791472                0.01000001               -0.13946155               -0.12059099                0.12217805                0.63029431                0.08917481                0.09781869
               3.86595378                3.92739861               92.10261631                0.01000000               -0.15567286               -0.13095038                0.12945670                0.73187357                0.08841497                0.08824936
               4.86432564                3.92736218               92.10707654                0.01000000               -0.18250439               -0.14510024                0.14029660                0.80023955                0.08863274                0.07697107
               5.86230369                3.92764178               92.11129651                0.01000001               -0.22819205               -0.12938792                0.14395689                0.77957068                0.09441334                0.07254864
               6.85976180                3.92783706               92.11518609                0.01000001               -0.29653843               -0.05976650                0.13622326                0.71357834                0.10872269                0.06664117
               7.85637293                3.92791636               92.11861752                0.01000001               -0.34828148                0.02040744                0.10163466                0.65973815                0.09988893                0.11569482
               8.85279617                3.92924739               92.12077960                0.90169074               -0.18929111                0.02008205                0.06825290                0.28307857                0.05288446                0.10175832
               9.85258710                3.92496891               92.12149076                0.99999998               -0.02090671               -0.09739851                0.13246954                0.01388502               -0.00573826               -0.03388159
              -0.12115835                4.94047321               92.08633982                0.92861021               -0.01933520               -0.06278253                0.07631946                0.03944245                0.01057446               -0.01608644
               0.87864829                4.93251793               92.09131787                0.01000001               -0.09362630               -0.06510104                0.09451044                0.27319209                0.01098939                0.07157555
               1.87696912                4.92924094               92.09640330                0.01000000               -0.15669589               -0.10977382                0.09710969                0.51990748                0.05792364                0.06939127
               2.87551438                4.92691748               92.10167468                0.01000000               -0.14099147               -0.15632507                0.12392353                0.65923381                0.09709996                0.06763896
               3.87414929                4.92590303               92.10667752                0.01000000               -0.15001114               -0.16504280                0.13803081                0.78345848                0.07707130                0.08541489
               4.87251415                4.92587351               92.11150391                0.01000001               -0.18505666               -0.16974462                0.15525064                0.88290006                0.06526272                0.06523760
               5.87044816                4.92650120               92.11605203                0.01000001               -0.25246722               -0.13019895                0.16509490                0.95127016                0.06466559                0.03181705
               6.86746481                4.92744909               92.12039369                0.01000001               -0.35432155               -0.04546132                0.16309573                0.98869297                0.10465843                0.00679318
               7.86336173                4.92863796               92.12470175                0.01000000               -0.48592876                0.04703198                0.11413624                0.98594247                0.18502409               -0.00191460
               8.85774623                4.92946017               92.12790350                0.55104793               -0.28427385                0.15120066               -0.00506698                0.57544590                0.18537202                0.13724495
               9.85767625                4.92414086               92.12803061                0.99999999               -0.00699842               -0.19591121                0.07724304                0.28349782                0.03037087               -0.02467516
              -0.11317073                5.94004980               92.08820836                1.00000000               -0.02378089               -0.04540961                0.06938576                0.00361437                0.00007807               -0.05200395
               0.88659146                5.93228493               92.09335990                0.01000003               -0.10438273               -0.01649465                0.09168733                0.18200179                0.06425529                0.00567583
               1.88474161                5.92806859               92.09975753                0.01000000               -0.13148856               -0.19946310                0.14907610                0.49679950                0.17612088               -0.08728558
               2.88396169                5.92514047               92.10493525                0.01000000               -0.10373441               -0.16261989                0.11089741                0.63702206                0.07318808                0.07888607
               3.88266692                5.92409776               92.11047795                0.01000001               -0.12881082               -0.21063730                0.14260688                0.78901463                0.06309737                0.08607663
               4.88138547                5.92396729               92.11565208                0.01000001               -0.14567071               -0.23350662                0.16439464                0.94938345                0.03074819                0.06036035
               5.87975351                5.92503781               92.12047267                0.01000000               -0.19932854               -0.18157707                0.17975270                1.12032351                0.01199535                0.01233424
               6.87739890                5.92692783               92.12508792                0.01000001               -0.28364050               -0.09428890                0.18150099                1.23555422                0.01202966               -0.04265718
               7.87408070                5.92885700               92.12936218                0.01000001               -0.42983561               -0.02243742                0.17029516                1.43271940                0.11015059               -0.07432967
               8.86880219                5.93227140               92.13537236                0.36702555               -0.25925133                0.06664904                0.09131647                1.03472566               -0.09100925                0.17075573
               9.86889567                5.92105068               92.13601135                1.00000000                0.00934860               -0.23036848                0.00555346                0.31955440               -0.30323507                0.40470718
              -0.10555634                6.93956502               92.08984772                0.99999182               -0.01741247               -0.04731322                0.06640786                0.00176539                0.00763985               -0.06960259
               0.89426954                6.93218804               92.09538406                0.87672513               -0.01970459               -0.01233272                0.08327804                0.02761756                0.02355757               -0.00728508
               1.89404957                6.92525168               92.10122573                0.01012050               -0.10219462               -0.15180968                0.08703968                0.39401753                0.08132614               -0.01585559
               2.89222565                6.92366508               92.10801097                0.01000001               -0.14734046               -0.16408775                0.11151000                0.61125586                0.11563823                0.04589722
               3.89110276                6.92169028               92.11395602                0.01000001               -0.08319371               -0.27955143                0.13576085                0.71033702                0.06064568                0.09372637
               4.89056177                6.92120337               92.11955976                0.01000001               -0.06043399               -0.33405380                0.15963782                0.98641973                0.00477435                0.09579913
               5.88989408                6.92286966               92.12467706                0.01000001               -0.11025380               -0.26347488                0.17927887                1.23267011               -0.04364169                0.01069227
               6.88835670                6.92556331               92.12949240                0.01000001               -0.16107683               -0.14064979                0.19782185                1.36101078               -0.05337680               -0.04894965
               7.88667255                6.92818921               92.13446076                0.01000001               -0.10548163               -0.11541512                0.18369074                1.42787852               -0.01062440               -0.04702329
               8.88624706                6.93079315               92.14031364                0.63648796               -0.00818902               -0.14708225                0.12321953                0.99232537                0.08100948                0.17281792
               9.88650877                6.91953349               92.14653095                0.99621913                0.02617023               -0.05367976                0.15296401                0.30134320                0.16543067                0.39512826
              -0.09838146                7.93910353               92.09137364                1.00000000               -0.01613913               -0.03997161                0.06248797               -0.00099907                0.00514656               -0.07444836
               0.90145715                7.93203828               92.09719292                1.00000000               -0.02368105               -0.02037849                0.07493230                0.00400167                0.00672468               -0.02550225
               1.90114492                7.92503239               92.10304287                0.01000000               -0.08544734               -0.01421296                0.08444940                0.20512766                0.07636210                0.01021280
               2.89974820                7.92185871               92.11023084                0.01000000               -0.09047729               -0.20971726                0.11543069                0.48862478                0.13148480                0.01122941
               3.89933537                7.91850673               92.11693009                0.01000001                0.00931441               -0.33174060                0.10626171                0.64858633                0.10793107                0.07845041
               4.89993449                7.91728621               92.12341196                0.01000000                0.03557993               -0.47125934                0.11423889                0.97319924               -0.00010321                0.16352235
               5.90004697                7.91976831               92.12852144                0.01000001               -0.03174631               -0.40834336                0.16425710                1.43262651               -0.07254990                0.11245119
               6.89929956                7.92411484               92.13406485                0.01000001               -0.13192669               -0.06829551                0.17880919                1.42156042               -0.05118467               -0.00454162
               7.89740844                7.92654870               92.13925171                0.01000001               -0.09975738               -0.07543322                0.18566084                1.36078179                0.01102269                0.02000639
               8.89730442                7.92932975               92.14696393                0.53951080                0.00167075               -0.24138039                0.18045083                0.61440490                0.11708419                0.16145232
               9.89744185                7.91997709               92.15405044                0.85056046                0.01374369                0.10375201                0.20512756               -0.02951918                0.19813365                0.09383330
              -0.09144581                8.93876559               92.09287302                0.94335307               -0.01334818               -0.02705425                0.05609186               -0.00719613               -0.00661097               -0.06019652
               0.90842071                8.93178047               92.09885722                0.94542720               -0.01112523               -0.02266608                0.06797470               -0.00216600               -0.00312621               -0.02574272
               1.90833169                8.92496742               92.10493652                1.00000000                0.00515479               -0.00985393                0.08274534                0.05776271                0.02860089                0.00848789
               2.90852381                8.91947074               92.11159590                1.00000000                0.01576511               -0.13488986                0.09504079                0.19629743                0.06932632                0.00302181
               3.90864699                8.91505547               92.11867541                0.90424323                0.01201848               -0.18380729                0.07583143                0.27428221                0.09978697                0.04064347
               4.90876418                8.91177819               92.12613866                0.50709326                0.15354992               -0.27986422                0.00223438                0.57384656                0.14759308                0.17106038
               5.91171799                8.91470279               92.13418213                0.33183494                0.06216681               -0.25053317                0.08458340                1.05129158                0.17884694               -0.07746676
               6.91000751                8.92419740               92.13948220                0.61189165               -0.15223626                0.01645928                0.11811070                0.99928340                0.16478956                0.11099662
               7.90867326                8.92668055               92.14655612                0.49766530               -0.24503705                0.01283655                0.18063160                0.60371996                0.15845483                0.13855108
               8.90510677                8.92596554               92.15242335                0.99999999               -0.20247760               -0.19550526                0.14347904                0.34962127               -0.03157227               -0.02605642
               9.90462371                8.92160853               92.15914817                1.00000000               -0.04830601                0.05777131                0.16116444                0.13423237               -0.00078926               -0.08628206
              -0.08455514                9.93856245               92.09463178                0.90425486               -0.02328626               -0.02031428                0.04435958               -0.00868276               -0.03283640               -0.04554179
               0.91521200                9.93158495               92.10064245                0.98040703               -0.04174764               -0.01955148                0.06088310               -0.00722826               -0.03689947               -0.01659851
               1.91460991                9.92483531               92.10662648                0.99999998               -0.08129469               -0.01321090                0.09241619                0.00661968               -0.04252659                0.00304072
               2.91358610                9.91916092               92.11282400                0.99999996               -0.10481684               -0.03098221                0.13240084                0.00599280               -0.03846350                0.00372012
               3.91251357                9.91483058               92.11921262                0.99999998               -0.09109998               -0.02248904                0.13460311                0.01305829               -0.03057744               -0.00565807
               4.91176410                9.91168893               92.12611227                0.99999999               -0.19299906               -0.00892602                0.07965936                0.29634560               -0.01465963                0.03051592
               5.90865359                9.91475764               92.13452888                1.00000000               -0.22283120                0.00548525                0.02804563                0.33131447                0.41164868               -0.28652168
               6.90730748                9.92444402               92.14569460                0.99292524               -0.04694421                0.02466172                0.17518799                0.33238575                0.39688474                0.21832300
               7.90771470                9.92680543               92.15348487                0.85011153                0.10306904                0.01248844                0.22850905               -0.04707479                0.06953040                0.23276533
               8.90936886                9.92541965               92.15869802                0.99999999                0.05629088               -0.05458904                0.17577240                0.14256288               -0.09626302                0.00252175
               9.90884052                9.92113252               92.16540033                1.00000000               -0.05283383               -0.04760139                0.17490131               -0.00703252                0.00361365               -0.00246507
              -0.15655540               -0.06171014               93.07314076                0.81006395               -0.02430839               -0.02546249                0.10943072               -0.00254307                0.00176055               -0.00640727
               0.84320152               -0.06601860               93.07606163                0.46645706                0.01280026               -0.03569125                0.09840250                0.02026161                0.00545213                0.00457431
               1.84370061               -0.06963538               93.07920177                0.52973937                0.03967351               -0.02212012                0.06944654               -0.00520942                0.03745874                0.01571357
               2.84399499               -0.07169807               93.08324980                0.70940344                0.01717086               -0.04542614                0.08074527                0.00062385                0.07256543                0.01672143
               3.84404403               -0.07306616               93.08692015                0.63242252               -0.01683448               -0.01357141                0.08273815                0.00688923                0.00772757                0.00690199
               4.84365830               -0.07313582               93.08941905                0.98917294               -0.04166944               -0.02582535                0.08789458                0.01748306               -0.02242624               -0.00241829
               5.84321064               -0.07345332               93.09146069                0.99999999               -0.04707990               -0.01511818                0.07021771                0.00572919               -0.05882557                0.01539551
               6.84271670               -0.07419092               93.09338250                0.99999999               -0.04578044               -0.01660139                0.06452648               -0.00081770               -0.07387125                0.01363902
               7.84229503               -0.07532977               93.09519538                1.00000000               -0.03534712               -0.01617587                0.05787122               -0.00463710               -0.07904491                0.00425132
               8.84200976               -0.07665493               93.09693702                0.80795313               -0.02293558               -0.01565126                0.05556070               -0.01285858               -0.06713641               -0.00430633
               9.84183632               -0.07802516               93.09886578                0.73406714               -0.01734430               -0.02740208                0.04708332               -0.01377688               -0.05611780               -0.02454034
              -0.15227236                0.93803523               93.07561703                0.47308898               -0.03608801                0.00793196                0.10334861                0.01911634                0.00265393               -0.01356592
               0.84736676                0.93362448               93.07859677                0.01000001               -0.06196924               -0.06129566                0.09231023                0.06661113                0.02833155                0.02634289
               1.84648825                0.93014342               93.08205323                0.20875993               -0.08250686               -0.03479481                0.07875841                0.12575008                0.10761511                0.04095876
               2.84571662                0.92784766               93.08657463                0.01000000               -0.08282297               -0.06511702                0.16451063                0.19945469                0.17524125                0.11017123
               3.84483179                0.92679813               93.09089125                0.01000000               -0.08449528               -0.05449186                0.12591764                0.21309630                0.13835299                0.00510996
               4.84402671                0.92660593               93.09401447                0.01000001               -0.05181557               -0.07007313                0.09325536                0.17993900                0.05196815                0.01561694
               5.84379548                0.92639550               93.09643452                0.78603172               -0.01899819                0.00965536                0.09292903                0.03209969                0.00587380                0.09879248
               6.84364675                0.92564307               93.09865888                0.99729133               -0.01574082               -0.02117657                0.08096545                0.01114056               -0.01627095                0.02422664
               7.84348066                0.92450848               93.10068479                1.00000000               -0.02089387               -0.02278725                0.07156617               -0.00295379               -0.03228397                0.00536349
               8.84322887                0.92318856               93.10261664                0.82007745               -0.02059433               -0.01399195                0.06770024               -0.00954418               -0.03059867                0.00084921
               9.84306878                0.92170082               93.10464375                0.92250754               -0.01600943               -0.05353347                0.06175161               -0.01426026               -0.02464744               -0.02792744
              -0.14735157                1.93844850               93.07808754                0.53587251               -0.02228729                0.03156663                0.07616276               -0.00567672                0.01768499                0.01582801
               0.85242556                1.93275548               93.08152832                0.21691590               -0.03279996               -0.08028588                0.08017296                0.12072296                0.03973665                0.10563052
               1.85199243                1.92966872               93.08547862                0.01000000               -0.05480909               -0.05243791                0.23123459                0.27218348                0.17169863                0.18341711
               2.85132938                1.92699958               93.09176527                0.01000001               -0.12223708               -0.08276444                0.14336291                0.34684809                0.16490456                0.11706609
               3.84954769                1.92584400               93.09515663                0.01000000               -0.18348325               -0.08617329                0.12109647                0.44624777                0.09118987                0.04132525
               4.84765971                1.92546272               93.09886442                0.01010794               -0.23660985               -0.08567781                0.11347345                0.52789010                0.16183995                0.06286634
               5.84481549                1.92673979               93.10299450                0.01003611               -0.14165870               -0.07452597                0.01271027                0.42749322                0.06296424                0.04648367
               6.84482654                1.92538555               93.10412816                0.01000000               -0.00625146               -0.08396718                0.08684039                0.23960494               -0.04865077                0.08212658
               7.84469046                1.92421449               93.10614850                0.01000000               -0.01000023               -0.08142620                0.08632070                0.19320743                0.01354480                0.09744057
               8.84462653                1.92306523               93.10845517                0.99999999               -0.00819390                0.00014813                0.08247002                0.04832629                0.01308204                0.03390045
               9.84452659                1.92090417               93.11059918                0.99999999               -0.00999470               -0.09253090                0.09469967               -0.00737036                0.00354770               -0.02209984
              -0.14099987                2.93866657               93.08163113                0.74408004               -0.04391418                0.00977851                0.08270173               -0.00210674                0.01453633                0.06241074
               0.85856099                2.93201877               93.08559492                0.01005475               -0.06561558               -0.07602734                0.15988510                0.18681850                0.10072081                0.17426474
               1.85768782                2.92909466               93.09126293                0.01000001               -0.10413444               -0.09521052                0.14828469                0.33747341                0.12411814                0.15392603
               2.85647830                2.92619237               93.09500233                0.01000001               -0.11971026               -0.08462619                0.12276550                0.40833404                0.07797869                0.06189437
               3.85529361                2.92507466               93.09953519                0.01000000               -0.13947837               -0.09154891                0.09711693                0.57085121                0.11452194                0.05531774
               4.85368873                2.92489237               93.10372140                0.01000000               -0.14355500               -0.09257489                0.10998585                0.64984645                0.08596098                0.07636625
               5.85242251                2.92490498               93.10748637                0.01000001               -0.13622934               -0.16963458                0.12974585                0.66965869                0.04813485                0.04560866
               6.85096415                2.92396372               93.11062221                0.01000000               -0.13786913               -0.11629371                0.10430692                0.51005901                0.02415184                0.12139404
               7.84966513                2.92287995               93.11342701                0.01000003               -0.17292154               -0.07111293                0.14224288                0.44688554               -0.10458112                0.22144151
               8.84750571                2.92319152               93.11491345                0.99972015               -0.12108220                0.01268319                0.08527077                0.19411073               -0.01595703                0.05240345
               9.84724349                2.91985020               93.11679491                0.99999999               -0.02622278               -0.11221956                0.12396057                0.00475259                0.00618005               -0.00078823
              -0.13409810                3.93864407               93.08488027                0.68560623               -0.01680625               -0.02016116                0.08715095               -0.00040914                0.00211874                0.01649268
               0.86573383                3.93123494               93.08944485                0.01000000               -0.06668023               -0.07300897                0.12433140                0.20671141                0.00307974                0.13899756
               1.86456829                3.92776451               93.09430803                0.01000000               -0.11088887               -0.13961466                0.11786147                0.42890327                0.04843452                0.06368810
               2.86351606                3.92530706               93.09908083                0.01000000               -0.11517864               -0.11389440                0.09525004                0.56120861                0.07090883                0.09028945
               3.86226472                3.92401303               93.10384387                0.01001071               -0.13448661               -0.11469009                0.11149187                0.65029960                0.09404059                0.08076536
               4.86082632                3.92361122               93.10845524                0.01010467               -0.15637017               -0.13501269                0.13503438                0.70528877                0.08420939                0.07824297
               5.85913731                3.92334710               93.11268518                0.01000001               -0.18867897               -0.13582653                0.14395890                0.68215512                0.06549801                0.07328689
               6.85705274                3.92305967               93.11649030                0.01000001               -0.23684684               -0.07097804                0.12650443                0.63421952                0.03208143                0.09250940
               7.85440038                3.92279223               93.11949457                0.01000000               -0.27571239                0.01045475                0.08834652                0.58807915                0.02137005                0.09562318
               8.85153850                3.92331889               93.12136667                0.76554665               -0.15480534                0.03755611                0.07074452                0.29725627                0.00834035                0.05497565
               9.85130427                3.91865978               93.12292646                0.99999999               -0.02342252               -0.16098874                0.15572267                0.04724384               -0.01048622                0.01693637
              -0.12618979                4.93826334               93.08718866                0.98916467               -0.02354395               -0.04163333                0.08637513                0.01322606               -0.00270854               -0.01409474
               0.87357477                4.93055859               93.09231090                0.01000001               -0.08082255               -0.04518914                0.08798019                0.18584076               -0.00237226                0.05200490
               1.87219376                4.92630237               93.09734164                0.01012101               -0.10604059               -0.22135271                0.10829662                0.52804336                0.05522658                0.12232192
               2.87145396                4.92391449               93.10287446                0.01000000               -0.10991564               -0.12279455                0.11308245                0.62231168                0.10446814                0.04792577
               3.86999545                4.92278086               93.10802349                0.01010520               -0.14967602               -0.14039449                0.13515450                0.69750432                0.08522029                0.07623211
               4.86846044                4.92219212               93.11303316                0.01000000               -0.16891424               -0.15589847                0.15569183                0.76259029                0.06909432                0.06177786
               5.86661716                4.92218845               93.11767406                0.01000002               -0.21285189               -0.12628876                0.16226613                0.81872519                0.04831235                0.04387446
               6.86420340                4.92254416               93.12186093                0.01000000               -0.27248336               -0.06042301                0.14688996                0.84573121                0.05041147                0.02188161
               7.86116749                4.92308905               93.12554434                0.01000001               -0.33100552                0.02141622                0.08866422                0.86149897                0.04289461                0.01855250
               8.85758329                4.92394264               93.12798226                0.68549614               -0.18304519                0.06822894                0.02225535                0.48224626                0.06171201                0.05677341
               9.85750659                4.91663043               93.12936102                0.99999999               -0.00766995               -0.23325860                0.16918875                0.10266539                0.00824568                0.06129378
              -0.11842407                5.93781140               93.08890259                0.99999999               -0.01643055               -0.04802890                0.07141300                0.00666732                0.01054191               -0.05654877
               0.88141162                5.93033115               93.09433594                0.69207588                0.00986645               -0.01797653                0.08989549                0.03466656                0.09608686                0.00193822
               1.88177326                5.92333746               93.10139903                0.01000001               -0.09639134               -0.14602128                0.07853361                0.44093407                0.14353174               -0.07064758
               2.87948380                5.92285117               93.10604084                0.01000001               -0.19180419               -0.12572500                0.12514938                0.66819134                0.06267107                0.04703255
               3.87793717                5.92120514               93.11187292                0.01000001               -0.14066276               -0.17539300                0.14322538                0.67732766                0.08490071                0.05446438
               4.87667054                5.92049325               93.11725844                0.01000002               -0.13887004               -0.19787223                0.16171426                0.81990380                0.04618501                0.03961826
               5.87515977                5.92082132               93.12223744                0.01000001               -0.18018859               -0.16503205                0.17560489                0.95786775                0.01345680                0.00706449
               6.87306677                5.92185121               93.12679405                0.01000000               -0.24639477               -0.09904613                0.17399443                1.05864363                0.00503898               -0.02632797
               7.87023188                5.92322055               93.13112375                0.01000005               -0.27123647               -0.03237418                0.14192284                1.14214620               -0.00652442               -0.05033589
               8.86764204                5.92468347               93.13446522                0.70773239               -0.11249358               -0.02704566               -0.05082167                0.68627913                0.07786198               -0.09806714
               9.86798201                5.91399461               93.13740023                1.00000000                0.03399661               -0.17127351                0.11052526                0.09142199                0.08172357                0.16322903
              -0.11109595                6.93730276               93.09048833                0.99999999               -0.01620083               -0.04748121                0.06546370                0.00016030                0.01246428               -0.07069738
               0.88874204                6.93019906               93.09623329                0.97106661               -0.02058140               -0.01429493                0.08051912                0.01455659                0.02554563               -0.01757371
               1.88849242                6.92338194               93.10222355                0.01000001               -0.08959677               -0.00328926                0.08578339                0.23794248                0.07517095               -0.05803932
               2.88695011                6.92139999               93.10902153                0.01000000               -0.12962526               -0.13425106                0.10777350                0.51813585                0.10432098                0.02106693
               3.88589992                6.91927300               93.11526022                0.01000001               -0.08538886               -0.22200116                0.12719855                0.63349470                0.08876202                0.01907885
               4.88524233                6.91823467               93.12102013                0.01000000               -0.07416829               -0.25686137                0.14691340                0.84627040                0.02254739                0.03561035
               5.88441655                6.91888781               93.12636397                0.01000000               -0.11326462               -0.22987417                0.17365755                1.05891705               -0.02190618               -0.00592271
               6.88297704                6.92056324               93.13151812                0.01000001               -0.16191964               -0.14568957                0.18956611                1.18031528               -0.03949748               -0.04938227
               7.88117816                6.92244156               93.13627760                0.01000001               -0.12211097               -0.12685118                0.19414337                1.19212052               -0.05415675               -0.08013387
               8.88053482                6.92340173               93.14067759                0.98919156               -0.02327003               -0.13282619                0.04246770                0.68578496               -0.04762812               -0.08329178
               9.88071276                6.91320496               93.14633419                0.99999999                0.01779401               -0.02190836               -0.01755029                0.12217742                0.01194528                0.15978125
              -0.10421345                7.93686178               93.09199235                1.00000000               -0.01629742               -0.03663934                0.05863781               -0.00414103                0.00452305               -0.07347137
               0.89562358                7.93004525               93.09793164                0.99923425               -0.02276877               -0.01982889                0.07169261               -0.00185515                0.00628071               -0.03443450
               1.89533118                7.92327167               93.10386827                0.01000001               -0.08340613               -0.00774717                0.08262458                0.18967177                0.08957399               -0.00152516
               2.89395546                7.92016615               93.11144058                0.01000003               -0.07793972               -0.16717667                0.14530805                0.44090738                0.20753429               -0.12011011
               3.89377238                7.91676511               93.11785135                0.01000000                0.00128436               -0.26361475                0.09128126                0.58354885                0.08937995                0.00334802
               4.89398114                7.91535602               93.12426566                0.01000001                0.01185823               -0.31838336                0.08975697                0.85857852                0.01808122                0.02606698
               5.89400955                7.91622384               93.13025617                0.01000001               -0.04309117               -0.25306248                0.14042194                1.14548144               -0.04678756               -0.02509307
               6.89311932                7.91893742               93.13582103                0.01000000               -0.13868738               -0.10658938                0.19320563                1.19557371               -0.07426387               -0.06917318
               7.89123580                7.92068353               93.14153868                0.01000000               -0.12624872               -0.11550194                0.21667244                1.14564203               -0.03636702               -0.05202119
               8.89059434                7.92202695               93.14748321                0.99999998               -0.02083516               -0.18248565                0.05224707                0.54751537               -0.01291765               -0.09239111
               9.89081910                7.91355644               93.15404759                0.99999999                0.02247515                0.08121159               -0.00756660                0.01152721                0.01710595                0.06413206
              -0.09754572                8.93656998               93.09343847                0.79625707               -0.01592319               -0.02332709                0.05573965               -0.01248500               -0.00405563               -0.06207328
               0.90229504                8.92980248               93.09952449                0.83906977               -0.01446550               -0.02022544                0.06777147               -0.00845416               -0.00013813               -0.03258558
               1.90216497                8.92322700               93.10574430                0.99999999               -0.00101135               -0.00753369                0.08223930                0.04808418                0.02821436                0.00369679
               2.90227482                8.91805645               93.11250949                0.99999999                0.01080279               -0.11882310                0.08818816                0.19097714                0.04815444               -0.02538152
               3.90238102                8.91400070               93.11932850                0.78870493                0.03401807               -0.15087785                0.07534445                0.29343795                0.05623849               -0.00179035
               4.90295518                8.91186701               93.12631157                0.70326745                0.06818805               -0.17994649                0.02685304                0.48722111                0.06109139                0.05668127
               5.90374478                8.91382656               93.13315160                0.71986464               -0.02631799               -0.10334105               -0.05676140                0.69320333               -0.09670142                0.07029098
               6.90242882                8.91843145               93.13984192                0.98991001               -0.13716538               -0.01579409                0.04324156                0.68839032               -0.06597534               -0.06866329
               7.90100147                8.92013152               93.14708928                0.99999997               -0.19083006               -0.01538321                0.05399293                0.54863522               -0.08775433               -0.02228630
               8.89861222                8.91975201               93.15371525                0.99999999               -0.15585778               -0.15070246                0.11131719                0.31386605               -0.00333638               -0.01327406
               9.89788432                8.91482919               93.16069059                0.99999999               -0.07278979                0.06229977                0.12040528                0.07288570                0.00645897               -0.03618834
              -0.09092815                9.93639524               93.09504301                0.73195913               -0.02743773               -0.01747430                0.04837813               -0.01369128               -0.02000998               -0.05292854
               0.90879747                9.92964075               93.10122854                0.93133994               -0.05164831               -0.01617323                0.06344953               -0.01346865               -0.02300391               -0.02653026
               1.90803889                9.92312100               93.10759308                0.99999998               -0.08980913               -0.01059984                0.09760136               -0.00516095               -0.01666827                0.00095674
               2.90700129                9.91778969               93.11415693                0.99999999               -0.11041480               -0.02667664                0.12671666                0.00397532                0.00110322                0.00520270
               3.90583059                9.91374756               93.12066441                0.99999999               -0.15507895               -0.02531486                0.15766739                0.04332716                0.01649084               -0.01099881
               4.90389971                9.91175709               93.12748702                0.99999999               -0.22607112               -0.01099116                0.16942708                0.11492643                0.06627490                0.01403189
               5.90130917                9.91415702               93.13603782                1.00000000               -0.16587770                0.03304586                0.11375049                0.09966085                0.17679201                0.09640812
               6.90058216                9.91862154               93.14542910                0.99999999               -0.02106132                0.01900894               -0.02129459                0.12627660                0.15983290                0.00704157
               7.90088794                9.92037587               93.15354710                0.99999999                0.07959211                0.02443431               -0.00487672                0.00821452                0.05784425                0.02223049
               8.90217400                9.91901290               93.16041033                0.99999999                0.06172608               -0.07391154                0.12980117                0.07750684               -0.05058130                0.00599714
               9.90212246                9.91480244               93.16703642                1.00000000               -0.00515385               -0.00267526                0.16510546                0.00276800               -0.03239772               -0.02424183
              -0.15939481               -0.06420420               94.07424049                0.81319565               -0.02995781               -0.03059913                0.10378829               -0.00235282                0.00192952               -0.00467561
               0.84030561               -0.06846326               94.07708285                0.40175810               -0.00791793               -0.03287633                0.10389300                0.01232509                0.00152262                0.00774715
               1.84044683               -0.07235993               94.07997279                0.34158453                0.02623998               -0.03817704                0.09989896               -0.01030345                0.01408551                0.00813772
               2.84083041               -0.07521630               94.08388188                0.66061580                0.03250628               -0.02482128                0.07390192                0.00683016                0.09404780                0.06401663
               3.84109695               -0.07733726               94.08774539                0.95215232                0.02002185               -0.05312123                0.07732041                0.04828702                0.04062409                0.00632378
               4.84123085               -0.07791134               94.09031615                1.00000000               -0.02091038               -0.00950716                0.07793218                0.00739540               -0.04148360               -0.01017186
               5.84067875               -0.07837521               94.09219645                1.00000000               -0.05481896               -0.01644744                0.07415019                0.01175364               -0.07681390                0.01039234
               6.84013447               -0.07942435               94.09403857                1.00000000               -0.04557188               -0.01549407                0.06344537                0.00115078               -0.08301888                0.01011393
               7.83976731               -0.08084630               94.09573783                0.90424728               -0.02862422               -0.01130557                0.05130952               -0.00779356               -0.07926855                0.00935916
               8.83956198               -0.08240727               94.09748524                0.51703481               -0.01856869               -0.01874378                0.05947524               -0.02151311               -0.06618994               -0.00282314
               9.83939594               -0.08405335               94.09939936                0.80424520               -0.01660468               -0.04783472                0.14015886               -0.02579731               -0.08554682               -0.02729198
              -0.15515928                0.93548981               94.07668332                0.41060969               -0.03339976               -0.01154894                0.10734220                0.01050883                0.00544407               -0.01647939
               0.84450673                0.93120797               94.07959253                0.01000003               -0.05602059               -0.05478698                0.10564303                0.02325115                0.02446816                0.02094665
               1.84372031                0.92725830               94.08285587                0.11517857               -0.05596766               -0.05161238                0.10283108                0.05619129                0.18134039                0.12348703
               2.84338737                0.92453549               94.08841153                0.97357932               -0.03964826               -0.03116633                0.12301847                0.07128769                0.18739698                0.06452756
               3.84292735                0.92213153               94.09193452                0.06485475               -0.07817975               -0.04910136                0.08434962                0.17135618                0.08727407               -0.00071936
               4.84182378                0.92199358               94.09484533                0.01701033               -0.06872808               -0.05132635                0.08188986                0.20791455                0.04640162                0.02248200
               5.84155279                0.92146031               94.09724926                0.82823097               -0.02211307               -0.01547995                0.08284156                0.03692650                0.00267358                0.04056626
               6.84138152                0.92042071               94.09942329                1.00000000               -0.01859745               -0.02283760                0.07284880                0.01276735               -0.02432872                0.01759842
               7.84118084                0.91904065               94.10138663                0.99368851               -0.02155695               -0.01851405                0.06311792               -0.00724789               -0.04097033                0.01286610
               8.84095038                0.91740529               94.10330127                0.62010467               -0.01983991               -0.01912668                0.07003082               -0.03437102               -0.03694238                0.00124716
               9.84078404                0.91546830               94.10530929                0.98971168               -0.01663394               -0.07000874                0.11525060               -0.04844826               -0.04157651               -0.03202822
              -0.15062096                1.93556482               94.07893769                0.34416382               -0.03768940                0.01858485                0.10762802               -0.01069300                0.00991122               -0.00975691
               0.84900214                1.93044100               94.08234107                0.12129182               -0.05679489               -0.05511969                0.10287975                0.05816147                0.12520221                0.17119058
               1.84824314                1.92660782               94.08834365                0.73983510               -0.08096069               -0.07453190                0.18518787                0.21286384                0.13140299                0.13912205
               2.84738293                1.92416037               94.09276066                0.21036325               -0.05885792               -0.06419294                0.06543936                0.25079379                0.01958134                0.04130377
               3.84706598                1.92168072               94.09633672                0.01000000               -0.06612873               -0.05951924                0.07796299                0.30764034                0.03600093                0.01430309
               4.84606036                1.92106213               94.09983295                0.01000000               -0.20379158               -0.06407831                0.11115592                0.41656325                0.02491588                0.11494359
               5.84299015                1.92131519               94.10288734                0.01000001               -0.16254382               -0.05749330                0.02876248                0.34487485                0.05847481                0.05238851
               6.84280948                1.92011890               94.10488675                0.01000000               -0.01761880               -0.08552741                0.08901182                0.20484667                0.00196448                0.09875662
               7.84263777                1.91878342               94.10705205                0.42657144               -0.01812865                0.01359641                0.10076890                0.05524377                0.00830389                0.14214519
               8.84244691                1.91721019               94.10930175                1.00000000               -0.01684166               -0.01050973                0.08704180                0.01314220                0.00045229                0.02606061
               9.84230094                1.91454647               94.11155218                0.99999999               -0.01459652               -0.08612567                0.08234792               -0.04545949               -0.00315769               -0.00337066
              -0.14512548                2.93586151               94.08227820                0.67474171               -0.02475585                0.02564749                0.07597359                0.00760851                0.06364896                0.08097273
               0.85462696                2.93010558               94.08735932                0.98298740               -0.03081520               -0.03950413                0.11986661                0.07165934                0.06333434                0.18185864
               1.85425821                2.92576766               94.09226734                0.20539535               -0.06483015               -0.05743516                0.06547649                0.24893151                0.03716802                0.02674546
               2.85333035                2.92325163               94.09636333                0.01000000               -0.10399062               -0.09798715                0.10226769                0.35559957                0.01804801                0.01112400
               3.85217840                2.92094115               94.10027740                0.01000000               -0.14048913               -0.05775495                0.06833042                0.44272977                0.05306847                0.02391033
               4.85052057                2.92071202               94.10476783                0.01000000               -0.13924438               -0.07234243                0.08769631                0.52387304                0.09715392                0.08310247
               5.84939351                2.92031045               94.10865778                0.01000001               -0.12551776               -0.11976766                0.13008777                0.52932909                0.01892744                0.07647143
               6.84801022                2.91871016               94.11173766                0.01000001               -0.20995464               -0.08351903                0.13434153                0.48933466               -0.09234998                0.22024611
               7.84519442                2.91931257               94.11507739                0.01000001               -0.12800240               -0.05359631                0.09137015                0.38855577               -0.15142289                0.19341020
               8.84545017                2.91719509               94.11574645                0.99923571                0.00039318                0.00339512                0.08519043                0.07586965               -0.08297370                0.03390314
               9.84520228                2.91374579               94.11796246                1.00000000               -0.02478858               -0.09024729                0.10299882                0.00291268                0.00464557                0.04363537
              -0.13895694                3.93607777               94.08574820                0.98600794               -0.05138864                0.01537425                0.08193610                0.04073752                0.00460085                0.04384029
               0.86052918                3.92965091               94.09048358                0.06859660               -0.04836714               -0.07193178                0.08451842                0.16011297               -0.00188684                0.08776416
               1.86007572                3.92545912               94.09541339                0.01000000               -0.06038707               -0.05856387                0.07382371                0.29008022                0.01934648                0.03052536
               2.85932144                3.92220063               94.09981972                0.01000000               -0.08077661               -0.11678198                0.06671053                0.43290137                0.03965046                0.03769784
               3.85846019                3.92052562               94.10484615                0.01000000               -0.10764597               -0.07712611                0.05333127                0.54656220                0.08084902                0.05891852
               4.85716852                3.91961528               94.10977723                0.01000338               -0.14408005               -0.12030812                0.14890125                0.60595585                0.07937700                0.08424503
               5.85557859                3.91891983               94.11417569                0.01000000               -0.17872362               -0.12420081                0.15245860                0.60131776                0.01623805                0.09600560
               6.85359404                3.91844852               94.11771618                0.01000003               -0.18273142               -0.05635934                0.13344219                0.56920995               -0.02886564                0.11431404
               7.85192396                3.91771150               94.12038445                0.01000000               -0.20314794               -0.09663775                0.11555832                0.58667240               -0.05928139                0.03882438
               8.84953109                3.91727809               94.12219449                0.88617667               -0.13330781                0.01509951                0.08536192                0.23718312               -0.01644600                0.01524243
               9.84925780                3.91274153               94.12460521                1.00000000               -0.02732824               -0.14264155                0.15161128                0.04041154                0.00952459                0.08092823
              -0.13145702                4.93616899               94.08806733                1.00000000               -0.00951117               -0.02293127                0.07725343                0.00631298               -0.01029970               -0.03582575
               0.86844787                4.92866694               94.09307747                0.01000001               -0.05164416               -0.06248031                0.07777271                0.19574856                0.02196645                0.04474659
               1.86751010                4.92459638               94.09856923                0.01000000               -0.07629941               -0.18427009                0.12268944                0.40403348                0.12259231                0.01171531
               2.86692188                4.92091599               94.10393633                0.01000000               -0.09075525               -0.11332918                0.09700775                0.51110132                0.09582682                0.08146560
               3.86569500                4.91939862               94.10938061                0.01001836               -0.13382058               -0.12876489                0.15037188                0.60385048                0.09288686                0.06493627
               4.86424547                4.91830586               94.11461775                0.01000000               -0.15541830               -0.14212994                0.16324660                0.66019687                0.06318288                0.05510907
               5.86258663                4.91782643               94.11929736                0.01001794               -0.18213583               -0.12153230                0.17240343                0.70927859                0.02452224                0.05098401
               6.86060276                4.91758298               94.12333149                0.01001932               -0.22441686               -0.08522154                0.16174315                0.72863558               -0.02146747                0.03887440
               7.85809829                4.91737982               94.12647504                0.01000001               -0.27194787               -0.02972363                0.11613155                0.71345959               -0.08744602                0.01008611
               8.85516380                4.91749708               94.12834860                0.42895030               -0.15073236                0.01683159                0.07420125                0.40325007               -0.05455657               -0.04826909
               9.85508364                4.91089296               94.13141439                1.00000000               -0.00801531               -0.26997169                0.17412328                0.10970328               -0.00984365                0.16262044
              -0.12382658                5.93561915               94.08963662                1.00000000               -0.01566626               -0.05538382                0.07457248                0.01121850                0.01032161               -0.07495211
               0.87601676                5.92840131               94.09515781                0.80470799               -0.01330377               -0.02130443                0.08227517                0.03759638                0.04388225                0.00084003
               1.87590735                5.92177372               94.10132820                0.01000001               -0.06377681               -0.14873651                0.02691398                0.33936971                0.04890052                0.05142475
               2.87474122                5.91993405               94.10743824                0.01000001               -0.13800062               -0.11146561                0.14231182                0.52650618                0.08473958                0.00216059
               3.87314733                5.91795032               94.11334246                0.01000000               -0.13982867               -0.16525980                0.15326934                0.60115201                0.10178645                0.00554539
               4.87194465                5.91677268               94.11888637                0.01000129               -0.13301466               -0.16987454                0.17262556                0.71011837                0.05762238                0.01346526
               5.87048704                5.91648919               94.12398476                0.01000001               -0.16656410               -0.15469748                0.18668654                0.81713744                0.00996397                0.00136266
               6.86861337                5.91674409               94.12856781                0.01000001               -0.21039980               -0.10171400                0.18013013                0.88390939               -0.04423809               -0.01757596
               7.86627904                5.91711702               94.13220064                0.01000001               -0.22652086               -0.06041057                0.14627341                0.96011428               -0.14731886               -0.01942950
               8.86408295                5.91761473               94.13435593                0.01000001               -0.08094621               -0.06938782                0.00535946                0.51495958               -0.18468554               -0.03750932
               9.86466012                5.90734210               94.13822186                1.00000000                0.05771704               -0.24056009                0.12194943               -0.00972163               -0.14062828                0.29610535
              -0.11679697                6.93506132               94.09115699                1.00000000               -0.01578012               -0.04675922                0.06447066                0.00080354                0.00971718               -0.08033050
               0.88304523                6.92824086               94.09699445                0.99276786               -0.02191380               -0.01714642                0.07250193                0.01252096                0.01799950               -0.02631139
               1.88276476                6.92162165               94.10294140                0.01000000               -0.08849129               -0.01462865                0.08086873                0.19829691                0.09258665               -0.01131957
               2.88127540                6.91868668               94.11016644                0.01000001               -0.09426766               -0.19827525                0.13723229                0.48231817                0.21496864               -0.10040092
               3.88087940                6.91609343               94.11649999                0.01000003               -0.06832170               -0.17224591                0.13495623                0.56861243                0.11287804               -0.04115276
               4.87990897                6.91490836               94.12249803                0.01000000               -0.09607151               -0.21282859                0.16264820                0.72928522                0.04288897               -0.03625740
               5.87895797                6.91473248               94.12815021                0.01000001               -0.11279306               -0.20051877                0.18093665                0.88545740               -0.00840160               -0.05847277
               6.87765311                6.91554870               94.13328372                0.01000001               -0.12640161               -0.11682600                0.18649728                0.96787671               -0.03225769               -0.04740496
               7.87642994                6.91617161               94.13834363                0.01000001               -0.12075960               -0.12102096                0.15802074                0.96502530               -0.09840179               -0.03242642
               8.87523792                6.91610933               94.14116299                0.01000001               -0.04977328               -0.15852256                0.26012994                0.51821750                0.02364925               -0.19759102
               9.87543447                6.90608176               94.14617995                0.90446132                0.01965568               -0.02193806                0.39056682               -0.00300310                0.06942677                0.09903292
              -0.11016959                7.93468396               94.09254640                0.89555094               -0.01235727               -0.02939281                0.05202512               -0.00765826                0.00965471               -0.07512129
               0.88970684                7.92805838               94.09862677                0.97930803               -0.02014757               -0.02044975                0.06309150               -0.00679638                0.01206950               -0.04255566
               1.88942746                7.92148114               94.10469536                0.26355469                0.01044851               -0.01525490                0.09578879                0.05281924                0.14064128               -0.00468019
               2.88991581                7.91596854               94.11313700                0.01000000               -0.05647837               -0.12199615                0.09963591                0.38257728                0.19299121               -0.16916406
               3.88829789                7.91450540               94.11875572                0.01000000               -0.10122549               -0.19434086                0.11659276                0.58189249                0.03456913               -0.07367850
               4.88789130                7.91251611               94.12520710                0.01000001               -0.03710187               -0.26089548                0.11747047                0.71136747                0.01136611               -0.10506317
               5.88755586                7.91247881               94.13132988                0.01000001               -0.06797639               -0.22027613                0.14918867                0.95935480               -0.01304807               -0.16669290
               6.88653177                7.91440757               94.13792896                0.01000001               -0.12684691               -0.11663157                0.16037387                0.96575055               -0.02099316               -0.11775509
               7.88501892                7.91469660               94.14358516                0.01000825               -0.09973106               -0.09726036                0.18843383                0.83258102               -0.10804442               -0.11911405
               8.88453715                7.91444427               94.14800887                0.79546719               -0.01818597               -0.16681994                0.06011728                0.42037744               -0.05798001               -0.15176394
               9.88465520                7.90690333               94.15389911                1.00000000                0.01180476                0.09070875                0.05821417                0.01429293               -0.02475099                0.15073376
              -0.10369897                8.93447346               94.09398782                0.51460532               -0.01889101               -0.01945870                0.05993700               -0.02200048               -0.00148896               -0.06217967
               0.89611212                8.92783186               94.10021265                0.64932393               -0.01950273               -0.02060621                0.07037223               -0.03309456                0.00142998               -0.03873109
               1.89591098                8.92131656               94.10658131                1.00000000               -0.01047147               -0.01621266                0.08920314                0.01677893                0.02420455               -0.00576827
               2.89590269                8.91624675               94.11335966                0.99890097                0.00293538                0.00007722                0.08984494                0.07555412                0.03311378               -0.09338214
               3.89596968                8.91220661               94.12018230                0.91535420                0.01301076               -0.12833016                0.08646010                0.23295538                0.01442652               -0.02499168
               4.89616291                8.90969046               94.12667572                0.44366127                0.01419623               -0.14487210                0.07154965                0.39726162               -0.04762430               -0.06303420
               5.89625361                8.91032696               94.13304690                0.01000000               -0.07062890               -0.07827234               -0.00200548                0.51085492               -0.02975033               -0.19263503
               6.89475033                8.91321606               94.14034703                0.01006160               -0.16043784               -0.04985357                0.26636217                0.51812634               -0.19696792                0.02221393
               7.89304485                8.91422640               94.14763597                0.82769387               -0.16557970               -0.01811041                0.05967325                0.42141488               -0.14129219               -0.06753022
               8.89143874                8.91277293               94.15464969                1.00000000               -0.11213192               -0.11474300                0.08768096                0.20001430               -0.05804072               -0.06636772
               9.89080221                8.90789593               94.16155627                1.00000000               -0.06365213                0.05263342                0.09648639                0.02655977               -0.04624372                0.04144521
              -0.09732640                9.93429479               94.09559935                0.80567389               -0.04717486               -0.01786708                0.14204065               -0.02759627               -0.02230877               -0.08139182
               0.90220185                9.92764626               94.10191144                0.99238850               -0.06627281               -0.01856045                0.11266180               -0.04792174               -0.02485081               -0.04328733
               1.90134815                9.92115689               94.10857851                0.99999999               -0.08325084               -0.01596649                0.08418497               -0.04009155                0.00245863               -0.00284449
               2.90053684                9.91597009               94.11535833                1.00000000               -0.09174225               -0.02766673                0.10535967                0.00250986                0.04507771                0.00599747
               3.89951330                9.91193880               94.12236596                0.99999996               -0.14103256               -0.02678129                0.15247541                0.03679064                0.07943990                0.01033689
               4.89771619                9.90961867               94.12950081                1.00000000               -0.26329775               -0.00717878                0.16991703                0.10405626                0.16352508               -0.00796650
               5.89424735                9.91091337               94.13680389                1.00000000               -0.23606648                0.05864084                0.10939161               -0.01103489                0.30380995               -0.12882169
               6.89299486                9.91341050               94.14526871                0.92388627               -0.01784969                0.01944321                0.38805573               -0.00449586                0.10334070                0.07818876
               7.89389035                9.91433440               94.15338734                1.00000000                0.09365257                0.01079942                0.05085963                0.02149590                0.14708692               -0.02149567
               8.89486791                9.91214941               94.16129404                1.00000000                0.05250182               -0.06235133                0.09383055                0.02399757                0.03102043               -0.04747180
               9.89494039                9.90795600               94.16870243                1.00000000                0.00724810                0.00600714                0.13108208               -0.00552378                0.00057632                0.00822319
              -0.16220152               -0.06668932               95.07521653                0.79773242               -0.02988031               -0.03022336                0.09061603                0.00259218                0.00516906               -0.00029859
               0.83749967               -0.07088302               95.07813949                0.38914685               -0.03075932               -0.03317830                0.10737431               -0.00908425                0.01236586                0.00817591
               1.83718329               -0.07523879               95.08119975                0.24233747                0.03018370               -0.05189133                0.14799500               -0.01842357                0.01008830                0.01603884
               2.83810335               -0.07947704               95.08472784                0.49259788                0.06194756               -0.02635312                0.12258615               -0.07570118                0.08232018                0.04527818
               3.83842224               -0.08131794               95.08846656                0.99387496                0.01371089               -0.04896477                0.06845349                0.02609409                0.02258498                0.02970784
               4.83837757               -0.08239762               95.09097769                0.99999999               -0.02351541               -0.00636250                0.06622829                0.02458744               -0.08068379                0.02866570
               5.83795193               -0.08335108               95.09294370                0.99999999               -0.04313068               -0.01329860                0.06858864                0.01388258               -0.10199214                0.01538843
               6.83751495               -0.08475808               95.09465141                0.91518371               -0.03444721               -0.00950699                0.05615989               -0.00367071               -0.10052652                0.00855502
               7.83726299               -0.08644019               95.09622157                0.48328548               -0.02452639               -0.01082329                0.04954534               -0.02724030               -0.07839548                0.00848159
               8.83702442               -0.08834345               95.09812652                0.62111162               -0.04829267               -0.02595552                0.11729034               -0.04323872               -0.03764071               -0.01092729
               9.83629714               -0.09039085               95.10166896                0.99999999               -0.07272880               -0.07017088                0.17582792               -0.01233193                0.03793345               -0.10846426
              -0.15798190                0.93300845               95.07776388                0.39296523               -0.03345341               -0.03260996                0.10854651               -0.01025472                0.00667948               -0.00319572
               0.84168357                0.92878520               95.08070963                0.01000001               -0.03610200               -0.03522364                0.12111885               -0.03710964                0.02780487                0.02148673
               1.84129606                0.92424229               95.08410985                0.01000003               -0.06488283               -0.08607565                0.14208715               -0.07540771                0.15365592                0.11415115
               2.84038591                0.92025943               95.08903500                0.74994951               -0.05762948               -0.03245543                0.05281320               -0.02126487                0.11276454                0.00174386
               3.84014347                0.91819241               95.09257825                0.75227070               -0.03729517               -0.04474372                0.06705518                0.10262495                0.04158474                0.04277947
               4.83964001                0.91753876               95.09565226                0.82781763               -0.04362422                0.01183524                0.07290937                0.07766831                0.03294834                0.06122563
               5.83927099                0.91651593               95.09809135                0.93371557               -0.03086041               -0.01349427                0.07738777                0.02936774               -0.01793340                0.03399759
               6.83902280                0.91514685               95.10011586                1.00000000               -0.02438565               -0.00978089                0.06558077                0.00609056               -0.04995463                0.02682822
               7.83878328                0.91345158               95.10194714                0.86310639               -0.02277173               -0.00965894                0.05825890               -0.02856545               -0.04980182                0.02653011
               8.83856737                0.91139699               95.10401726                0.55216379               -0.02810319               -0.02576419                0.08915969               -0.07165543               -0.00685055               -0.00594904
               9.83822121                0.90890744               95.10694876                0.99982082               -0.03461538               -0.07127828                0.17098149               -0.06568283                0.02176778               -0.09887416
              -0.15396011                1.93265848               95.08024010                0.24162275               -0.05162539                0.02335315                0.15340431               -0.01995937                0.01605414               -0.01546207
               0.84552363                1.92841251               95.08358591                0.01000002               -0.09194945               -0.06358831                0.14158694               -0.07319126                0.11816443                0.13926253
               1.84420090                1.92303970               95.08918237                0.78366259               -0.08978492               -0.08412327                0.05764583               -0.02037739                0.07146704                0.06761994
               2.84372794                1.91987385               95.09307406                0.65013433               -0.05027424               -0.04518174                0.03012720                0.15953871                0.00558705               -0.02134734
               3.84319542                1.91778718               95.09671589                0.02315031               -0.10602648               -0.05744828                0.06390472                0.28861232                0.01110487                0.04037154
               4.84160741                1.91783909               95.10108754                0.01005736               -0.11321118               -0.04643052                0.07707656                0.31016394               -0.02004544                0.08859910
               5.84093119                1.91637903               95.10356975                0.01000001               -0.04531430               -0.06849370                0.06623317                0.18837290                0.02177251                0.10040081
               6.84070112                1.91504631               95.10590840                0.87348347               -0.02448238                0.01961820                0.09482529                0.03311637                0.00758338                0.13261023
               7.84044154                1.91336663               95.10816388                0.99999999               -0.02828361               -0.00179126                0.09529067               -0.00302168               -0.01006725                0.09612496
               8.84013545                1.91114126               95.11019600                0.96972430               -0.02394836               -0.02100757                0.06967191               -0.03946182               -0.02120158                0.01094997
               9.83996258                1.90818359               95.11224614                1.00000000               -0.01728720               -0.06187831                0.05154143               -0.06160935               -0.01779941               -0.04248776
              -0.14988913                2.93347551               95.08315060                0.49821421               -0.02723384                0.05366319                0.12695473               -0.07204542                0.05020310                0.06747880
               0.84983853                2.92751343               95.08799225                0.75355356               -0.03418519               -0.05702215                0.05372257               -0.02042098                0.00580788                0.10686221
               1.84942717                2.92255983               95.09257246                0.63777142               -0.05046661               -0.04832811                0.03016177                0.16302746               -0.02296068                0.00441329
               2.84882920                2.91935580               95.09704768                0.17548690               -0.07383398               -0.06929167                0.05497588                0.28159952               -0.02882295               -0.02246326
               3.84795049                2.91704344               95.10090180                0.01000148               -0.07888820               -0.08494944                0.06186285                0.39915625                0.00898409                0.01406537
               4.84725144                2.91661015               95.10547532                0.01000001               -0.10596296               -0.11964422                0.10723195                0.47897648                0.06908656                0.08151863
               5.84583123                2.91514606               95.11008813                0.01000000               -0.22769517               -0.08757028                0.17836201                0.47605022               -0.02640554                0.20062183
               6.84269753                2.91553922               95.11330904                0.01000000               -0.16016705               -0.06470880                0.08708277                0.39176191               -0.10848965                0.19641439
               7.84262789                2.91341575               95.11525441                0.01013226                0.01318207               -0.05977782                0.01500157                0.18662571               -0.06484589                0.07111217
               8.84296117                2.91097684               95.11661726                0.95087722                0.01382458               -0.00598376                0.07726178                0.05537477               -0.06467746                0.01480379
               9.84290438                2.90766988               95.11885489                0.99999998               -0.00567953               -0.06785851                0.08477000                0.00484108               -0.01458484                0.06206689
              -0.14347685                3.93373175               95.08651899                1.00000000               -0.04922474                0.00914464                0.07435603                0.02768393                0.02984686                0.02264641
               0.85603090                3.92727206               95.09113522                0.74356740               -0.04520319               -0.03670692                0.06947125                0.10075245                0.04208638                0.04384268
               1.85561908                3.92207313               95.09578451                0.01902253               -0.05772922               -0.09689826                0.06330071                0.27877723                0.03719891                0.01833727
               2.85487631                3.91848802               95.10041504                0.01000003               -0.08474456               -0.07152600                0.06124342                0.38724900                0.01006077                0.02487395
               3.85392419                3.91608819               95.10491050                0.01010415               -0.08959966               -0.07300868                0.04911549                0.50897309                0.09761000                0.08205535
               4.85308432                3.91544620               95.11143326                0.01010888               -0.12005326               -0.12124946                0.17430455                0.55476729                0.11333919                0.12625528
               5.85152312                3.91462763               95.11573435                0.01000001               -0.14088259               -0.08735032                0.15665629                0.54342824               -0.00465366                0.12080931
               6.85026667                3.91375213               95.11915915                0.01000001               -0.13933439               -0.15345990                0.16771340                0.57211425               -0.03617875                0.08718435
               7.84873644                3.91217107               95.12180573                0.01000002               -0.16389250               -0.09705840                0.15172328                0.45215134               -0.12641214                0.05280791
               8.84698882                3.91102159               95.12307391                0.95617637               -0.10315557               -0.00805105                0.10149446                0.16234879               -0.06038211                0.00051102
               9.84667333                3.90682642               95.12595868                0.99999998               -0.03154929               -0.07018456                0.12242920               -0.00582860                0.01585691                0.09725376
              -0.13641608                4.93365840               95.08873373                0.99999999               -0.00717221               -0.02545284                0.06806577                0.02293070                0.02771097               -0.07601864
               0.86351219                4.92677929               95.09386636                0.80369762                0.01014179               -0.04205398                0.07364239                0.07651231                0.06196874                0.03230961
               1.86378675                4.92062186               95.09979542                0.01000001               -0.04765377               -0.10396735                0.07556675                0.29988700                0.09878613               -0.01333642
               2.86255912                4.91792528               95.10481461                0.01000001               -0.13074931               -0.09118749                0.11779115                0.46247110                0.08971351                0.07225107
               3.86117177                4.91558327               95.11103093                0.01012042               -0.13758867               -0.09457649                0.17231957                0.54302337                0.12445448                0.10532134
               4.85980735                4.91418516               95.11629809                0.01000000               -0.13889509               -0.12819654                0.17948130                0.59560754                0.06115181                0.05366289
               5.85839386                4.91339905               95.12112213                0.01000001               -0.16054870               -0.13159539                0.20145100                0.62196753                0.01114789                0.06492633
               6.85659637                4.91247002               95.12509580                0.01000001               -0.19962039               -0.11023362                0.19002511                0.58874973               -0.07306047                0.05155996
               7.85440146                4.91147458               95.12786697                0.01000001               -0.25217825               -0.06038519                0.16488887                0.55533688               -0.16324700                0.02018245
               8.85155281                4.91081582               95.12946628                0.34454549               -0.16116537                0.00486564                0.12988936                0.28649454               -0.10702106               -0.09321316
               9.85117815                4.90626619               95.13284348                1.00000000               -0.03746574               -0.08376284                0.12506923                0.08324947               -0.03232565                0.16251903
              -0.12926001                5.93322269               95.09039404                0.99999999               -0.01423018               -0.04360139                0.06891902                0.01280809                0.01426308               -0.09898666
               0.87059768                5.92643098               95.09598144                0.91105181               -0.01345754               -0.02877125                0.07712770                0.02882650                0.03416519               -0.01751885
               1.87047083                5.91999379               95.10193731                0.01007362               -0.07166768               -0.04167349                0.06087326                0.18093497                0.09716381                0.01330253
               2.86916433                5.91666427               95.10888708                0.01000000               -0.09730293               -0.21160345                0.17785081                0.46673252                0.20070237               -0.03476272
               3.86852478                5.91419666               95.11493831                0.01000001               -0.09918216               -0.12732898                0.15921227                0.54360621                0.12599192               -0.01315541
               4.86718069                5.91288227               95.12071096                0.01000001               -0.14235818               -0.14981841                0.20152052                0.62208001                0.07138792                0.00154444
               5.86567761                5.91199572               95.12597117                0.01000001               -0.16072768               -0.15129074                0.21855770                0.68670739                0.00209216               -0.00778185
               6.86396613                5.91154746               95.13039665                0.01000002               -0.20901182               -0.11080161                0.21370187                0.72548699               -0.07302623               -0.01581161
               7.86149738                5.91096337               95.13404922                0.01000001               -0.30195135               -0.05330364                0.20255358                0.82504210               -0.27187461               -0.04144022
               8.85792711                5.91111890               95.13457241                0.01399436               -0.20298970               -0.25094240                0.18006802                0.79032367               -0.25743600                0.14242257
               9.85743758                5.90515116               95.13983922                0.95581184               -0.04895242               -0.33789110                0.17166306                0.44768770               -0.07367131                0.64457230
              -0.12257651                6.93278638               95.09177774                0.90750510               -0.01058632               -0.03470813                0.05650011               -0.00430518                0.00915541               -0.09736937
               0.87731763                6.92620387               95.09768333                1.00000000               -0.01256641               -0.02275253                0.06469669                0.00601699                0.02423300               -0.04954641
               1.87717216                6.91978839               95.10384093                0.74435301                0.01866316               -0.02278126                0.09112654                0.03261393                0.13364186               -0.00059799
               2.87769089                6.91369321               95.11176617                0.01000000               -0.06731373               -0.15373130                0.09276606                0.39194437                0.20483646               -0.10886417
               3.87582589                6.91303669               95.11795934                0.01000001               -0.16205018               -0.12937138                0.16865173                0.56822350                0.08810696               -0.04858678
               4.87444989                6.91118879               95.12427309                0.01000001               -0.11815316               -0.19026000                0.19144567                0.58950832                0.05617866               -0.08565142
               5.87346283                6.91037324               95.12998270                0.01005085               -0.11557130               -0.20012153                0.21293947                0.72071570               -0.00586672               -0.08460008
               6.87213846                6.91025399               95.13524806                0.01000001               -0.10659846               -0.10142214                0.21341241                0.82566540               -0.08867229               -0.10405423
               7.87133086                6.91040851               95.13943802                0.01011794                0.05165142               -0.09772307                0.16112969                0.65203038               -0.04798723               -0.05214022
               8.87317149                6.90579697               95.14588019                0.05340362                0.03682645               -0.28069650                0.31192430                0.51467704                0.19938325               -0.09902345
               9.87206739                6.89950836               95.15414553                0.68574158               -0.11041050               -0.19781842                0.38782264                0.42643944                0.29359692                0.12827765
              -0.11618110                7.93252853               95.09303285                0.47321178               -0.01028974               -0.02564704                0.04969259               -0.02769300                0.01111035               -0.07389129
               0.88371601                7.92597593               95.09919347                0.86519295               -0.00925660               -0.02303381                0.05767644               -0.02889219                0.02736619               -0.05102238
               1.88363377                7.91953816               95.10578405                0.99997704                0.00194584               -0.02799557                0.09567890               -0.00282009                0.10503447               -0.01308394
               2.88375492                7.91358965               95.11343330                0.01000005               -0.06200535                0.01371345                0.01721558                0.18581440                0.07344722               -0.07615864
               3.88239366                7.91160924               95.12018321                0.01000002               -0.10603088               -0.15730324                0.15496031                0.45075170                0.04530341               -0.13873806
               4.88163431                7.90907707               95.12661507                0.01000000               -0.06834680               -0.24380906                0.16686343                0.55361273                0.02508184               -0.18188187
               5.88102673                7.90799329               95.13323994                0.01000001               -0.05950674               -0.29366957                0.20295644                0.82287900               -0.03391327               -0.29581774
               6.88044417                7.90951902               95.13902850                0.01000001               -0.10158633                0.06409956                0.16235198                0.63887700               -0.04314198               -0.06083013
               7.87899500                7.90900891               95.14530736                0.01000001               -0.06616880               -0.07148827                0.14718000                0.42640335               -0.15390475               -0.16442836
               8.87912079                7.90550497               95.14868555                0.59558370               -0.02257075               -0.03287426                0.16659759                0.12727482               -0.14544967               -0.30694671
               9.87854359                7.90119479               95.15521188                0.99999998               -0.05772073                0.06732039                0.21497125                0.12292689               -0.02643251               -0.23131241
              -0.11002518                8.93227344               95.09463721                0.61966967               -0.02446698               -0.04920941                0.11874447               -0.04389489               -0.00802459               -0.03380609
               0.88973015                8.92574319               95.10093194                0.57330999               -0.02363861               -0.02992484                0.08828609               -0.07198319               -0.00226662               -0.01214623
               1.88950205                8.91922848               95.10752836                0.98723135               -0.01970236               -0.02342270                0.07196841               -0.03841617                0.01317077               -0.02449487
               2.88933610                8.91396748               95.11430639                0.97004569               -0.00742768                0.01613229                0.08121710                0.05113059                0.01065374               -0.07747735
               3.88935350                8.90989062               95.12105770                0.97579675               -0.00990081               -0.10111386                0.10024036                0.16141873               -0.00563340               -0.06803641
               4.88913809                8.90631261               95.12774256                0.33120743                0.00624833               -0.15647514                0.12761511                0.28536042               -0.09993371               -0.11928362
               5.88947846                8.90449985               95.13311149                0.01000001               -0.26188522               -0.19633412                0.18782495                0.79070565                0.15888079               -0.27378378
               6.88390038                8.91153598               95.14516916                0.06139489               -0.28027468                0.04114707                0.31307171                0.50501242               -0.08072254                0.19769061
               7.88387297                8.90897874               95.14828274                0.60573669               -0.01846395               -0.02828404                0.16433738                0.12064246               -0.29941023               -0.15290747
               8.88353111                8.90513949               95.15546887                0.99999998               -0.03633430               -0.03651051                0.11286513                0.01172720               -0.04411527               -0.04967358
               9.88314628                8.90085477               95.16262031                1.00000000               -0.03848219               -0.02601084                0.10182028                0.01020941               -0.03172055                0.02011810
              -0.10399850                9.93154434               95.09788383                0.99999999               -0.06802026               -0.07290965                0.17523163               -0.01402279               -0.10984836                0.04290334
               0.89532129                9.92537744               95.10348178                0.99999999               -0.06801684               -0.03657540                0.16656951               -0.06461735               -0.09158443                0.01472332
               1.89464116                9.91906971               95.10927678                1.00000000               -0.06029511               -0.01587763                0.05100509               -0.05934615               -0.03416985               -0.02044326
               2.89411539                9.91391229               95.11626413                0.99999998               -0.06821266               -0.00551862                0.08428724                0.00379135                0.06449878               -0.01604356
               3.89327691                9.90958696               95.12371391                0.99999998               -0.06915505               -0.03036665                0.11988424               -0.00589495                0.09733257                0.01626645
               4.89273229                9.90594757               95.13088536                1.00000000               -0.08297184               -0.03650393                0.12271529                0.08340274                0.16060082               -0.03379147
               5.89161747                9.90406661               95.13822565                0.96143104               -0.33333852               -0.04332393                0.17014450                0.43362015                0.66340168               -0.06906075
               6.88606552                9.91034196               95.15319021                0.70041853               -0.19065627               -0.11940227                0.37713364                0.43534466                0.14262038                0.29290574
               7.88780435                9.90844323               95.15456429                0.99999998                0.07068953               -0.05355169                0.20224452                0.11477773               -0.23598258               -0.02539091
               8.88747931                9.90477476               95.16228695                1.00000000               -0.02435704               -0.03647256                0.09669273                0.00638795                0.01740077               -0.03439163
               9.88731720                9.90067457               95.16965806                0.87573972               -0.01621073               -0.01801974                0.05613779                0.00707346               -0.00449017               -0.00221451
              -0.16513737               -0.06930487               96.07605281                0.75548519               -0.02929289               -0.02928069                0.08068538                0.00850226                0.00927293                0.00449075
               0.83456970               -0.07344002               96.07923034                0.41615963               -0.04011896               -0.03686892                0.11285343               -0.01300875                0.03525587                0.00741487
               1.83406025               -0.07785935               96.08293269                0.21439516                0.03201512               -0.05819516                0.16843115               -0.03347086                0.04112428                0.01387701
               2.83521001               -0.08292506               96.08633360                0.46280621                0.06192732               -0.08507982                0.14520527               -0.15893028               -0.03531617                0.02642982
               3.83529880               -0.08496648               96.08911446                0.93980099               -0.00349871               -0.02957298                0.06115463               -0.00380762               -0.07771947                0.05689141
               4.83514003               -0.08668717               96.09164071                0.99999327               -0.01668065               -0.02045755                0.05798322                0.01314747               -0.11296045                0.03277131
               5.83496519               -0.08836275               96.09356822                0.91661394               -0.01469832               -0.01230357                0.05199049                0.00178463               -0.12850127                0.01844123
               6.83484607               -0.09018215               96.09516177                0.47332162               -0.01204504               -0.01175640                0.05340215               -0.02019686               -0.11883342                0.01439189
               7.83472429               -0.09212782               96.09672873                0.41026897               -0.07421455               -0.02432441                0.11487128               -0.05534526               -0.10165182                0.00693511
               8.83336177               -0.09440729               96.09983105                0.85154078               -0.08272786               -0.03758844                0.12061731                0.01227710               -0.03730950               -0.07801390
               9.83306973               -0.09678223               96.10291592                1.00000000               -0.02920457               -0.03041286                0.08662715               -0.00882773               -0.01062924               -0.04325093
              -0.16091720                0.93040232               96.07885425                0.41062748               -0.03659493               -0.04131353                0.11190031               -0.01380979                0.00714945                0.02195074
               0.83871685                0.92619129               96.08201491                0.01000000               -0.03073696               -0.03081731                0.14104649               -0.04950815                0.03044131                0.02287149
               1.83846806                0.92155870               96.08569762                0.01000000               -0.07712939               -0.13215205                0.17361394               -0.19215342                0.06142061                0.06343235
               2.83717427                0.91622414               96.08946779                0.01000000               -0.06631426               -0.06770968                0.08708579               -0.10348755                0.09057743                0.05406885
               3.83714178                0.91473779               96.09327562                0.81150341               -0.01023119               -0.04344635                0.07763330                0.04299578                0.04340774                0.07644901
               4.83696964                0.91310825               96.09630351                0.95839225               -0.02056291               -0.01508884                0.06757233                0.02209879               -0.00525435                0.04699242
               5.83673052                0.91151421               96.09879701                0.96504116               -0.02215063               -0.01554119                0.06104349                0.01157943               -0.04465013                0.02874351
               6.83652663                0.90970029               96.10073490                0.93443165               -0.02235593               -0.01199609                0.05418108               -0.01821625               -0.07171200                0.02778118
               7.83628340                0.90762894               96.10255181                0.20762590               -0.03574393               -0.02367666                0.08064715               -0.05294604               -0.04438487                0.02117051
               8.83581175                0.90521683               96.10508446                0.38752067               -0.04635051               -0.03817625                0.14159756               -0.00682286                0.00936942               -0.06248628
               9.83535639                0.90291364               96.10872892                0.99999999               -0.04553591               -0.07135894                0.13195902                0.00842915                0.06375947               -0.11620020
              -0.15699150                1.92986886               96.08200577                0.20697906               -0.05853364                0.02649383                0.17221371               -0.03689827                0.01316336                0.01814976
               0.84242316                1.92594363               96.08517281                0.01000000               -0.14120825               -0.07488850                0.17602808               -0.18834214                0.06826377                0.04615793
               1.84018433                1.91949761               96.08949657                0.01000001               -0.12310010               -0.11524524                0.13698437               -0.19736933                0.13479217                0.12158679
               2.83996116                1.91572074               96.09336321                0.01005488               -0.04548646               -0.03813786                0.14139571                0.09586392                0.09962598                0.10965991
               3.83927460                1.91416460               96.09761481                0.01028487               -0.05777871               -0.08549748                0.11267167                0.20394832                0.07088963                0.07025650
               4.83880559                1.91301105               96.10137449                0.01000001               -0.03349321               -0.05557924                0.04375709                0.14540810                0.06604331                0.05950802
               5.83860474                1.91132643               96.10421200                0.45085804               -0.02192852                0.03220309                0.08090929                0.04340239                0.02975677                0.17434662
               6.83836702                1.90957793               96.10678326                0.99999998               -0.02279580               -0.01562919                0.08602344                0.01098649               -0.00295540                0.08469349
               7.83814882                1.90739865               96.10895786                0.96658884               -0.02132009               -0.02679868                0.06257562               -0.02214351               -0.03954450                0.03387089
               8.83794061                1.90482919               96.11069519                0.43978760               -0.01520711               -0.03017808                0.04546832               -0.04318312               -0.04768634               -0.03167996
               9.83784468                1.90179059               96.11258300                0.88018207               -0.00959319               -0.08195286                0.05946425               -0.04991222               -0.02977185               -0.06548470
              -0.15380471                2.93093220               96.08481729                0.46849764               -0.08740279                0.05393611                0.15066496               -0.15391555                0.02980180               -0.04834694
               0.84532126                2.92469352               96.08843377                0.01000000               -0.07258610               -0.06449861                0.08836790               -0.09980885                0.06098188                0.08261481
               1.84474357                2.91925379               96.09287058                0.01000002               -0.04483505               -0.04473543                0.14232777                0.10617032                0.11576797                0.09396339
               2.84442456                2.91546138               96.09746285                0.01000000               -0.04065622               -0.03947808                0.14697814                0.21047761                0.08375636                0.07953404
               3.84393044                2.91302784               96.10151466                0.01000000               -0.08542920               -0.10635009                0.17704151                0.33274248                0.11707130                0.07662153
               4.84271597                2.91199667               96.10691247                0.01000001               -0.14493752               -0.08467141                0.24480108                0.44681448                0.14887882                0.23900917
               5.84103169                2.91215828               96.11222502                0.01000000               -0.10209189               -0.05122027                0.12782339                0.32729631               -0.01566880                0.23343459
               6.84067414                2.90938770               96.11347932                0.01000000               -0.02212079               -0.05862411                0.05804933                0.16833826               -0.04351714                0.12967769
               7.84058927                2.90709296               96.11537742                0.01000001               -0.00589946               -0.06217770                0.05917348                0.12788474               -0.02338481                0.10694688
               8.84055615                2.90461326               96.11729169                0.93610134               -0.00769683               -0.01949462                0.08727879                0.02057494               -0.03423231                0.02831794
               9.84043534                2.90127458               96.11965786                1.00000000               -0.01208093               -0.05462916                0.08008370               -0.03583259               -0.02271450                0.05206327
              -0.14759246                3.93094758               96.08723532                0.96227921               -0.03021543               -0.00793147                0.06568331                0.00244074                0.05685326               -0.07626432
               0.85210539                3.92465366               96.09187300                0.83530170               -0.04338335               -0.01133011                0.07955026                0.04798057                0.07616066                0.04399402
               1.85153988                3.91860290               96.09667941                0.01022129               -0.08543629               -0.05384710                0.11086480                0.20357643                0.06996557                0.07201943
               2.85039666                3.91493118               96.10104459                0.01000000               -0.10728526               -0.07862015                0.18062337                0.32453923                0.07382819                0.13310730
               3.84939417                3.91203759               96.10582846                0.01000002               -0.08926098               -0.07753003                0.24808416                0.45783022                0.21578947                0.22468544
               4.84861144                3.91131762               96.11326332                0.01000001               -0.08172702               -0.09476233                0.18256241                0.54628809                0.16145524                0.17536740
               5.84775963                3.91030202               96.11730881                0.01000001               -0.09061757               -0.16350683                0.18894202                0.50340075                0.00561736                0.10421267
               6.84679909                3.90840545               96.12107045                0.01000000               -0.11393373               -0.10055175                0.19254813                0.37878195               -0.12964631                0.21036887
               7.84548096                3.90615510               96.12341892                0.01000000               -0.13142992               -0.07764933                0.15939000                0.29537182               -0.21677589                0.17482767
               8.84417049                3.90443929               96.12422438                0.99999999               -0.08377818               -0.02394734                0.12805953                0.10168157               -0.09723350                0.01623272
               9.84380539                3.90069801               96.12705379                1.00000000               -0.03651011               -0.05058925                0.08872986               -0.01175887                0.01295056                0.07448251
              -0.14116806                4.93077357               96.08942864                1.00000000               -0.02063907               -0.01760902                0.06049174                0.01315232                0.03227986               -0.10988796
               0.85862555                4.92446692               96.09455032                0.97224657               -0.01471847               -0.02098488                0.06892407                0.02273450                0.04687984               -0.00369066
               1.85853757                4.91817685               96.10008057                0.01000000               -0.05724500               -0.03043176                0.04157792                0.14135868                0.07134801                0.06415990
               2.85748065                4.91388898               96.10629215                0.01000001               -0.09184819               -0.13219753                0.23394435                0.43290019                0.23737079                0.15642900
               3.85670061                4.91147724               96.11282700                0.01000001               -0.10516700               -0.06393964                0.18236903                0.53307797                0.17039065                0.16187952
               4.85537731                4.91010142               96.11820737                0.01000001               -0.13443631               -0.12445271                0.23462858                0.55694969                0.09136182                0.08529037
               5.85401188                4.90888814               96.12332638                0.01000000               -0.14903044               -0.14145196                0.24051880                0.51794009                0.00979241                0.11320143
               6.85239670                4.90737667               96.12713199                0.01000001               -0.17745086               -0.10649285                0.22633789                0.44637693               -0.08447060                0.09781415
               7.85046286                4.90553998               96.12977281                0.01000000               -0.21749172               -0.07189610                0.20832088                0.39712460               -0.17759540                0.06051053
               8.84804687                4.90413432               96.13094639                0.38306682               -0.13900654               -0.01950101                0.14942557                0.18482790               -0.10701116                0.01058444
               9.84768273                4.90026280               96.13391577                1.00000000               -0.03641335               -0.08832536                0.11204359                0.05523190               -0.02360639                0.10288057
              -0.13471611                5.93059540               96.09101500                0.90575466               -0.01270958               -0.01492236                0.05214798                0.00100791                0.01973738               -0.12491743
               0.86515679                5.92423396               96.09670036                0.95526775               -0.01694518               -0.02145120                0.06144563                0.01200120                0.02948379               -0.04397642
               1.86494499                5.91799426               96.10254567                0.37701396                0.02987406               -0.02069477                0.07889959                0.04352242                0.17421550                0.02591636
               2.86575428                5.91228723               96.11099526                0.01000000               -0.05508480               -0.09629054                0.13208748                0.32688040                0.24247547               -0.02034653
               3.86384329                5.91075880               96.11652671                0.01000001               -0.17073675               -0.08002253                0.18923784                0.49876745                0.10996975                0.00321002
               4.86233954                5.90882857               96.12291678                0.01000000               -0.15000529               -0.14050985                0.24131094                0.51730279                0.11812355                0.00348745
               5.86084318                5.90747298               96.12835592                0.01000001               -0.16323746               -0.15582133                0.27815462                0.56504044                0.01806130                0.00811429
               6.85907479                5.90627559               96.13284184                0.01000001               -0.20886940               -0.12704520                0.28256884                0.56359174               -0.08863065               -0.00388481
               7.85666580                5.90471717               96.13625171                0.01000001               -0.29652803               -0.08346536                0.25754693                0.60744450               -0.20796873               -0.02179387
               8.85314423                5.90404927               96.13795729                0.20524267               -0.20063641               -0.20593006                0.30012056                0.53427687               -0.14291371                0.10847554
               9.85265307                5.89893150               96.14165512                1.00000000               -0.04911619               -0.34940715                0.19264014                0.34287304               -0.03521748                0.34009232
              -0.12842503                6.93047512               96.09228700                0.45536119               -0.01082637               -0.01243637                0.05309017               -0.02134839                0.01535499               -0.11415944
               0.87146671                6.92403789               96.09828838                0.93044386               -0.01101107               -0.02223201                0.05298631               -0.01829950                0.02925448               -0.07163341
               1.87135475                6.91776296               96.10476393                0.99999998               -0.01064926               -0.02311165                0.09027097                0.01343077                0.09480411               -0.00533989
               2.87125372                6.91196317               96.11202176                0.01000000               -0.06100639               -0.01910412                0.05232832                0.16725793                0.12706872               -0.04711607
               3.87013462                6.90987679               96.11987302                0.01000000               -0.11222684               -0.10632623                0.19712889                0.37534779                0.20454246               -0.13542411
               4.86900918                6.90729122               96.12632694                0.01000002               -0.11344767               -0.17097826                0.22729342                0.44457926                0.10082282               -0.09473822
               5.86786567                6.90577171               96.13240900                0.01000001               -0.12924206               -0.20196566                0.28217650                0.55827577                0.00247483               -0.10214878
               6.86642434                6.90483576               96.13755197                0.01000000               -0.15137992               -0.15028631                0.28246119                0.63128416               -0.11831021               -0.12581551
               7.86483807                6.90387067               96.14156623                0.01000000               -0.09531337               -0.10769295                0.26390488                0.53989665               -0.13430011               -0.12629877
               8.86451808                6.90001572               96.14740148                0.44219255               -0.00311648               -0.26663050                0.12603699                0.39916970               -0.12758615                0.08827859
               9.86477574                6.89327466               96.15393640                0.99987582                0.02576633               -0.25646013               -0.00091240                0.24693545               -0.03784884                0.23979206
              -0.12226862                7.93034667               96.09354025                0.40241939               -0.02284083               -0.07643773                0.11948819               -0.05692926                0.00921467               -0.09830326
               0.87750297                7.92378932               96.09978030                0.22371626               -0.02215253               -0.03686295                0.07995545               -0.05528527                0.02265623               -0.04531138
               1.87728833                7.91753203               96.10660894                0.97654512               -0.02586850               -0.02145122                0.06506182               -0.02194903                0.03686380               -0.03996393
               2.87698560                7.91190515               96.11348131                0.01000001               -0.06330665               -0.00483943                0.05067875                0.12164737                0.10129990               -0.03318660
               3.87602219                7.90863228               96.12185492                0.01000000               -0.08246964               -0.12808079                0.16335575                0.28950390                0.16868569               -0.23442922
               4.87533621                7.90540900               96.12854437                0.01000000               -0.07790167               -0.21283639                0.21023958                0.39513276                0.05939926               -0.19495001
               5.87446416                7.90343367               96.13538901                0.01000000               -0.08673446               -0.29530712                0.25602806                0.59999087               -0.01167524               -0.21954998
               6.87360152                7.90326986               96.14117600                0.01000000               -0.10901918               -0.09137988                0.26340222                0.53349650               -0.11274013               -0.14455757
               7.87228378                7.90256331               96.14652876                0.01000000               -0.09389383               -0.09796768                0.19183938                0.36828394               -0.16997673               -0.18284330
               8.87172364                7.89871666               96.15134082                0.81547053               -0.06049380               -0.09188278                0.21444362                0.14698832               -0.13674619               -0.14858606
               9.87107390                7.89380230               96.15819854                1.00000000               -0.06497396                0.02887238                0.19605322                0.06302194               -0.01732962               -0.18962922
              -0.11644892                8.92894636               96.09636271                0.84831872               -0.03754428               -0.08435229                0.12154340                0.01289474               -0.07838628               -0.03344136
               0.88317564                8.92330063               96.10197838                0.37469413               -0.03755713               -0.04741373                0.14112050               -0.00690927               -0.06042679                0.00639977
               1.88279994                8.91733393               96.10802068                0.46141641               -0.02946077               -0.01404187                0.04453772               -0.04200902               -0.02986111               -0.04592719
               2.88258642                8.91186638               96.11498400                0.94542119               -0.01895466               -0.00857023                0.08737194                0.01926611                0.02385269               -0.04082607
               3.88242085                8.90731518               96.12218710                0.99999999               -0.02379882               -0.08402841                0.12905663                0.09923218                0.01081478               -0.10830775
               4.88211045                8.90303449               96.12922802                0.39210265               -0.02081115               -0.13758780                0.15289678                0.18153267                0.02005716               -0.11920979
               5.88200462                8.89986557               96.13680340                0.19855007               -0.20729104               -0.20649204                0.31397085                0.53600183                0.11833100               -0.15354368
               6.87796463                8.90300817               96.14660846                0.44378465               -0.26238383               -0.00216750                0.12094987                0.39764279                0.10171370               -0.14355422
               7.87675695                8.90191132               96.15092272                0.82380443               -0.08728843               -0.06499184                0.21382362                0.14800447               -0.14434522               -0.14063322
               8.87621886                8.89817806               96.15690699                0.99999999               -0.04460190               -0.04456206                0.13442978                0.01696482               -0.05064495               -0.05398374
               9.87586491                8.89385210               96.16359268                0.65280669               -0.03539495                0.00169552                0.07888852                0.01912659               -0.01460072               -0.07153896
              -0.11071927                9.92865962               96.09910398                1.00000000               -0.03035178               -0.02867401                0.08453255               -0.00889265               -0.04470208               -0.00961727
               0.88897722                9.92284105               96.10524283                1.00000000               -0.06991676               -0.04595866                0.13259093                0.00973611               -0.11016727                0.05932968
               1.88788240                9.91725119               96.10959861                0.86684730               -0.07937702               -0.00827371                0.05485642               -0.04711922               -0.06553306               -0.02975019
               2.88738968                9.91173375               96.11704408                1.00000000               -0.05218383               -0.01326350                0.07748311               -0.03464920                0.05511377               -0.02376722
               3.88683872                9.90695171               96.12476365                1.00000000               -0.04866055               -0.03634682                0.08563872               -0.01203745                0.07497624                0.01260805
               4.88641646                9.90265725               96.13195512                1.00000000               -0.08140984               -0.03772487                0.11272378                0.04820763                0.11191793               -0.02468201
               5.88521052                9.89930383               96.14020678                1.00000000               -0.34539200               -0.05617429                0.19527298                0.34905348                0.35969989               -0.05050689
               6.87950862                9.90322651               96.15281138                0.99977090               -0.25682779                0.02183474               -0.01167276                0.25238225                0.23976282               -0.04538621
               7.88007397                9.90126348               96.15743223                1.00000000                0.03067625               -0.06478399                0.18904063                0.06164767               -0.18811543               -0.01971240
               8.88012215                9.89782542               96.16322790                0.65559962                0.00171891               -0.03526392                0.07629069                0.01896565               -0.07029768               -0.01600861
               9.88010835                9.89383621               96.16982519                0.37496307               -0.00138022               -0.00158953                0.00208565                0.02542243               -0.01997491               -0.01872873
              -0.16837111               -0.07220239               97.07683023                0.70854782               -0.03039740               -0.03031136                0.08130182                0.01094159                0.01394946                0.00921457
               0.83132491               -0.07630387               97.08039656                0.46847519               -0.03631884               -0.03959821                0.11831906               -0.00202406                0.04125708                0.00927040
               1.83090251               -0.08049110               97.08456837                0.23213796               -0.00548286               -0.05618352                0.14632480               -0.02873939                0.01095153                0.01314491
               2.83121526               -0.08521682               97.08763194                0.57986493                0.03291165               -0.04719778                0.08064387               -0.06014715               -0.14562532                0.03734466
               3.83156074               -0.08850244               97.08968965                0.97877507                0.02246673               -0.02765238                0.04448090               -0.03103270               -0.15207451                0.06225720
               4.83166459               -0.09106779               97.09213736                0.84417741                0.01500535               -0.01873739                0.03994407               -0.01197493               -0.13828900                0.02749700
               5.83186085               -0.09343983               97.09398351                0.43883157                0.01565930               -0.01131483                0.05023490               -0.01886114               -0.15218939                0.02078861
               6.83197778               -0.09561651               97.09571945                0.32390465               -0.06500873               -0.03025026                0.11885535               -0.03979188               -0.13635705               -0.01417020
               7.83056068               -0.09794764               97.09851899                0.61343819               -0.09433656               -0.04065019                0.12577616                0.05883139               -0.13374342               -0.09941463
               8.83009104               -0.10041057               97.10053887                0.80020140               -0.03229362               -0.03063087                0.07245479                0.00194894               -0.07014338                0.00075740
               9.82991480               -0.10288186               97.10340150                0.84570879               -0.01762419               -0.02017850                0.04244611               -0.01786031               -0.02035284               -0.02174063
              -0.16416022                0.92749450               97.08000188                0.45665583               -0.03907519               -0.03695883                0.11676097               -0.00242501                0.00997456                0.03161950
               0.83544903                0.92330015               97.08353056                0.01000001               -0.03840960               -0.03896662                0.15414906               -0.02371199                0.03476103                0.02977394
               1.83507159                0.91894706               97.08758213                0.01000449               -0.04147889               -0.06052135                0.19557596               -0.05925548                0.01178019                0.08146624
               2.83461945                0.91431121               97.09077672                0.01007571               -0.04478433               -0.03555948                0.15714324               -0.06695355                0.02639421                0.15977451
               3.83417590                0.91122103               97.09413091                0.89364051               -0.03029603               -0.02721412                0.08701340               -0.02625946                0.00300040                0.08534047
               4.83401353                0.90874483               97.09700371                0.99999998               -0.01146550               -0.02559557                0.06165828               -0.00537582               -0.04488742                0.03511875
               5.83394659                0.90644702               97.09931222                0.81532731               -0.00898849               -0.00611068                0.04797918               -0.02035681               -0.08575551                0.03578740
               6.83383376                0.90408099               97.10119948                0.24948975               -0.02002882               -0.01938652                0.08144816               -0.04413921               -0.08053044                0.01742002
               7.83354602                0.90164586               97.10356009                0.01000001               -0.06280597               -0.04169642                0.17856963                0.01900924               -0.02743827               -0.06521174
               8.83257764                0.89928313               97.10684921                0.10553244               -0.06692622               -0.06444963                0.15777997                0.03680151               -0.00064433               -0.10019639
               9.83220749                0.89691636               97.10958794                0.68079874               -0.03701500               -0.05865955                0.10354652                0.04715802               -0.02567848               -0.13752149
              -0.16003091                1.92705844               97.08368438                0.22342748               -0.05709716               -0.01077357                0.14864199               -0.03245521                0.01102458               -0.00933000
               0.83939811                1.92291680               97.08710648                0.01000001               -0.06313690               -0.04173108                0.20028838               -0.06020581                0.08360944               -0.00096230
               1.83870635                1.91829847               97.09192206                0.01000000               -0.08979505               -0.08454007                0.24292859               -0.06014767                0.18514749                0.17193263
               2.83760221                1.91407199               97.09590198                0.01000000               -0.10522097               -0.05230545                0.28036225               -0.00522023                0.07036437                0.22638861
               3.83660193                1.91095327               97.09896932                0.01001026               -0.06355648               -0.04294000                0.12639392                0.05073452                0.04341160                0.14386301
               4.83633108                1.90842029               97.10196268                0.14182113               -0.02421863                0.03783333                0.09179364                0.04949021                0.05844789                0.21500083
               5.83611756                1.90643796               97.10518793                0.99999998               -0.02174626                0.01354591                0.09046035                0.02899368                0.02795144                0.14580890
               6.83589616                1.90399576               97.10762887                1.00000000               -0.01894152               -0.01177030                0.06933986               -0.01892533               -0.03914656                0.06806361
               7.83573872                1.90121843               97.10941539                0.61169077               -0.01697901               -0.02761134                0.05349572               -0.04467579               -0.07599775               -0.00818759
               8.83555658                1.89830044               97.11110537                0.01000000               -0.00736101               -0.06345600                0.02852444                0.00724823               -0.03411117               -0.11823520
               9.83559150                1.89594495               97.11343542                0.48884059                0.00349267               -0.13380011                0.11434905                0.03996295               -0.05148142                0.01388105
              -0.15652605                2.92727903               97.08616390                0.59015097               -0.04690681                0.02683377                0.08308422               -0.06056247                0.03841715               -0.15842965
               0.84300488                2.92246553               97.08975961                0.01000002               -0.03802533               -0.04407055                0.15840214               -0.06554323                0.16642779                0.01579729
               1.84271345                2.91725626               97.09541902                0.01000000               -0.05723202               -0.09974675                0.27822187               -0.00299855                0.23847524                0.05995315
               2.84186024                2.91326510               97.09998725                0.01000000               -0.09355756               -0.08755642                0.27686775                0.13537956                0.16353722                0.15729006
               3.84084229                2.91036223               97.10444263                0.01000001               -0.11707955               -0.08418552                0.30434493                0.28278614                0.19440627                0.23383161
               4.83951865                2.90950150               97.11037135                0.01000001               -0.09456475               -0.03808236                0.19760737                0.24288461                0.12452025                0.27389104
               5.83895100                2.90671794               97.11264460                0.01000001               -0.04219345               -0.04137177                0.04372617                0.10274376               -0.00973134                0.15490379
               6.83867478                2.90384558               97.11447002                0.74989816               -0.03015883                0.01555373                0.09640838                0.00215855               -0.02089565                0.17778994
               7.83834782                2.90109363               97.11643788                0.99999999               -0.03393466                0.00269024                0.10527188               -0.01616590               -0.02635612                0.12824196
               8.83799609                2.89801401               97.11836284                0.91756324               -0.03150425               -0.03044536                0.09708545               -0.05002917               -0.03178745                0.02663208
               9.83771774                2.89424035               97.12045656                0.90922773               -0.02783525               -0.09433986                0.07058360               -0.09326498               -0.03185712                0.00352921
              -0.15161517                3.92759511               97.08783266                0.99188112               -0.02748155                0.02009664                0.04664741               -0.03036248                0.06095518               -0.15030343
               0.84811002                3.92203539               97.09272622                0.91136834               -0.02690123               -0.02937043                0.08684917               -0.02492989                0.08355054                0.00228469
               1.84784681                3.91630353               97.09800180                0.01000000               -0.04530944               -0.06087288                0.12422002                0.05219566                0.14630207                0.03760029
               2.84720383                3.91232087               97.10402751                0.01000001               -0.09127808               -0.10809541                0.30629984                0.28329439                0.23360649                0.19400395
               3.84602125                3.90926956               97.10987218                0.01000001               -0.11853822               -0.11198124                0.37982043                0.35799228                0.20599299                0.21508372
               4.84483307                3.90765865               97.11508451                0.01003402               -0.10964521               -0.16319960                0.25098401                0.39787546                0.11630487                0.14139213
               5.84382834                3.90561052               97.11951319                0.01000000               -0.16347132               -0.10509816                0.21902889                0.36811424                0.02041229                0.21935784
               6.84156364                3.90430684               97.12301011                0.01000001               -0.12906796               -0.05953395                0.11613666                0.27237259               -0.07992893                0.21267783
               7.84124699                3.90127224               97.12499353                0.01000002               -0.00771836               -0.06208151                0.07722179                0.10360102               -0.16194590                0.16073104
               8.84140927                3.89769153               97.12563510                0.99999999                0.00132625               -0.03597049                0.10995057                0.00297246               -0.10079007                0.00072549
               9.84127351                3.89405815               97.12773328                1.00000000               -0.01357622               -0.02589426                0.06017201               -0.01086227               -0.02527966                0.04009063
              -0.14601385                4.92768096               97.08994356                0.83489423               -0.01882827                0.01354363                0.04116013               -0.01132527                0.02583136               -0.13485213
               0.85379787                4.92187812               97.09524484                1.00000000               -0.02571323               -0.01109960                0.06110381               -0.00477446                0.03324967               -0.04298311
               1.85347188                4.91603880               97.10062698                0.09884142                0.03811179               -0.02373925                0.08955580                0.05192530                0.21392961                0.05822108
               2.85456010                4.91110319               97.10949350                0.01000000               -0.04037627               -0.08965667                0.18569592                0.24563889                0.27862205                0.12840288
               3.85266436                4.90812261               97.11467831                0.01000000               -0.17124495               -0.10273622                0.25317455                0.39578602                0.14460395                0.11858401
               4.85113520                4.90623751               97.12099066                0.01000001               -0.14996324               -0.14130981                0.30256643                0.46871262                0.13614618                0.13445281
               5.84966509                4.90461598               97.12593250                0.01000001               -0.13373402               -0.12675693                0.28411517                0.43514134                0.01606280                0.16431050
               6.84846052                4.90265491               97.12962255                0.01000001               -0.13149742               -0.16285286                0.26314428                0.39850558               -0.07890352                0.14114872
               7.84703515                4.89985200               97.13203339                0.01000001               -0.15954493               -0.12690777                0.22585646                0.28076301               -0.19032124                0.11849524
               8.84526962                4.89729460               97.13245480                0.39904094               -0.11339439               -0.04291043                0.16728196                0.10633074               -0.10562898                0.05899595
               9.84476726                4.89372247               97.13508436                1.00000000               -0.05023659               -0.10628857                0.12426891                0.04599034               -0.00192739                0.12124614
              -0.14023599                5.92786599               97.09143700                0.41887899               -0.01073202                0.01484878                0.05121771               -0.01817496                0.02218060               -0.14867547
               0.85965669                5.92181340               97.09721035                0.79996546               -0.00518806               -0.00934305                0.04739644               -0.02046593                0.03676630               -0.08479798
               1.85966025                5.91582875               97.10351530                0.99999998                0.01880556               -0.02102368                0.09096041                0.02886574                0.15360221                0.03019301
               2.86003280                5.91052773               97.11152882                0.01000000               -0.04287995               -0.04191783                0.04379471                0.09745809                0.15774558               -0.01373944
               3.85880265                5.90721484               97.11872306                0.01000000               -0.11594271               -0.15613082                0.22038084                0.36259578                0.21752239                0.02319888
               4.85771395                5.90483245               97.12553718                0.01000001               -0.13444392               -0.12855366                0.28620979                0.43278551                0.16786941                0.01057025
               5.85611377                5.90307538               97.13153426                0.01000001               -0.17081095               -0.16594020                0.36033285                0.44197639                0.05738578                0.05095292
               6.85429773                5.90104978               97.13604803                0.01000002               -0.19456089               -0.16256904                0.37539580                0.39066026               -0.07470753                0.05022415
               7.85222255                5.89873408               97.13920016                0.01000000               -0.23161543               -0.11232598                0.32442382                0.37718750               -0.20337023                0.03967367
               8.84966542                5.89683333               97.14057482                0.22912287               -0.14424908               -0.15577907                0.28688156                0.30891356               -0.11368735                0.11181892
               9.84933757                5.89193238               97.14369202                1.00000000               -0.03278473               -0.29808400                0.19126349                0.18357084               -0.00379101                0.32597674
              -0.13427217                6.92797794               97.09283955                0.31325326               -0.03020401               -0.06896170                0.12599783               -0.04071332               -0.01386371               -0.12918010
               0.86542578                6.92169126               97.09874305                0.25157732               -0.01964797               -0.02168450                0.08381963               -0.04579292                0.01991910               -0.07985566
               1.86533487                6.91561833               97.10564635                1.00000000               -0.01513058               -0.01733068                0.07053999               -0.02083226                0.06675905               -0.03744559
               2.86512317                6.91026483               97.11281274                0.60053256                0.01383452               -0.02820309                0.08944817               -0.00581013                0.17766151               -0.03221112
               3.86561156                6.90499999               97.12190192                0.01000001               -0.05964027               -0.13041341                0.12811947                0.26516359                0.22434815               -0.08405535
               4.86393037                6.90366643               97.12881896                0.01000001               -0.16621316               -0.12777274                0.26359481                0.39357216                0.14073288               -0.08713274
               5.86228729                6.90129717               97.13562623                0.01000002               -0.16576682               -0.19337462                0.37663041                0.38924573                0.05449726               -0.08448087
               6.86061503                6.89940352               97.14089729                0.01000001               -0.17459715               -0.17392034                0.39321372                0.45300943               -0.12283648               -0.12853542
               7.85879535                6.89760548               97.14471612                0.01000001               -0.11827181               -0.13692672                0.33633946                0.39917905               -0.19313372               -0.14006987
               8.85824960                6.89417901               97.14840093                0.58894475               -0.02773918               -0.19027968                0.12731343                0.26029905               -0.12551070                0.05689379
               9.85824057                6.88776079               97.15412728                0.99999999               -0.00090292               -0.20932266                0.00687289                0.11537661               -0.02707125                0.24739498
              -0.12847690                7.92648675               97.09542262                0.60922222               -0.04226570               -0.09685294                0.13011936                0.06169225               -0.10598815               -0.12776097
               0.87110044                7.92137971               97.10079258                0.01000001               -0.04265328               -0.06413016                0.18148687                0.02166225               -0.06728868               -0.02529087
               1.87067003                7.91548214               97.10708529                0.60716121               -0.02827532               -0.01490313                0.05409586               -0.04258517               -0.00724510               -0.07606278
               2.87053494                7.90996367               97.11444688                0.99999999                0.00171435               -0.03383209                0.10301469               -0.01760026                0.13024639               -0.02980229
               3.87070432                7.90460657               97.12345032                0.01000001               -0.06233639               -0.00921235                0.07997200                0.10137729                0.16342282               -0.17598521
               4.86928821                7.90227700               97.13081986                0.01000001               -0.12713626               -0.15743849                0.22735311                0.27969447                0.11840647               -0.20213341
               5.86816160                7.89920789               97.13836050                0.01000000               -0.11192986               -0.23429861                0.32687113                0.37358613                0.04530907               -0.21244888
               6.86704961                7.89757137               97.14429655                0.01000001               -0.13654750               -0.11870065                0.33511107                0.39939785               -0.13137666               -0.19801815
               7.86543065                7.89599555               97.14914414                0.01000001               -0.11667580               -0.11714336                0.26705995                0.36742723               -0.21344595               -0.22364889
               8.86471609                7.89302773               97.15297442                0.89629539               -0.04745436               -0.10031408                0.16625667                0.16745181               -0.14802447               -0.07020967
               9.86448156                7.88774593               97.15913294                0.64934467               -0.02345364                0.00182753                0.07201816                0.03393624               -0.00669300               -0.06517876
              -0.12282424                8.92604088               97.09706808                0.79621524               -0.03121107               -0.03086517                0.07273599                0.00211098                0.00094475               -0.06961191
               0.87686365                8.92040866               97.10375435                0.08671291               -0.06382784               -0.06722895                0.15860446                0.04011307               -0.09851684               -0.00016740
               1.87589920                8.91532027               97.10841911                0.01000000               -0.06084571               -0.00816515                0.02939162                0.00193727               -0.11347194               -0.03679219
               2.87564673                8.90958819               97.11605383                0.93488504               -0.02867122               -0.03234371                0.09594972               -0.04934125                0.02592739               -0.03472230
               3.87532578                8.90481574               97.12363884                0.99999999               -0.03618978                0.00397287                0.11323077                0.00452723               -0.00224128               -0.10881792
               4.87492294                8.90051766               97.13080050                0.42311811               -0.04305690               -0.11386339                0.17212148                0.10173861                0.06306985               -0.11418385
               5.87446464                8.89661120               97.13939091                0.22945117               -0.15538013               -0.14790893                0.27950258                0.31527293                0.11738540               -0.11855293
               6.87181533                8.89702951               97.14758816                0.59601224               -0.18885517               -0.02714884                0.12495097                0.26185632                0.06066626               -0.13019484
               7.87068753                8.89526261               97.15255921                0.90481825               -0.09835417               -0.04827894                0.16568669                0.16690483               -0.06766903               -0.15040947
               8.86984825                8.89217273               97.15815746                0.86383959               -0.06023166               -0.06074762                0.12206779                0.07495124               -0.02715403               -0.02921388
               9.86948290                8.88779734               97.16419808                0.01466428               -0.03653493                0.00445223                0.05242672                0.02453864               -0.00605727               -0.04217597
              -0.11717024                9.92586945               97.09957448                0.84610696               -0.02064450               -0.01714306                0.04193311               -0.01803143               -0.02046695               -0.01947232
               0.88262332                9.92003513               97.10613360                0.66144595               -0.06502576               -0.03735282                0.10535464                0.04843624               -0.13523904               -0.02655644
               1.88152925                9.91531883               97.11037390                0.46714562               -0.12853428               -0.00014333                0.10902218                0.02708798                0.01624986               -0.05353397
               2.88005263                9.90931680               97.11781379                0.90623348               -0.08319279               -0.02713937                0.06638884               -0.09105026                0.00727761               -0.03376949
               3.87986539                9.90468603               97.12542669                1.00000000               -0.02625546               -0.01297161                0.05929822               -0.01189187                0.04049529               -0.02632039
               4.87952752                9.89999973               97.13313983                1.00000000               -0.09550926               -0.05179354                0.12350141                0.03864280                0.12348251               -0.00149215
               5.87795521                9.89624971               97.14213111                1.00000000               -0.29460984               -0.03614892                0.18001906                0.20049019                0.32351329               -0.00792654
               6.87363533                9.89702840               97.15295676                0.99999999               -0.21648426               -0.00011154                0.00297137                0.12101184                0.24703847               -0.02858095
               7.87362552                9.89502997               97.15834510                0.66105632                0.00225348               -0.02326468                0.06969885                0.03301781               -0.06550327               -0.00704508
               8.87368040                9.89181278               97.16381276                0.02015670                0.00487993               -0.03599528                0.05042304                0.02346466               -0.04210701               -0.00647044
               9.87372312                9.88783497               97.16969978                0.16894434                0.00427244                0.00376334               -0.01735987                0.02624099               -0.01492452               -0.01426599
              -0.17199104               -0.07546388               98.07767885                0.67370337               -0.03522568               -0.03555508                0.08886519                0.01572432                0.01497256                0.01134454
               0.82765671               -0.07952261               98.08159672                0.49297256               -0.04825289               -0.04005312                0.11646053                0.00950874                0.02560121                0.01021740
               1.82704390               -0.08362396               98.08585919                0.42427546               -0.02402418               -0.05417049                0.09514872               -0.00589408               -0.07482710                0.00979074
               2.82717622               -0.08846772               98.08794648                0.74719468                0.03539952               -0.03826879                0.02613237               -0.05128057               -0.17384766                0.07237051
               3.82775190               -0.09260386               98.09000408                0.79153375                0.04520865               -0.02312087                0.03232028               -0.04782144               -0.15382644                0.05598209
               4.82808040               -0.09586994               98.09243959                0.41786945                0.02937036               -0.01447563                0.04907299               -0.01900806               -0.14413233                0.00920355
               5.82833930               -0.09860440               98.09457292                0.35158246               -0.02484795               -0.03700605                0.13334616               -0.02974995               -0.13032443               -0.04087713
               6.82758344               -0.10142561               98.09753888                0.52751536               -0.05546515               -0.04351156                0.13678800                0.02877705               -0.15552111               -0.13138534
               7.82723000               -0.10419830               98.09924426                0.68839036               -0.02535209               -0.03733970                0.07648776                0.00613067               -0.12848794                0.02533313
               8.82707639               -0.10701282               98.10128014                0.67204105               -0.01462992               -0.03407820                0.07127442               -0.00011902               -0.07272351               -0.00095921
               9.82693740               -0.10958991               98.10376484                0.74768397               -0.01389934               -0.02807964                0.04903265               -0.01491310               -0.05121955               -0.01923148
              -0.16777506                0.92418057               98.08118947                0.48222283               -0.03931047               -0.05079401                0.11580036                0.00842032                0.01060951                0.01827966
               0.83183183                0.92007685               98.08509789                0.01319180               -0.03837108               -0.03910224                0.16623301               -0.00726356                0.04377792                0.04185560
               1.83145752                0.91583433               98.08960914                0.01000000               -0.03392334               -0.06383335                0.21137259               -0.04396907               -0.00962075                0.07722325
               2.83115337                0.91114960               98.09261065                0.55753735               -0.02413611               -0.02471485                0.14240910               -0.07622170               -0.08876005                0.17110740
               3.83097479                0.90716493               98.09501589                0.99999999               -0.01313889               -0.03330011                0.07477235               -0.04170277               -0.08200137                0.06260741
               4.83089059                0.90398530               98.09753668                0.82960091               -0.00775772               -0.00933145                0.04882163               -0.02319315               -0.08241590                0.02840987
               5.83081964                0.90102553               98.09975659                0.25233198               -0.01112172               -0.02426842                0.08557158               -0.03438763               -0.07743495               -0.00830587
               6.83066815                0.89813927               98.10236387                0.02282988               -0.03673647               -0.04528637                0.19483626                0.00879802                0.00435494               -0.11102550
               7.83008491                0.89542831               98.10612320                0.01000001               -0.04485707               -0.07223018                0.18683654                0.02147466               -0.00836694               -0.12659002
               8.82977101                0.89264640               98.10824006                0.02672578               -0.03597737               -0.10181641                0.14761613                0.04314737               -0.03434073               -0.20404519
               9.82936536                0.89012929               98.11079985                0.45141533               -0.04056495                0.03947508                0.15144657                0.00916655               -0.01370409               -0.18372778
              -0.16361521                1.92352024               98.08497861                0.42281170               -0.05271257               -0.02826214                0.09375950               -0.00512539                0.00934224               -0.09265980
               0.83585767                1.91969534               98.08917858                0.01000000               -0.06465048               -0.03435696                0.21201608               -0.04289974                0.07737991               -0.02104103
               1.83509178                1.91509937               98.09435514                0.01000001               -0.07682384               -0.07306102                0.27303593               -0.04147194                0.13918838                0.13161662
               2.83432119                1.91103799               98.09897045                0.01000001               -0.05048249               -0.03339732                0.19579457               -0.04254543               -0.01973571                0.15153868
               3.83408213                1.90673014               98.10014269                0.01000001               -0.02826299               -0.01816594                0.12771581               -0.03174422               -0.06038088                0.19967641
               4.83375593                1.90394343               98.10321036                0.99999999               -0.02922761                0.01836768                0.10362499                0.01469562                0.02244198                0.16389771
               5.83349758                1.90091023               98.10602121                0.99894753               -0.01996522               -0.00472230                0.06572278               -0.01780111               -0.01679944                0.06642624
               6.83335663                1.89766866               98.10817005                0.68617081               -0.01726076               -0.02885063                0.06351590               -0.03791736               -0.05690753               -0.01153455
               7.83315237                1.89435710               98.11002777                0.02941914               -0.00591348               -0.06743218                0.14540337               -0.03166908               -0.10862707               -0.14177122
               8.83323836                1.89095085               98.11126568                0.01000003               -0.04987104               -0.10151097                0.31657787                0.14865998               -0.01155184               -0.25374428
               9.83215494                1.89119959               98.11486999                0.35739832               -0.10834112               -0.15409892                0.35296150                0.33714319                0.09198965               -0.34613637
              -0.16022778                2.92361532               98.08647898                0.75903933               -0.03775187                0.03208071                0.02652920               -0.04982494                0.07243636               -0.18243828
               0.83939470                2.91938972               98.09160181                0.56320943               -0.02433949               -0.02406101                0.14324760               -0.07463120                0.17206359               -0.09793475
               1.83928543                2.91437311               98.09843502                0.01011995               -0.03615064               -0.04762168                0.19278008               -0.04176091                0.15895031               -0.03003955
               2.83867169                2.91048165               98.10300020                0.01000000               -0.09254828               -0.08664883                0.37649406                0.06528631                0.09095828                0.08277895
               3.83743447                2.90680161               98.10760156                0.01000000               -0.08336388               -0.03132763                0.26704125                0.11229522                0.07708080                0.30322432
               4.83700441                2.90435266               98.11086461                0.01000001               -0.03480395               -0.02086401                0.03856149                0.08350351                0.02596652                0.19169937
               5.83673839                2.90093109               98.11309954                0.84941268               -0.02707392                0.02455205                0.04234396               -0.00228505               -0.00237710                0.16832262
               6.83646293                2.89756226               98.11540749                0.99999999               -0.02845257               -0.00810939                0.07316333               -0.02439386               -0.01118231                0.10580826
               7.83616934                2.89407966               98.11748286                1.00000000               -0.02806064               -0.02914449                0.08147363               -0.02406985               -0.03035740                0.03636540
               8.83590172                2.89061618               98.11923339                0.70361071               -0.02792925               -0.02945026                0.09391651               -0.04278804               -0.03577734                0.00779915
               9.83561075                2.88704731               98.12106953                0.72618187               -0.02909706               -0.21637818                0.11371699               -0.00946197               -0.03864281               -0.08688713
              -0.15616049                3.92416185               98.08816827                0.79159010               -0.02322574                0.04284271                0.03357378               -0.04608357                0.05446934               -0.15094321
               0.84360725                3.91921412               98.09360999                0.99999999               -0.03374394               -0.01332944                0.07546793               -0.04012469                0.06131141               -0.08160457
               1.84316463                3.91414694               98.09916381                0.01000002               -0.02044182               -0.02726706                0.12881161               -0.03135190                0.20391613               -0.06339070
               2.84319842                3.90930501               98.10717058                0.01000001               -0.03538000               -0.07629628                0.26409577                0.11433607                0.31047043                0.07257621
               3.84245703                3.90610359               98.11342486                0.01000003               -0.09509454               -0.09017871                0.42041984                0.24410982                0.18578321                0.18383629
               4.84129653                3.90352615               98.11828300                0.01000003               -0.11073770               -0.10074224                0.33273944                0.25696538                0.04644244                0.22854888
               5.84024228                3.90140127               98.12168939                0.01000000               -0.07881750               -0.03889050                0.14894031                0.14715895               -0.05878927                0.26138810
               6.83972018                3.89750647               98.12339318                0.01000002               -0.03126141               -0.02002697                0.05577349                0.03138751               -0.03691206                0.18047614
               7.83961705                3.89377421               98.12496335                0.01000000               -0.01526155               -0.01882045                0.03262328                0.02551179               -0.03939530                0.12721512
               8.83941494                3.89036185               98.12642339                0.73533039               -0.02568064               -0.01208320                0.08136868                0.00397086               -0.04071766                0.01518897
               9.83910344                3.88687203               98.12825723                1.00000000               -0.03115082               -0.01591685                0.07508866               -0.01026635               -0.02695345                0.01954312
              -0.15125399                4.92447218               98.09025184                0.40360394               -0.01388892                0.02820260                0.04927060               -0.01784046                0.00793825               -0.13994982
               0.84860712                4.91912313               98.09577240                0.82178067               -0.00892531               -0.00871666                0.04846256               -0.02189188                0.02757604               -0.08010423
               1.84856750                4.91382777               98.10187168                0.99999999                0.01973210               -0.02840888                0.10447019                0.01832621                0.16600172                0.02536010
               2.84900176                4.90895572               98.11000607                0.01000001               -0.02359908               -0.03059036                0.03869924                0.08366392                0.19481471                0.02095287
               3.84809552                4.90499804               98.11789049                0.01000004               -0.10778626               -0.10522081                0.33494710                0.25552221                0.22734535                0.04807543
               4.84684604                4.90233781               98.12425870                0.01000001               -0.11971396               -0.11572387                0.34548045                0.33722200                0.11915845                0.12031337
               5.84570124                4.90015328               98.12900868                0.01000005               -0.10641478               -0.13014766                0.31409795                0.30308375                0.01772038                0.22662850
               6.84471774                4.89716172               98.13239488                0.01000000               -0.09385238               -0.07505662                0.24161935                0.18722711               -0.09872620                0.29801782
               7.84382420                4.89370325               98.13428994                0.01000002               -0.09172106               -0.04731440                0.18444251                0.08336745               -0.21827269                0.27345528
               8.84288332                4.89037451               98.13429203                1.00000000               -0.07195658               -0.00111636                0.15367087               -0.00053005               -0.11616918                0.13274062
               9.84238506                4.88672898               98.13640115                1.00000000               -0.04982570               -0.02319560                0.10386452               -0.00258362                0.00348428                0.11497340
              -0.14581920                5.92472590               98.09203935                0.34400056               -0.03669831               -0.02831369                0.14086652               -0.03137807               -0.04279054               -0.11960866
               0.85381382                5.91903979               98.09764829                0.24761866               -0.02411224               -0.01322893                0.08685406               -0.03479876               -0.00812318               -0.07249725
               1.85369856                5.91357876               98.10436488                0.99819711               -0.00561961               -0.01918556                0.06621061               -0.01469220                0.06694898               -0.01281037
               2.85370143                5.90869320               98.11187115                0.82824910                0.02434148               -0.02774139                0.03718189               -0.00149869                0.16571763               -0.00364377
               3.85418539                5.90399917               98.12093432                0.01000001               -0.04078507               -0.07648071                0.15322968                0.15191539                0.26310158               -0.05245797
               4.85288573                5.90121167               98.12864097                0.01000000               -0.13526721               -0.10359652                0.31627396                0.30263187                0.22516066                0.01497656
               5.85148004                5.89879831               98.13556257                0.01008259               -0.14854915               -0.14487097                0.44266703                0.29848553                0.12466217                0.12339102
               6.84991474                5.89600534               98.14034976                0.01000000               -0.17042205               -0.15725900                0.50429589                0.20947949               -0.05819443                0.07423505
               7.84807160                5.89282792               98.14274019                0.01000000               -0.17680615               -0.12889810                0.50950887                0.19908683               -0.19736911               -0.00058064
               8.84637862                5.89033952               98.14369492                0.51628855               -0.08643813               -0.08102620                0.19129541                0.16467861               -0.12267092                0.06239925
               9.84634284                5.88640811               98.14548039                1.00000000               -0.00357802               -0.19736678                0.09977461                0.12668707               -0.06333889                0.21098447
              -0.14050932                6.92390590               98.09480695                0.52623855               -0.04323919               -0.05814919                0.14391506                0.02980821               -0.14007396               -0.14691061
               0.85905829                6.91885855               98.09996477                0.03092462               -0.04352174               -0.03837892                0.19937846                0.01094315               -0.11620038                0.01062935
               1.85862025                6.91344406               98.10617473                0.68573797               -0.02534540               -0.01703765                0.06236802               -0.03335393               -0.01138349               -0.05427825
               2.85855138                6.90840090               98.11381072                0.99999999               -0.00024420               -0.03125958                0.07769451               -0.02257869                0.12052610               -0.01202145
               3.85861536                6.90346843               98.12243541                0.01000000               -0.02259248               -0.03117585                0.05622291                0.02986296                0.18141004               -0.04117374
               4.85809953                6.90026588               98.13159884                0.01001991               -0.08690373               -0.09134380                0.24525365                0.18479318                0.28714523               -0.10525312
               5.85687729                6.89725586               98.13994161                0.01000000               -0.16109024               -0.16891512                0.50722089                0.20821353                0.07601077               -0.06456825
               6.85487773                6.89401654               98.14541625                0.01000003               -0.17027673               -0.16933576                0.44317153                0.20725137               -0.12318783               -0.12830272
               7.85347175                6.89112529               98.14829302                0.01000005               -0.11405125               -0.12903412                0.34394141                0.30014147               -0.27277342               -0.17138067
               8.85259670                6.88875399               98.14994775                0.81627350               -0.03450679               -0.13917913                0.15183611                0.20260417               -0.18057032               -0.04634977
               9.85278162                6.88278164               98.15407386                0.99999999                0.01849157               -0.19900989               -0.02565796                0.01677335               -0.04507945                0.22121079
              -0.13512832                7.92356292               98.09614264                0.68301294               -0.03771537               -0.02518189                0.07700151                0.00626674                0.02468771               -0.12525864
               0.86449453                7.91827221               98.10341004                0.01000001               -0.06912735               -0.04511371                0.18968361                0.02355333               -0.12721583               -0.00642536
               1.86348913                7.91323801               98.10769085                0.05443783               -0.06345177               -0.00672963                0.14434664               -0.02967123               -0.14017792               -0.10592003
               2.86322549                7.90806801               98.11554161                0.99999999               -0.02857348               -0.02979382                0.08433975               -0.02642424                0.04136707               -0.03314603
               3.86291766                7.90337565               98.12345436                0.01000000               -0.02156670               -0.01529871                0.03438122                0.01653887                0.12817852               -0.05170712
               4.86279416                7.89938480               98.13309143                0.01000002               -0.05120033               -0.09175177                0.18813050                0.07823015                0.27124368               -0.22675308
               5.86189366                7.89542001               98.14192643                0.01000000               -0.13019085               -0.17659794                0.50966178                0.19606045                0.00123388               -0.20888031
               6.86019034                7.89261862               98.14787822                0.01000005               -0.12783375               -0.11362411                0.34336192                0.29795727               -0.16875856               -0.27916572
               7.85933698                7.89024724               98.15186996                0.49718348               -0.07079924               -0.07115616                0.21045938                0.31499137               -0.24112523               -0.24580781
               8.85877435                7.88755594               98.15466595                1.00000000               -0.03569871               -0.09992716                0.14929705                0.18104422               -0.14904196               -0.08317881
               9.85862301                7.88242792               98.15963890                0.33144484               -0.01513476               -0.01699475                0.02838648                0.03124309               -0.02973128                0.02586801
              -0.12980256                8.92340227               98.09781743                0.67165561               -0.03431690               -0.01527692                0.07233846               -0.00052531               -0.00086309               -0.07085668
               0.86985427                8.91795627               98.10515047                0.02063677               -0.09832082               -0.03603918                0.14829380                0.04428429               -0.20068316               -0.03481053
               1.86823102                8.91330947               98.10860851                0.01000000               -0.09845080               -0.04835360                0.31294386                0.14434074               -0.25126048               -0.01435547
               2.86788525                8.90780502               98.11690300                0.71553807               -0.03008326               -0.02647868                0.09215480               -0.04450317                0.00484384               -0.03811480
               3.86762935                8.90316245               98.12445172                0.76536393               -0.01327380               -0.02630282                0.08270251                0.00153733                0.01328363               -0.04489515
               4.86761977                8.89843084               98.13267045                0.99999999               -0.00323430               -0.07180327                0.15440131               -0.00255075                0.12858967               -0.12129097
               5.86756467                8.89372390               98.14239345                0.51140232               -0.08050648               -0.08775627                0.18809976                0.16417114                0.06384276               -0.12732102
               6.86600964                8.89174406               98.14910748                0.82120911               -0.13652004               -0.03504620                0.15063375                0.20116648               -0.04079490               -0.18340372
               7.86483427                8.88970217               98.15423646                0.99999999               -0.09863684               -0.03482218                0.14890570                0.17911563               -0.08054179               -0.15106156
               8.86403691                8.88675545               98.15934835                0.15277893               -0.05858738               -0.05852600                0.10454943                0.09452794               -0.04184124               -0.04338187
               9.86366252                8.88244175               98.16464121                0.01035698               -0.03743886                0.00597914                0.04212659                0.03927054               -0.02289492               -0.01856105
              -0.12424684                9.92325738               98.09994264                0.75065040               -0.02801495               -0.01448851                0.04933894               -0.01502333               -0.01826672               -0.04972571
               0.87547301                9.91755143               98.10734992                0.44313835                0.03870218               -0.04048480                0.15075006                0.01255189               -0.18288879               -0.01322247
               1.87652720                9.91227094               98.11177906                0.33354042               -0.14952819               -0.10385330                0.34929553                0.32896879               -0.33683760                0.08495251
               2.87248244                9.90753844               98.11837186                0.70654412               -0.21023089               -0.02665818                0.10716952               -0.01134759               -0.08504546               -0.04027674
               3.87232258                9.90284960               98.12594961                0.99999999               -0.01503764               -0.03128544                0.07049225               -0.01016242                0.01875183               -0.02492090
               4.87218169                9.89794873               98.13442515                1.00000000               -0.02293584               -0.04821143                0.09990478               -0.00304380                0.11104089                0.00307774
               5.87186387                9.89366489               98.14380716                1.00000000               -0.19731452               -0.00590136                0.09501305                0.12836832                0.20309685               -0.06044082
               6.86823540                9.89191770               98.15287081                0.99999999               -0.19779818                0.01736432               -0.02878411                0.01687104                0.22409045               -0.04475387
               7.86790790                9.88955080               98.15882620                0.33148541               -0.01550331               -0.01513726                0.02667336                0.03074941                0.02516366               -0.02944320
               8.86792534                9.88638542               98.16423636                0.01008839                0.00639586               -0.03700305                0.04087416                0.03867787               -0.01867802               -0.02348617
               9.86803582                9.88254750               98.16947799                0.20568576                0.01104850                0.01057532                0.22449432                0.05353829                0.01585943                0.01541938
              -0.17590740               -0.07899674               99.07860754                0.60188301               -0.04360008               -0.04429283                0.09115202                0.00374256                0.00371278                0.00206066
               0.82365660               -0.08310186               99.08272577                0.46616474               -0.05181971               -0.03427362                0.12087983               -0.01508943               -0.01136998                0.04035165
               1.82305621               -0.08779519               99.08647135                0.59660345               -0.00315937               -0.02092433                0.06913599               -0.06877450               -0.07565072                0.07658150
               2.82359341               -0.09309776               99.08815459                0.67117552                0.04674476               -0.01928604                0.04183046               -0.09615352               -0.14024630                0.05845284
               3.82399110               -0.09740643               99.09033606                0.51140294                0.03098427               -0.02590059                0.06459690               -0.03713162               -0.10597216                0.02454008
               4.82421310               -0.10107790               99.09311882                0.45229229                0.00819883               -0.03798412                0.11860361               -0.01977282               -0.04342306               -0.03508969
               5.82415508               -0.10462471               99.09665043                0.52702740               -0.00085379               -0.05426690                0.15207287                0.00074793               -0.08363755               -0.13229460
               6.82419602               -0.10789420               99.09845521                0.55131609                0.00472863               -0.08765023                0.11007105                0.00711583               -0.13147872                0.02082485
               7.82424965               -0.11119887               99.10004875                0.58920154               -0.00400176               -0.04705946                0.08782476                0.00251359               -0.11405523                0.00980996
               8.82411599               -0.11434959               99.10196436                0.60833843               -0.01643198               -0.04337200                0.06964975                0.00293799               -0.07354018                0.00133441
               9.82392101               -0.11733650               99.10438216                0.77855700               -0.01949757               -0.05268441                0.06945301               -0.00940750               -0.04700281               -0.00042656
              -0.17176486                0.92056033               99.08231789                0.46145502               -0.03302152               -0.05437601                0.12101082               -0.01732230                0.04009517               -0.01748227
               0.82790493                0.91655540               99.08685522                0.50084192               -0.04343663               -0.04530419                0.16565002               -0.03260879                0.06596856                0.06434932
               1.82736641                0.91199557               99.09180958                0.66827161               -0.02337149               -0.00499455                0.13443778               -0.06019934               -0.00864466                0.11326588
               2.82743750                0.90670938               99.09362490                0.96653769                0.01217220               -0.00945123                0.06907713               -0.09172340               -0.13302468                0.08677549
               3.82760985                0.90233456               99.09562636                0.85763083                0.00935068               -0.01162182                0.05493624               -0.05019087               -0.09071696                0.02796146
               4.82762451                0.89854226               99.09798014                0.44651929               -0.00195734               -0.02758960                0.07538196               -0.04068206               -0.04014687               -0.01984500
               5.82757071                0.89483262               99.10102365                0.54763833               -0.00351273               -0.04758752                0.15956277               -0.03230844                0.04789123               -0.10003138
               6.82755426                0.89122930               99.10509621                0.45169344               -0.00341118               -0.06921757                0.16326090                0.00266720                0.02048045               -0.11043323
               7.82750248                0.88833054               99.10729682                0.16573446               -0.01700374               -0.08888935                0.13914236                0.01041497               -0.01714875               -0.09981604
               8.82721418                0.88521669               99.10980153                0.35989110               -0.03443202               -0.17090920                0.17872625                0.00867316                0.01459648               -0.01584175
               9.82681384                0.88213666               99.11261687                0.80042105               -0.04003386               -0.19554820                0.17825941                0.00708019                0.01645847               -0.01886683
              -0.16824400                1.91991574               99.08555957                0.59979661               -0.01868205               -0.00598581                0.06643848               -0.07027465                0.07538757               -0.08489912
               0.83156918                1.91599206               99.09134680                0.66787258               -0.00288813               -0.02399900                0.13185896               -0.06128120                0.11279617               -0.01447253
               1.83169824                1.91210492               99.09738278                0.01000000               -0.00746174               -0.00743835                0.13310283               -0.10755939                0.03426418                0.02807915
               2.83141995                1.90671322               99.09981787                0.52938717               -0.02719192                0.00055798                0.05917058               -0.13342092               -0.04700367                0.18120346
               3.83115440                1.90236113               99.10152363                0.99999999               -0.02592724                0.04049917                0.09924442               -0.07166291               -0.05627956                0.17948375
               4.83090140                1.89837031               99.10403518                0.95757750               -0.01662662               -0.01397088                0.06900054               -0.05110546               -0.02833876                0.05622406
               5.83082187                1.89442354               99.10650239                0.47991953               -0.00749794               -0.02082016                0.06557334               -0.04294902               -0.02679900               -0.03437210
               6.83075144                1.89072145               99.10889919                0.62112743               -0.01756538               -0.02453385                0.13415966               -0.04433140                0.01576493               -0.10859226
               7.83047056                1.88702335               99.11232346                0.60576422               -0.01340573               -0.07225887                0.18973293               -0.10384722                0.13984643               -0.13053542
               8.83048333                1.88223223               99.11743693                0.52681368               -0.01239424               -0.11022081                0.34411792               -0.08955581                0.10104737               -0.12185129
               9.83022268                1.87875254               99.12049465                0.78206812               -0.02606525               -0.15106476                0.35170876               -0.02503056                0.05154290               -0.32702429
              -0.16532299                2.92044061               99.08669449                0.68032534               -0.01868914                0.04438237                0.04253040               -0.09478025                0.05769420               -0.14378705
               0.83449012                2.91607542               99.09262456                0.98123750               -0.00914748                0.01203282                0.06993567               -0.09111448                0.08633195               -0.13749123
               1.83449406                2.91184680               99.09927462                0.53032550                0.00113738               -0.02529337                0.05842096               -0.13442932                0.18562829               -0.05427086
               2.83451287                2.90672054               99.10751713                0.66380887                0.00127201                0.00266532                0.22859839               -0.04850092                0.10778546                0.10089369
               3.83451950                2.90314455               99.10978345                0.01000003                0.00135669                0.01481126                0.08870410               -0.04937997               -0.10749335                0.29474591
               4.83454000                2.89826285               99.11114258                0.63584004               -0.00794573                0.02326130                0.03485460               -0.10661753               -0.04956758                0.24268443
               5.83436059                2.89441621               99.11349147                0.99999999               -0.02360908                0.02528053                0.05066665               -0.04018561               -0.00431037                0.10468401
               6.83406782                2.89073863               99.11593329                0.98173567               -0.02229097                0.01037588                0.04630057               -0.03654299               -0.01060902                0.03173417
               7.83391477                2.88688536               99.11806736                0.55117844               -0.01869725               -0.00069447                0.06758357               -0.03840236               -0.01158815               -0.04812018
               8.83369387                2.88301227               99.12024117                0.87242209               -0.03210800                0.03522259                0.10863221               -0.04761447                0.00573012               -0.20030007
               9.83327261                2.87911536               99.12273090                0.99070753               -0.04212666                0.01824283                0.11175534               -0.04748708                0.03882879               -0.27817606
              -0.16140922                3.92080338               99.08850413                0.50535105               -0.02500718                0.02851324                0.06421638               -0.03572755                0.02280235               -0.10139498
               0.83834070                3.91623271               99.09423558                0.86115188               -0.01131193                0.00811559                0.05548444               -0.04824502                0.02742023               -0.08917825
               1.83836454                3.91159905               99.10057804                0.99999999                0.04057400               -0.02509333                0.10101195               -0.07010004                0.18130645               -0.05629798
               2.83915218                3.90676652               99.10930943                0.01000000                0.01299809                0.00505688                0.08650642               -0.05084863                0.29928203               -0.11185087
               3.83862450                3.90265736               99.11828058                0.68461534               -0.08273986               -0.07849455                0.26175425                0.02540745                0.15845437                0.15704295
               4.83749739                3.89883554               99.12173930                0.77142300               -0.05410602                0.00114766                0.17095676                0.00659838               -0.11080428                0.27458831
               5.83754238                3.89492915               99.12249200                0.99999999                0.00270256                0.04295763                0.04783315               -0.01919137               -0.12093488                0.19193398
               6.83755144                3.89092897               99.12412558                0.99999998               -0.00567557                0.04600276                0.05370708               -0.03913864               -0.05607558                0.17475181
               7.83742887                3.88700946               99.12564600                0.65787824               -0.01251996                0.03294565                0.06870894               -0.05672621               -0.04845312                0.12699674
               8.83730104                3.88293668               99.12726247                0.71016541               -0.01810550               -0.01671981                0.08474099               -0.03754517               -0.01991541                0.02825521
               9.83706676                3.87911739               99.12923505                0.89608355               -0.02342817               -0.01582924                0.07355335               -0.01462350                0.01425900               -0.02001939
              -0.15689620                4.92101088               99.09092897                0.44993348               -0.03742534                0.00576597                0.12261227               -0.02233652               -0.03579377               -0.03365886
               0.84272955                4.91623774               99.09621409                0.44591815               -0.02727769               -0.00308161                0.07549626               -0.04189707               -0.02069593               -0.03591435
               1.84255825                4.91134494               99.10271639                0.96253579               -0.01459801               -0.01647801                0.07020031               -0.05021124                0.05641998               -0.02653784
               2.84243759                4.90682168               99.11026748                0.62537849                0.02001937               -0.00581606                0.03402801               -0.10723771                0.24549552               -0.05224004
               3.84295864                4.90157466               99.12137725                0.77806419               -0.00187040               -0.05183010                0.17321337                0.00672404                0.27877488               -0.10955658
               4.84240018                4.89828580               99.12790027                0.91295896               -0.05376544               -0.05218477                0.17816136                0.18961166                0.05461402                0.05845490
               5.84188333                4.89527537               99.13221446                0.54426817               -0.05977223               -0.01594342                0.14849586                0.13643658               -0.05509256                0.23857752
               6.84120474                4.89165868               99.13445494                0.01000000               -0.05553953               -0.07079305                0.10015295                0.03368495               -0.10364098                0.33029559
               7.84077254                4.88754427               99.13572224                0.01000001               -0.01848518               -0.11450301                0.07822048               -0.07398303               -0.15586356                0.39782596
               8.84083503                4.88267788               99.13552821                0.83412292               -0.00769169               -0.02555402                0.10836339               -0.07873691               -0.10080072                0.08606434
               9.84061870                4.87879878               99.13716165                0.99999999               -0.02163297               -0.03190143                0.06828495               -0.01625485                0.00332499                0.04531149
              -0.15230967                5.92091870               99.09425433                0.52894110               -0.05216245               -0.00372169                0.15765367                0.00058296               -0.14171919               -0.07485422
               0.84716870                5.91617108               99.09894743                0.55275089               -0.04569800               -0.00478168                0.16166837               -0.03223789               -0.10490069                0.05392116
               1.84677637                5.91126949               99.10483952                0.48170696               -0.01954979               -0.00690750                0.06454666               -0.04089405               -0.03482921               -0.02486226
               2.84677771                5.90665020               99.11227246                0.99999998                0.02592456               -0.02338659                0.05138576               -0.04066561                0.10963277               -0.00409998
               3.84729486                5.90162076               99.12178766                0.99999998                0.04056011                0.00409105                0.04916493               -0.01826770                0.19210493               -0.12215608
               4.84758891                5.89779184               99.13186265                0.53616690               -0.01983155               -0.05874434                0.14945915                0.13782088                0.23452853               -0.05317022
               5.84689823                5.89461028               99.14038761                0.99999999               -0.08163406               -0.08167050                0.23878535               -0.00859800                0.16430625                0.16437838
               6.84595623                5.88951311               99.14613395                0.95948376               -0.09841094               -0.11748347                0.29397253               -0.06478750                0.03897853                0.25089765
               7.84493001                5.88471940               99.14939034                0.57857237               -0.07422165               -0.12480907                0.35301100                0.04741666               -0.35298014                0.28874664
               8.84447180                5.88242560               99.14440073                0.99999997               -0.02150760               -0.01984442                0.06546785                0.08911426               -0.32847174                0.05195700
               9.84449986                5.87847937               99.14568752                0.99999999                0.00280616               -0.03861420                0.02037932                0.02877957               -0.03678516                0.06020376
              -0.14738929                6.92093644               99.09571785                0.54719046               -0.08767065                0.00262011                0.11110003                0.01015220                0.01967278               -0.12748486
               0.85173400                6.91614210               99.10273062                0.45404748               -0.06747312               -0.00527861                0.16362488                0.00547728               -0.11229947                0.02538649
               1.85126124                6.91120679               99.10689371                0.61925470               -0.02304938               -0.01697690                0.13370264               -0.04148089               -0.10954457                0.01751658
               2.85127301                6.90635395               99.11436663                0.97948616                0.00951984               -0.02208639                0.04847019               -0.03646232                0.03284666               -0.01016023
               3.85145164                6.90165648               99.12302638                0.99999999                0.04470322               -0.00323171                0.04538544               -0.04099150                0.16668674               -0.05933578
               4.85216708                6.89711091               99.13372403                0.01233905               -0.07307705               -0.05607594                0.10382159                0.03187923                0.32609678               -0.10507428
               5.84999010                6.89364196               99.14577065                0.95244977               -0.11836049               -0.10159170                0.29643107               -0.06503221                0.25033540                0.03413970
               6.84979987                6.88930901               99.14976072                0.22209964               -0.05908591               -0.06081436                0.22077726               -0.04095935               -0.15523076               -0.15698468
               7.84880838                6.88504809               99.15159494                0.80124353               -0.04712598                0.02082767                0.16914267                0.09311875               -0.23068566               -0.24693113
               8.84885735                6.88228099               99.15143765                1.00000000                0.01391869               -0.02310221                0.08093234                0.12364604               -0.16834558               -0.04220466
               9.84908676                6.87802649               99.15361412                0.67891852                0.02294081               -0.03917168               -0.03084118                0.04660947               -0.08237585                0.15051704
              -0.14251794                7.92097111               99.09696265                0.58696992               -0.04741479               -0.00563511                0.08978899                0.00352580                0.00987640               -0.11147346
               0.85700791                7.91606551               99.10458626                0.17039352               -0.08735751               -0.01847689                0.13966267                0.01418755               -0.10051693               -0.01589350
               1.85573491                7.91092996               99.10997222                0.61096594               -0.07045691               -0.01309148                0.18815536               -0.09984094               -0.13317955                0.13973640
               2.85559877                7.90620848               99.11613367                0.56222349               -0.00084201               -0.01791516                0.06766201               -0.03732230               -0.04834516               -0.01175077
               3.85571806                7.90155612               99.12413795                0.66574325                0.03211236               -0.01169429                0.06794198               -0.05828972                0.12472773               -0.05481204
               4.85624102                7.89667032               99.13458247                0.01000002               -0.11592896               -0.01763919                0.08078017               -0.07958786                0.39264222               -0.16284670
               5.85339949                7.89257844               99.14855374                0.58460720               -0.12550551               -0.07289517                0.35177479                0.04704283                0.28502266               -0.35787251
               6.85373091                7.88829682               99.15116379                0.80242956                0.02104607               -0.04700819                0.16821168                0.09570341               -0.24479467               -0.23278525
               7.85382041                7.88513595               99.15335333                0.98603239                0.01177046                0.01185235                0.07584591                0.18470903               -0.18388093               -0.18543692
               8.85396632                7.88196355               99.15596036                0.72805996                0.00603147               -0.02731491                0.08710901                0.11546522               -0.09260850               -0.07997199
               9.85394104                7.87769593               99.15970067                0.57309676               -0.00252788               -0.02197344                0.00964220                0.04086407               -0.04124691                0.06614688
              -0.13750758                8.92082374               99.09851485                0.60971812               -0.04335166               -0.01733005                0.07053664                0.00327316                0.00182422               -0.07192102
               0.86205890                8.91577256               99.10672023                0.35787604               -0.16854795               -0.03468677                0.17888854                0.01212174               -0.01728286                0.01442303
               1.85912146                8.91094496               99.11467799                0.52816981               -0.10792508               -0.01265833                0.33785801               -0.08706332               -0.12428416                0.10104224
               2.85990040                8.90599564               99.11789693                0.86645300                0.03512695               -0.03174647                0.10742179               -0.04699841               -0.19904204                0.00394051
               3.85982400                8.90142259               99.12529289                0.70866259               -0.01737005               -0.01821507                0.08466070               -0.03842226                0.02531302               -0.02496335
               4.85955300                8.89675813               99.13388852                0.83989676               -0.02597695               -0.00592202                0.10803667               -0.07943800                0.08469873               -0.10563803
               5.85930446                8.89218405               99.14315290                0.99999997               -0.01982844               -0.01824812                0.06813463                0.08913573                0.05433911               -0.33063711
               6.85915643                8.88836885               99.15060084                0.99999999               -0.02343133                0.01549218                0.08130611                0.12341334               -0.04055160               -0.16963080
               7.85883583                8.88528514               99.15553733                0.73708834               -0.02748800                0.00628278                0.08754275                0.11543405               -0.07904105               -0.09379723
               8.85860667                8.88173469               99.16024845                0.35545393               -0.01982770               -0.01982567                0.07046975                0.04953082               -0.03215677               -0.03224397
               9.85843928                8.87758703               99.16504062                0.95760794               -0.01673914                0.03869321                0.06615141                0.06603353               -0.01678004                0.21879104
              -0.13235013                9.92062450               99.10056126                0.77970942               -0.05207455               -0.01992368                0.06911066               -0.00952765               -0.00048306               -0.04558361
               0.86712913                9.91537177               99.10914860                0.79454801               -0.19396571               -0.04007912                0.17660385                0.00963686               -0.01977964                0.01590284
               1.86377056                9.91067679               99.11735981                0.76676701               -0.14739812               -0.02681669                0.34881703               -0.02500136               -0.32500660                0.05050624
               2.86418117                9.90557355               99.11995718                0.97310706                0.02082884               -0.04220985                0.10880384               -0.04617184               -0.27830875                0.03506754
               3.86418714                9.90119182               99.12683653                0.87327619               -0.01451847               -0.02307706                0.06941074               -0.01476932               -0.02056394                0.01076248
               4.86389080                9.89655188               99.13513793                0.99969393               -0.03078270               -0.02062443                0.06528689               -0.01513730                0.04416616                0.00325121
               5.86357148                9.89221348               99.14403137                0.99999999               -0.03963544                0.00294285                0.02135719                0.02944136                0.06050361               -0.03727917
               6.86309809                9.88860667               99.15238108                0.68123956               -0.04041182                0.02378187               -0.03242864                0.04657189                0.15281193               -0.08279425
               7.86276325                9.88526161               99.15887857                0.56542811               -0.02215204               -0.00235339                0.00893021                0.04075994                0.06657550               -0.04137964
               8.86265505                9.88156704               99.16463024                0.94765649                0.03968963               -0.01676511                0.06384609                0.06524717                0.21909586               -0.01604303
               9.86355704                9.87846980               99.17418966                0.99999997                0.09019916                0.08827712                0.39685948                0.20205164                0.32337847                0.32375929
              -0.18015325               -0.08284338              100.07950189                1.00000000               -0.02812490               -0.02777312                0.08943510               -0.00256718                0.02665709                0.02611660
               0.81956550               -0.08697448              100.08401431                1.00000000                0.01276646               -0.02827025                0.12885399               -0.08686887               -0.02210939                0.05239544
               1.82010208               -0.09276879              100.08724191                1.00000000                0.04705458               -0.00429868                0.07705586               -0.12195258               -0.05697434                0.00823788
               2.82050659               -0.09823928              100.08878309                1.00000000                0.02830753               -0.05388964                0.06284992               -0.07929321               -0.10597690                0.00675897
               3.82066823               -0.10269366              100.09129601                1.00000000                0.01954861               -0.07697530                0.09599593                0.01094282               -0.03085872               -0.04686345
               4.82089756               -0.10629439              100.09481166                1.00000000                0.03309646               -0.10335728                0.16928491                0.01412611               -0.01563538               -0.09838401
               5.82133015               -0.10999674              100.09761438                1.00000000                0.03289908               -0.08303122                0.09639514               -0.06671148               -0.03606064               -0.00385560
               6.82155554               -0.11429111              100.09974030                1.00000000                0.00547969               -0.02222604                0.12850852               -0.10016952               -0.09472942               -0.05081225
               7.82143975               -0.11849824              100.10100075                1.00000000               -0.01416804               -0.03444889                0.09520020               -0.05878258               -0.13434812                0.06059282
               8.82127218               -0.12266048              100.10267314                1.00000000               -0.01390016               -0.04825274                0.07087796               -0.03141107               -0.07672282                0.08305620
               9.82116175               -0.12606787              100.10515390                1.00000000               -0.01104360               -0.02926726                0.07717458               -0.05052822               -0.02784992                0.04797609
              -0.17604782                0.91687889              100.08360969                1.00000000               -0.02926604                0.01445180                0.12917974               -0.09004055                0.05182340               -0.02786897
               0.82365952                0.91274282              100.08841089                1.00000000                0.02813855                0.03055172                0.15556651               -0.14828957                0.00986902                0.00881347
               1.82451495                0.90718822              100.09229789                1.00000000                0.05082876                0.04823552                0.04883120               -0.21585348               -0.00608075                0.00802970
               2.82467609                0.90122183              100.09399220                1.00000000                0.01451310               -0.04954485                0.03672996               -0.09589819               -0.08530435                0.01978316
               3.82480521                0.89653658              100.09611462                1.00000000                0.00071337               -0.05718077                0.04882563               -0.02393916               -0.02785839               -0.03821989
               4.82469036                0.89267204              100.09904432                1.00000000               -0.00719054               -0.09000672                0.10641754               -0.00253962                0.04824651               -0.09808726
               5.82466140                0.88917295              100.10294785                1.00000000                0.00571181               -0.11241499                0.19241996               -0.02089826                0.03830757               -0.08005194
               6.82480460                0.88548663              100.10562909                1.00000000                0.01876053               -0.05245810                0.05328784               -0.08601806                0.02294374               -0.01861935
               7.82503661                0.88115728              100.10890605                1.00000000               -0.00308538               -0.02629567                0.16092299               -0.13289184                0.06268775               -0.07624216
               8.82474289                0.87685699              100.11181459                1.00000000               -0.04863780                0.03673339                0.20130564               -0.08509459                0.02582002               -0.06222480
               9.82406385                0.87363946              100.11436504                1.00000000               -0.06790340                0.03064713                0.17481649               -0.02632337               -0.01995420               -0.01220714
              -0.17368192                1.91744566              100.08630738                1.00000000               -0.00277055                0.04580628                0.07478163               -0.12522126                0.00704524               -0.06101294
               0.82629038                1.91363655              100.09181576                1.00000000                0.04939566                0.05041437                0.04689588               -0.21840235                0.00761024               -0.00606833
               1.82730600                1.90819592              100.09701720                1.00000000                0.14749420                0.14521108               -0.03655805               -0.46381233               -0.02231916               -0.02562328
               2.82924026                1.90076983              100.10015386                1.00000000                0.07166172                0.08930687                0.03359945               -0.31953627                0.03755045                0.08465955
               3.82873923                1.89616272              100.10212758                1.00000000               -0.05149298               -0.02984959                0.06039465               -0.10052044               -0.01969184                0.04320986
               4.82821040                1.89190548              100.10459037                1.00000000               -0.03208179               -0.05849072                0.05551899               -0.03965391               -0.00884526               -0.02061414
               5.82809759                1.88775496              100.10733268                1.00000000               -0.01797740               -0.10688962                0.08302910               -0.00228389                0.04071642               -0.10860623
               6.82785085                1.88465973              100.11085325                1.00000000               -0.03430215               -0.12580427                0.19540626                0.00455826                0.03442868               -0.07095151
               7.82741155                1.88097585              100.11382243                1.00000000               -0.03813736               -0.06812783                0.14989749                0.00037698                0.05883826               -0.10832522
               8.82708811                1.87807419              100.11814803                1.00000000               -0.01706015               -0.00361802                0.07111060                0.00895569                0.06456409                0.06376884
               9.82707035                1.87454507              100.12190416                1.00000000               -0.00177581               -0.04480320                0.14095058                0.01428886                0.06037982                0.02623368
              -0.17093404                2.91779502              100.08732959                1.00000000               -0.05247491                0.02269032                0.06350985               -0.07866266                0.00598908               -0.10729905
               0.82854121                2.91375110              100.09300053                1.00000000               -0.04802656                0.01022350                0.03759665               -0.09556000                0.01880173               -0.08723586
               1.82810543                2.91009244              100.09960343                1.00000000                0.08886757                0.06916466                0.03288173               -0.31661100                0.08971919                0.03290632
               2.83031856                2.90300796              100.10757217                1.00000000                0.17768603                0.17739056                0.00550448               -0.59557981                0.06917998                0.06608479
               3.83165915                2.89593959              100.10937564                1.00000000                0.09932384                0.07439637               -0.04078125               -0.35243625               -0.08655838                0.10612262
               4.83230504                2.89150222              100.11156171                1.00000000                0.01011581                0.01773724                0.04191302               -0.11229103                0.01336567                0.17952606
               5.83186147                2.88703516              100.11411287                1.00000000               -0.03150846               -0.06190010                0.06214007               -0.05959857               -0.01132244                0.02756302
               6.83167487                2.88297055              100.11633350                1.00000000               -0.01158870               -0.10899377                0.04002081                0.01766876               -0.00321192               -0.09610408
               7.83162969                2.87979472              100.11883453                1.00000000               -0.01610458               -0.11582953                0.07671754                0.09568134                0.02511961               -0.08330929
               8.83135278                2.87678463              100.12140604                1.00000000               -0.01109154               -0.12171408                0.11648691                0.06440747               -0.01060415               -0.12425518
               9.83140786                2.87274339              100.12330464                1.00000000                0.00550827               -0.12520898                0.05737371                0.01453136                0.00338550               -0.24598990
              -0.16716735                3.91789947              100.08945259                1.00000000               -0.07509006                0.01268911                0.09484606                0.01385293               -0.04910368               -0.02166677
               0.83208175                3.91384102              100.09471968                1.00000000               -0.05578688               -0.00290578                0.04840937               -0.02278384               -0.03932223               -0.02507894
               1.83171692                3.90957921              100.10118405                1.00000000               -0.03001191               -0.05284524                0.06060124               -0.09931521                0.04428978               -0.01837176
               2.83148152                3.90431764              100.10890071                1.00000000                0.07396644                0.09699612               -0.04087139               -0.34981584                0.10672825               -0.08916584
               3.83319625                3.89765065              100.11865995                1.00000000                0.16937500                0.16801191                0.03793726               -0.38391660                0.09724574                0.09828458
               4.83486902                3.89226022              100.12170213                1.00000000                0.11205269                0.09406648               -0.00371657               -0.31688103               -0.06353179                0.15547937
               5.83543730                3.88651696              100.12264606                1.00000000                0.02878255               -0.00029658                0.01540544               -0.17985550               -0.07224855                0.05206739
               6.83544467                3.88247986              100.12446732                1.00000000                0.00368971               -0.06056437                0.03417413               -0.01977122               -0.02610329                0.05831042
               7.83551109                3.87865926              100.12633753                1.00000000               -0.00085427               -0.09396438                0.06915336                0.05820052               -0.00923282                0.01597140
               8.83542758                3.87563991              100.12811821                1.00000000               -0.00338198               -0.09135445                0.08557390                0.07283783               -0.01780731                0.02298602
               9.83544345                3.87204089              100.12972830                1.00000000                0.00158729               -0.07803261                0.04932472                0.02894049               -0.00132136                0.01546053
              -0.16254010                4.91804880              100.09270409                1.00000000               -0.10541107                0.02702397                0.17751146                0.02079718               -0.10656654               -0.00921606
               0.83640579                4.91369299              100.09728232                1.00000000               -0.09086942               -0.01196731                0.10682331                0.00178035               -0.10379588                0.05362437
               1.83564251                4.90903554              100.10327569                1.00000000               -0.05774906               -0.03375072                0.05593010               -0.03925371               -0.02135830               -0.00735182
               2.83525081                4.90494789              100.11068663                1.00000000                0.01978604                0.00972099                0.04191470               -0.11356404                0.18527549                0.01252841
               3.83603823                4.89929983              100.12135476                1.00000000                0.09251492                0.11281386               -0.00224951               -0.31616420                0.16472465               -0.06459918
               4.83710111                4.89338355              100.12782193                1.00000000                0.10032441                0.10321409               -0.00783425               -0.40816362                0.00128476                0.00617660
               5.83804472                4.88702922              100.13197860                1.00000000                0.10180187                0.10063702               -0.02358651               -0.32833595               -0.05506017                0.05999711
               6.83913714                4.88175926              100.13439793                1.00000000                0.07944653                0.16188297               -0.00570063               -0.14334399               -0.01297134                0.09815253
               7.83963365                4.87791543              100.13585435                1.00000000                0.01453786                0.20354456                0.01321118                0.02162049               -0.01082016                0.21025941
               8.83942790                4.87495754              100.13645930                1.00000000               -0.02244770               -0.00853424                0.09310858                0.06758685               -0.04508813                0.07227014
               9.83918470                4.87118274              100.13776685                1.00000000               -0.02432039               -0.04405880                0.06052046                0.00202512               -0.01264524                0.04638026
              -0.15803978                5.91843994              100.09519243                1.00000000               -0.08295945                0.02995470                0.09380941               -0.06389244               -0.00408802               -0.03163266
               0.84113062                5.91360168              100.10088166                1.00000000               -0.11416367                0.00172331                0.19342235               -0.01525497               -0.08063885                0.04080703
               1.83967695                5.90890420              100.10565581                1.00000000               -0.10923407               -0.01869230                0.08162950                0.00306077               -0.10908190                0.04212488
               2.83894594                5.90451206              100.11289887                1.00000000               -0.06198252               -0.03057018                0.06264034               -0.05862175                0.02991404               -0.00913975
               3.83843729                5.89990692              100.12191762                1.00000000                0.00152025                0.03157956                0.01299664               -0.18170477                0.05080801               -0.07196507
               4.83897635                5.89432450              100.13163016                1.00000000                0.10287894                0.10305117               -0.02324982               -0.33005682                0.05977667               -0.05406683
               5.84049487                5.88852970              100.14033828                1.00000000                0.13576163                0.13716493               -0.00493239               -0.04021987                0.08961721                0.08652367
               6.84169158                5.88571752              100.14622921                1.00000000                0.11251732                0.20438744                0.00952612                0.05060601                0.04664127                0.39213349
               7.84274522                5.88273015              100.14980041                1.00000000                0.09102137                0.21541225                0.04100662               -0.13504200               -0.27972555                0.59215127
               8.84351201                5.87546922              100.14500428                1.00000000                0.01441705                0.06963591                0.06035503               -0.18938600               -0.29160027                0.05971722
               9.84303356                5.87115972              100.14588798                1.00000000               -0.04784465                0.02980438                0.02004604               -0.05112713               -0.05825989                0.05254428
              -0.15414142                6.91864789              100.09702895                1.00000000               -0.02221448                0.00482530                0.13111049               -0.09895528               -0.05438057               -0.09155557
               0.84563644                6.91372746              100.10323727                1.00000000               -0.05326179                0.01815296                0.05066457               -0.08211062               -0.01876458                0.02461694
               1.84479335                6.90866169              100.10884878                1.00000000               -0.12803976               -0.03278722                0.19550750                0.01051044               -0.06964669                0.03539804
               2.84307564                6.90433648              100.11478013                1.00000000               -0.11008288               -0.01046800                0.04134982                0.02083232               -0.09501985               -0.00194744
               3.84259169                6.89993142              100.12334312                1.00000000               -0.05992245                0.00529888                0.03167450               -0.01828925                0.05876215               -0.02772682
               4.84187720                6.89544458              100.13367527                1.00000000                0.16278102                0.08194338               -0.00487636               -0.14520169                0.09736728               -0.01278955
               5.84584731                6.88977252              100.14587023                1.00000000                0.20358084                0.11753039                0.00995826                0.04601770                0.39354721                0.04423876
               6.84594881                6.88584701              100.14983179                1.00000000                0.06668969                0.07026415                0.00710746                0.06272112               -0.09482349               -0.09553805
               7.84718111                6.88222368              100.15167587                1.00000000                0.06309015               -0.00670170                0.00809241               -0.06895917               -0.07599760               -0.10311794
               8.84721062                6.87635026              100.15156639                1.00000000               -0.01999704                0.08382377                0.01287420               -0.16910038               -0.07561501               -0.02287995
               9.84678116                6.87177883              100.15345703                1.00000000               -0.04294509                0.05823195               -0.01570853               -0.09294845               -0.04149510                0.07242191
              -0.15017801                7.91853645              100.09793842                1.00000000               -0.03473738               -0.01413284                0.09757696               -0.05894236                0.06048060               -0.13350520
               0.84947461                7.91396474              100.10620329                1.00000000               -0.02719312               -0.00225312                0.16170332               -0.12894873               -0.07755198                0.06447124
               1.84927813                7.90824845              100.11145396                1.00000000               -0.06908778               -0.03594863                0.14817436                0.00566224               -0.11110005                0.05769385
               2.84809286                7.90430270              100.11689485                1.00000000               -0.11573554               -0.01380819                0.07611755                0.09891607               -0.08262900                0.02298749
               3.84696342                7.90001290              100.12481320                1.00000000               -0.09308244                0.00165888                0.06752564                0.06065000                0.01514452               -0.01423156
               4.84623121                7.89596337              100.13470704                1.00000000                0.20246899                0.01590245                0.01245633                0.02219716                0.20645546               -0.01289977
               5.85101280                7.89088031              100.14896192                1.00000000                0.21318195                0.09304997                0.04081879               -0.13743731                0.58810183               -0.27551807
               6.85049485                7.88712280              100.15124245                1.00000000               -0.00750059                0.06435701                0.00786674               -0.07094077               -0.10235791               -0.07231168
               7.85086278                7.88259612              100.15338688                1.00000000                0.00399985                0.00386540                0.00335476               -0.17761867               -0.03747836               -0.03841114
               8.85057485                7.87714570              100.15640813                1.00000000               -0.02726629                0.05452133                0.04477690               -0.17959457               -0.01690363               -0.02221790
               9.85031746                7.87232436              100.15983174                1.00000000               -0.02573887                0.02748710                0.01310755               -0.13406295               -0.01999672                0.08820281
              -0.14617684                8.91836524              100.09922816                1.00000000               -0.04776991               -0.01417792                0.07133112               -0.03094306                0.08308234               -0.07652858
               0.85334547                8.91368239              100.10872824                1.00000000                0.03727350               -0.04759989                0.20080104               -0.08091388               -0.06446813                0.02491822
               1.85456863                8.90794272              100.11536567                1.00000000               -0.00279749               -0.01655179                0.06876766                0.01591428                0.06087740                0.06484781
               2.85328952                8.90406032              100.11905143                1.00000000               -0.12123085               -0.00917076                0.11545057                0.06842859               -0.12212526               -0.01087820
               3.85214402                8.89996460              100.12614493                1.00000000               -0.09178907               -0.00176742                0.08520454                0.07347232                0.02098935               -0.01956824
               4.85145373                8.89576263              100.13483118                1.00000000               -0.01024397               -0.02242136                0.09426570                0.06539451                0.07063403               -0.04835773
               5.85193914                8.89163352              100.14375614                1.00000000                0.06802265                0.01410281                0.06032402               -0.19052398                0.05858905               -0.29143420
               6.85281419                8.88713415              100.15073360                1.00000000                0.08333477               -0.02107316                0.01327678               -0.16914734               -0.02266586               -0.07448060
               7.85360583                8.88230098              100.15598731                1.00000000                0.05381491               -0.02777006                0.04499829               -0.17829987               -0.02179294               -0.01751905
               8.85389049                8.87744069              100.16075774                1.00000000                0.00683774                0.00776363                0.05092944               -0.17755504                0.02722799                0.02585720
               9.85374259                8.87232857              100.16596424                1.00000000               -0.01478971               -0.07998852                0.09236246               -0.25785735                0.05098052                0.35332653
              -0.14143119                9.91825289              100.10132485                1.00000000               -0.02899579               -0.01123443                0.07635983               -0.04945026                0.04760825               -0.02749168
               0.85827886                9.91301274              100.11088200                1.00000000                0.03248357               -0.06696535                0.17333985               -0.02343473               -0.01350006               -0.02052736
               1.85921849                9.90791742              100.11875540                1.00000000               -0.04196526               -0.00253023                0.13955807                0.02031226                0.02808950                0.06303529
               2.85743955                9.90411928              100.12054793                1.00000000               -0.12439653                0.00589625                0.05907512                0.01801048               -0.24503981                0.00422348
               3.85673055                9.89997755              100.12733783                1.00000000               -0.07846878                0.00129560                0.05012943                0.02843688                0.01348963               -0.00213727
               4.85587018                9.89551494              100.13573089                1.00000000               -0.04498814               -0.02476824                0.05929553                0.00088465                0.04276168               -0.01372365
               5.85583079                9.89116236              100.14423430                1.00000000                0.02871327               -0.04711594                0.02029289               -0.05151497                0.05049860               -0.05729595
               6.85644444                9.88670134              100.15222224                1.00000000                0.05797273               -0.04328139               -0.01588404               -0.09305695                0.07316080               -0.04166989
               7.85699025                9.88204072              100.15900481                1.00000000                0.02758588               -0.02602681                0.01262379               -0.13157692                0.08725235               -0.02033911
               8.85699616                9.87730097              100.16551328                1.00000000               -0.08028504               -0.01397188                0.08830371               -0.25523915                0.35462994                0.04894666
               9.85538455                9.87072459              100.17741518                1.00000000               -0.16116125               -0.16039851                0.32255183               -0.49344260                0.37294112                0.37057329
         1          2         13         12        122        123        134        133  
         2          3         14         13        123        124        135        134  
         3          4         15         14        124        125        136        135  
         4          5         16         15        125        126        137        136  
         5          6         17         16        126        127        138        137  
         6          7         18         17        127        128        139        138  
         7          8         19         18        128        129        140        139  
         8          9         20         19        129        130        141        140  
         9         10         21         20        130        131        142        141  
        10         11         22         21        131        132        143        142  
        12         13         24         23        133        134        145        144  
        13         14         25         24        134        135        146        145  
        14         15         26         25        135        136        147        146  
        15         16         27         26        136        137        148        147  
        16         17         28         27        137        138        149        148  
        17         18         29         28        138        139        150        149  
        18         19         30         29        139        140        151        150  
        19         20         31         30        140        141        152        151  
        20         21         32         31        141        142        153        152  
        21         22         33         32        142        143        154        153  
        23         24         35         34        144        145        156        155  
        24         25         36         35        145        146        157        156  
        25         26         37         36        146        147        158        157  
        26         27         38         37        147        148        159        158  
        27         28         39         38        148        149        160        159  
        28         29         40         39        149        150        161        160  
        29         30         41         40        150        151        162        161  
        30         31         42         41        151        152        163        162  
        31         32         43         42        152        153        164        163  
        32         33         44         43        153        154        165        164  
        34         35         46         45        155        156        167        166  
        35         36         47         46        156        157        168        167  
        36         37         48         47        157        158        169        168  
        37         38         49         48        158        159        170        169  
        38         39         50         49        159        160        171        170  
        39         40         51         50        160        161        172        171  
        40         41         52         51        161        162        173        172  
        41         42         53         52        162        163        174        173  
        42         43         54         53        163        164        175        174  
        43         44         55         54        164        165        176        175  
        45         46         57         56        166        167        178        177  
        46         47         58         57        167        168        179        178  
        47         48         59         58        168        169        180        179  
        48         49         60         59        169        170        181        180  
        49         50         61         60        170        171        182        181  
        50         51         62         61        171        172        183        182  
        51         52         63         62        172        173        184        183  
        52         53         64         63        173        174        185        184  
        53         54         65         64        174        175        186        185  
        54         55         66         65        175        176        187        186  
        56         57         68         67        177        178        189        188  
        57         58         69         68        178        179        190        189  
        58         59         70         69        179        180        191        190  
        59         60         71         70        180        181        192        191  
        60         61         72         71        181        182        193        192  
        61         62         73         72        182        183        194        193  
        62         63         74         73        183        184        195        194  
        63         64         75         74        184        185        196        195  
        64         65         76         75        185        186        197        196  
        65         66         77         76        186        187        198        197  
        67         68         79         78        188        189        200        199  
        68         69         80         79        189        190        201        200  
        69         70         81         80        190        191        202        201  
        70         71         82         81        191        192        203        202  
        71         72         83         82        192        193        204        203  
        72         73         84         83        193        194        205        204  
        73         74         85         84        194        195        206        205  
        74         75         86         85        195        196        207        206  
        75         76         87         86        196        197        208        207  
        76         77         88         87        197        198        209        208  
        78         79         90         89        199        200        211        210  
        79         80         91         90        200        201        212        211  
        80         81         92         91        201        202        213        212  
        81         82         93         92        202        203        214        213  
        82         83         94         93        203        204        215        214  
        83         84         95         94        204        205        216        215  
        84         85         96         95        205        206        217        216  
        85         86         97         96        206        207        218        217  
        86         87         98         97        207        208        219        218  
        87         88         99         98        208        209        220        219  
        89         90        101        100        210        211        222        221  
        90         91        102        101        211        212        223        222  
        91         92        103        102        212        213        224        223  
        92         93        104        103        213        214        225        224  
        93         94        105        104        214        215        226        225  
        94         95        106        105        215        216        227        226  
        95         96        107        106        216        217        228        227  
        96         97        108        107        217        218        229        228  
        97         98        109        108        218        219        230        229  
        98         99        110        109        219        220        231        230  
       100        101        112        111        221        222        233        232  
       101        102        113        112        222        223        234        233  
       102        103        114        113        223        224        235        234  
       103        104        115        114        224        225        236        235  
       104        105        116        115        225        226        237        236  
       105        106        117        116        226        227        238        237  
       106        107        118        117        227        228        239        238  
       107        108        119        118        228        229        240        239  
       108        109        120        119        229        230        241        240  
       109        110        121        120        230        231        242        241  
       122        123        134        133        243        244        255        254  
       123        124        135        134        244        245        256        255  
       124        125        136        135        245        246        257        256  
       125        126        137        136        246        247        258        257  
       126        127        138        137        247        248        259        258  
       127        128        139        138        248        249        260        259  
       128        129        140        139        249        250        261        260  
       129        130        141        140        250        251        262        261  
       130        131        142        141        251        252        263        262  
       131        132        143        142        252        253        264        263  
       133        134        145        144        254        255        266        265  
       134        135        146        145        255        256        267        266  
       135        136        147        146        256        257        268        267  
       136        137        148        147        257        258        269        268  
       137        138        149        148        258        259        270        269  
       138        139        150        149        259        260        271        270  
       139        140        151        150        260        261        272        271  
       140        141        152        151        261        262        273        272  
       141        142        153        152        262        263        274        273  
       142        143        154        153        263        264        275        274  
       144        145        156        155        265        266        277        276  
       145        146        157        156        266        267        278        277  
       146        147        158        157        267        268        279        278  
       147        148        159        158        268        269        280        279  
       148        149        160        159        269        270        281        280  
       149        150        161        160        270        271        282        281  
       150        151        162        161        271        272        283        282  
       151        152        163        162        272        273        284        283  
       152        153        164        163        273        274        285        284  
       153        154        165        164        274        275        286        285  
       155        156        167        166        276        277        288        287  
       156        157        168        167        277        278        289        288  
       157        158        169        168        278        279        290        289  
       158        159        170        169        279        280        291        290  
       159        160        171        170        280        281        292        291  
       160        161        172        171        281        282        293        292  
       161        162        173        172        282        283        294        293  
       162        163        174        173        283        284        295        294  
       163        164        175        174        284        285        296        295  
       164        165        176        175        285        286        297        296  
       166        167        178        177        287        288        299        298  
       167        168        179        178        288        289        300        299  
       168        169        180        179        289        290        301        300  
       169        170        181        180        290        291        302        301  
       170        171        182        181        291        292        303        302  
       171        172        183        182        292        293        304        303  
       172        173        184        183        293        294        305        304  
       173        174        185        184        294        295        306        305  
       174        175        186        185        295        296        307        306  
       175        176        187        186        296        297        308        307  
       177        178        189        188        298        299        310        309  
       178        179        190        189        299        300        311        310  
       179        180        191        190        300        301        312        311  
       180        181        192        191        301        302        313        312  
       181        182        193        192        302        303        314        313  
       182        183        194        193        303        304        315        314  
       183        184        195        194        304        305        316        315  
       184        185        196        195        305        306        317        316  
       185        186        197        196        306        307        318        317  
       186        187        198        197        307        308        319        318  
       188        189        200        199        309        310        321        320  
       189        190        201        200        310        311        322        321  
       190        191        202        201        311        312        323        322  
       191        192        203        202        312        313        324        323  
       192        193        204        203        313        314        325        324  
       193        194        205        204        314        315        326        325  
       194        195        206        205        315        316        327        326  
       195        196        207        206        316        317        328        327  
       196        197        208        207        317        318        329        328  
       197        198        209        208        318        319        330        329  
       199        200        211        210        320        321        332        331  
       200        201        212        211        321        322        333        332  
       201        202        213        212        322        323        334        333  
       202        203        214        213        323        324        335        334  
       203        204        215        214        324        325        336        335  
       204        205        216        215        325        326        337        336  
       205        206        217        216        326        327        338        337  
       206        207        218        217        327        328        339        338  
       207        208        219        218        328        329        340        339  
       208        209        220        219        329        330        341        340  
       210        211        222        221        331        332        343        342  
       211        212        223        222        332        333        344        343  
       212        213        224        223        333        334        345        344  
       213        214        225        224        334        335        346        345  
       214        215        226        225        335        336        347        346  
       215        216        227        226        336        337        348        347  
       216        217        228        227        337        338        349        348  
       217        218        229        228        338        339        350        349  
       218        219        230        229        339        340        351        350  
       219        220        231        230        340        341        352        351  
       221        222        233        232        342        343        354        353  
       222        223        234        233        343        344        355        354  
       223        224        235        234        344        345        356        355  
       224        225        236        235        345        346        357        356  
       225        226        237        236        346        347        358        357  
       226        227        238        237        347        348        359        358  
       227        228        239        238        348        349        360        359  
       228        229        240        239        349        350        361        360  
       229        230        241        240        350        351        362        361  
       230        231        242        241        351        352        363        362  
       243        244        255        254        364        365        376        375  
       244        245        256        255        365        366        377        376  
       245        246        257        256        366        367        378        377  
       246        247        258        257        367        368        379        378  
       247        248        259        258        368        369        380        379  
       248        249        260        259        369        370        381        380  
       249        250        261        260        370        371        382        381  
       250        251        262        261        371        372        383        382  
       251        252        263        262        372        373        384        383  
       252        253        264        263        373        374        385        384  
       254        255        266        265        375        376        387        386  
       255        256        267        266        376        377        388        387  
       256        257        268        267        377        378        389        388  
       257        258        269        268        378        379        390        389  
       258        259        270        269        379        380        391        390  
       259        260        271        270        380        381        392        391  
       260        261        272        271        381        382        393        392  
       261        262        273        272        382        383        394        393  
       262        263        274        273        383        384        395        394  
       263        264        275        274        384        385        396        395  
       265        266        277        276        386        387        398        397  
       266        267        278        277        387        388        399        398  
       267        268        279        278        388        389        400        399  
       268        269        280        279        389        390        401        400  
       269        270        281        280        390        391        402        401  
       270        271        282        281        391        392        403        402  
       271        272        283        282        392        393        404        403  
       272        273        284        283        393        394        405        404  
       273        274        285        284        394        395        406        405  
       274        275        286        285        395        396        407        406  
       276        277        288        287        397        398        409        408  
       277        278        289        288        398        399        410        409  
       278        279        290        289        399        400        411        410  
       279        280        291        290        400        401        412        411  
       280        281        292        291        401        402        413        412  
       281        282        293        292        402        403        414        413  
       282        283        294        293        403        404        415        414  
       283        284        295        294        404        405        416        415  
       284        285        296        295        405        406        417        416  
       285        286        297        296        406        407        418        417  
       287        288        299        298        408        409        420        419  
       288        289        300        299        409        410        421        420  
       289        290        301        300        410        411        422        421  
       290        291        302        301        411        412        423        422  
       291        292        303        302        412        413        424        423  
       292        293        304        303        413        414        425        424  
       293        294        305        304        414        415        426        425  
       294        295        306        305        415        416        427        426  
       295        296        307        306        416        417        428        427  
       296        297        308        307        417        418        429        428  
       298        299        310        309        419        420        431        430  
       299        300        311        310        420        421        432        431  
       300        301        312        311        421        422        433        432  
       301        302        313        312        422        423        434        433  
       302        303        314        313        423        424        435        434  
       303        304        315        314        424        425        436        435  
       304        305        316        315        425        426        437        436  
       305        306        317        316        426        427        438        437  
       306        307        318        317        427        428        439        438  
       307        308        319        318        428        429        440        439  
       309        310        321        320        430        431        442        441  
       310        311        322        321        431        432        443        442  
       311        312        323        322        432        433        444        443  
       312        313        324        323        433        434        445        444  
       313        314        325        324        434        435        446        445  
       314        315        326        325        435        436        447        446  
       315        316        327        326        436        437        448        447  
       316        317        328        327        437        438        449        448  
       317        318        329        328        438        439        450        449  
       318        319        330        329        439        440        451        450  
       320        321        332        331        441        442        453        452  
       321        322        333        332        442        443        454        453  
       322        323        334        333        443        444        455        454  
       323        324        335        334        444        445        456        455  
       324        325        336        335        445        446        457        456  
       325        326        337        336        446        447        458        457  
       326        327        338        337        447        448        459        458  
       327        328        339        338        448        449        460        459  
       328        329        340        339        449        450        461        460  
       329        330        341        340        450        451        462        461  
       331        332        343        342        452        453        464        463  
       332        333        344        343        453        454        465        464  
       333        334        345        344        454        455        466        465  
       334        335        346        345        455        456        467        466  
       335        336        347        346        456        457        468        467  
       336        337        348        347        457        458        469        468  
       337        338        349        348        458        459        470        469  
       338        339        350        349        459        460        471        470  
       339        340        351        350        460        461        472        471  
       340        341        352        351        461        462        473        472  
       342        343        354        353        463        464        475        474  
       343        344        355        354        464        465        476        475  
       344        345        356        355        465        466        477        476  
       345        346        357        356        466        467        478        477  
       346        347        358        357        467        468        479        478  
       347        348        359        358        468        469        480        479  
       348        349        360        359        469        470        481        480  
       349        350        361        360        470        471        482        481  
       350        351        362        361        471        472        483        482  
       351        352        363        362        472        473        484        483  
       364        365        376        375        485        486        497        496  
       365        366        377        376        486        487        498        497  
       366        367        378        377        487        488        499        498  
       367        368        379        378        488        489        500        499  
       368        369        380        379        489        490        501        500  
       369        370        381        380        490        491        502        501  
       370        371        382        381        491        492        503        502  
       371        372        383        382        492        493        504        503  
       372        373        384        383        493        494        505        504  
       373        374        385        384        494        495        506        505  
       375        376        387        386        496        497        508        507  
       376        377        388        387        497        498        509        508  
       377        378        389        388        498        499        510        509  
       378        379        390        389        499        500        511        510  
       379        380        391        390        500        501        512        511  
       380        381        392        391        501        502        513        512  
       381        382        393        392        502        503        514        513  
       382        383        394        393        503        504        515        514  
       383        384        395        394        504        505        516        515  
       384        385        396        395        505        506        517        516  
       386        387        398        397        507        508        519        518  
       387        388        399        398        508        509        520        519  
       388        389        400        399        509        510        521        520  
       389        390        401        400        510        511        522        521  
       390        391        402        401        511        512        523        522  
       391        392        403        402        512        513        524        523  
       392        393        404        403        513        514        525        524  
       393        394        405        404        514        515        526        525  
       394        395        406        405        515        516        527        526  
       395        396        407        406        516        517        528        527  
       397        398        409        408        518        519        530        529  
       398        399        410        409        519        520        531        530  
       399        400        411        410        520        521        532        531  
       400        401        412        411        521        522        533        532  
       401        402        413        412        522        523        534        533  
       402        403        414        413        523        524        535        534  
       403        404        415        414        524        525        536        535  
       404        405        416        415        525        526        537        536  
       405        406        417        416        526        527        538        537  
       406        407        418        417        527        528        539        538  
       408        409        420        419        529        530        541        540  
       409        410        421        420        530        531        542        541  
       410        411        422        421        531        532        543        542  
       411        412        423        422        532        533        544        543  
       412        413        424        423        533        534        545        544  
       413        414        425        424        534        535        546        545  
       414        415        426        425        535        536        547        546  
       415        416        427        426        536        537        548        547  
       416        417        428        427        537        538        549        548  
       417        418        429        428        538        539        550        549  
       419        420        431        430        540        541        552        551  
       420        421        432        431        541        542        553        552  
       421        422        433        432        542        543        554        553  
       422        423        434        433        543        544        555        554  
       423        424        435        434        544        545        556        555  
       424        425        436        435        545        546        557        556  
       425        426        437        436        546        547        558        557  
       426        427        438        437        547        548        559        558  
       427        428        439        438        548        549        560        559  
       428        429        440        439        549        550        561        560  
       430        431        442        441        551        552        563        562  
       431        432        443        442        552        553        564        563  
       432        433        444        443        553        554        565        564  
       433        434        445        444        554        555        566        565  
       434        435        446        445        555        556        567        566  
       435        436        447        446        556        557        568        567  
       436        437        448        447        557        558        569        568  
       437        438        449        448        558        559        570        569  
       438        439        450        449        559        560        571        570  
       439        440        451        450        560        561        572        571  
       441        442        453        452        562        563        574        573  
       442        443        454        453        563        564        575        574  
       443        444        455        454        564        565        576        575  
       444        445        456        455        565        566        577        576  
       445        446        457        456        566        567        578        577  
       446        447        458        457        567        568        579        578  
       447        448        459        458        568        569        580        579  
       448        449        460        459        569        570        581        580  
       449        450        461        460        570        571        582        581  
       450        451        462        461        571        572        583        582  
       452        453        464        463        573        574        585        584  
       453        454        465        464        574        575        586        585  
       454        455        466        465        575        576        587        586  
       455        456        467        466        576        577        588        587  
       456        457        468        467        577        578        589        588  
       457        458        469        468        578        579        590        589  
       458        459        470        469        579        580        591        590  
       459        460        471        470        580        581        592        591  
       460        461        472        471        581        582        593        592  
       461        462        473        472        582        583        594        593  
       463        464        475        474        584        585        596        595  
       464        465        476        475        585        586        597        596  
       465        466        477        476        586        587        598        597  
       466        467        478        477        587        588        599        598  
       467        468        479        478        588        589        600        599  
       468        469        480        479        589        590        601        600  
       469        470        481        480        590        591        602        601  
       470        471        482        481        591        592        603        602  
       471        472        483        482        592        593        604        603  
       472        473        484        483        593        594        605        604  
       485        486        497        496        606        607        618        617  
       486        487        498        497        607        608        619        618  
       487        488        499        498        608        609        620        619  
       488        489        500        499        609        610        621        620  
       489        490        501        500        610        611        622        621  
       490        491        502        501        611        612        623        622  
       491        492        503        502        612        613        624        623  
       492        493        504        503        613        614        625        624  
       493        494        505        504        614        615        626        625  
       494        495        506        505        615        616        627        626  
       496        497        508        507        617        618        629        628  
       497        498        509        508        618        619        630        629  
       498        499        510        509        619        620        631        630  
       499        500        511        510        620        621        632        631  
       500        501        512        511        621        622        633        632  
       501        502        513        512        622        623        634        633  
       502        503        514        513        623        624        635        634  
       503        504        515        514        624        625        636        635  
       504        505        516        515        625        626        637        636  
       505        506        517        516        626        627        638        637  
       507        508        519        518        628        629        640        639  
       508        509        520        519        629        630        641        640  
       509        510        521        520        630        631        642        641  
       510        511        522        521        631        632        643        642  
       511        512        523        522        632        633        644        643  
       512        513        524        523        633        634        645        644  
       513        514        525        524        634        635        646        645  
       514        515        526        525        635        636        647        646  
       515        516        527        526        636        637        648        647  
       516        517        528        527        637        638        649        648  
       518        519        530        529        639        640        651        650  
       519        520        531        530        640        641        652        651  
       520        521        532        531        641        642        653        652  
       521        522        533        532        642        643        654        653  
       522        523        534        533        643        644        655        654  
       523        524        535        534        644        645        656        655  
       524        525        536        535        645        646        657        656  
       525        526        537        536        646        647        658        657  
       526        527        538        537        647        648        659        658  
       527        528        539        538        648        649        660        659  
       529        530        541        540        650        651        662        661  
       530        531        542        541        651        652        663        662  
       531        532        543        542        652        653        664        663  
       532        533        544        543        653        654        665        664  
       533        534        545        544        654        655        666        665  
       534        535        546        545        655        656        667        666  
       535        536        547        546        656        657        668        667  
       536        537        548        547        657        658        669        668  
       537        538        549        548        658        659        670        669  
       538        539        550        549        659        660        671        670  
       540        541        552        551        661        662        673        672  
       541        542        553        552        662        663        674        673  
       542        543        554        553        663        664        675        674  
       543        544        555        554        664        665        676        675  
       544        545        556        555        665        666        677        676  
       545        546        557        556        666        667        678        677  
       546        547        558        557        667        668        679        678  
       547        548        559        558        668        669        680        679  
       548        549        560        559        669        670        681        680  
       549        550        561        560        670        671        682        681  
       551        552        563        562        672        673        684        683  
       552        553        564        563        673        674        685        684  
       553        554        565        564        674        675        686        685  
       554        555        566        565        675        676        687        686  
       555        556        567        566        676        677        688        687  
       556        557        568        567        677        678        689        688  
       557        558        569        568        678        679        690        689  
       558        559        570        569        679        680        691        690  
       559        560        571        570        680        681        692        691  
       560        561        572        571        681        682        693        692  
       562        563        574        573        683        684        695        694  
       563        564        575        574        684        685        696        695  
       564        565        576        575        685        686        697        696  
       565        566        577        576        686        687        698        697  
       566        567        578        577        687        688        699        698  
       567        568        579        578        688        689        700        699  
       568        569        580        579        689        690        701        700  
       569        570        581        580        690        691        702        701  
       570        571        582        581        691        692        703        702  
       571        572        583        582        692        693        704        703  
       573        574        585        584        694        695        706        705  
       574        575        586        585        695        696        707        706  
       575        576        587        586        696        697        708        707  
       576        577        588        587        697        698        709        708  
       577        578        589        588        698        699        710        709  
       578        579        590        589        699        700        711        710  
       579        580        591        590        700        701        712        711  
       580        581        592        591        701        702        713        712  
       581        582        593        592        702        703        714        713  
       582        583        594        593        703        704        715        714  
       584        585        596        595        705        706        717        716  
       585        586        597        596        706        707        718        717  
       586        587        598        597        707        708        719        718  
       587        588        599        598        708        709        720        719  
       588        589        600        599        709        710        721        720  
       589        590        601        600        710        711        722        721  
       590        591        602        601        711        712        723        722  
       591        592        603        602        712        713        724        723  
       592        593        604        603        713        714        725        724  
       593        594        605        604        714        715        726        725  
       606        607        618        617        727        728        739        738  
       607        608        619        618        728        729        740        739  
       608        609        620        619        729        730        741        740  
       609        610        621        620        730        731        742        741  
       610        611        622        621        731        732        743        742  
       611        612        623        622        732        733        744        743  
       612        613        624        623        733        734        745        744  
       613        614        625        624        734        735        746        745  
       614        615        626        625        735        736        747        746  
       615        616        627        626        736        737        748        747  
       617        618        629        628        738        739        750        749  
       618        619        630        629        739        740        751        750  
       619        620        631        630        740        741        752        751  
       620        621        632        631        741        742        753        752  
       621        622        633        632        742        743        754        753  
       622        623        634        633        743        744        755        754  
       623        624        635        634        744        745        756        755  
       624        625        636        635        745        746        757        756  
       625        626        637        636        746        747        758        757  
       626        627        638        637        747        748        759        758  
       628        629        640        639        749        750        761        760  
       629        630        641        640        750        751        762        761  
       630        631        642        641        751        752        763        762  
       631        632        643        642        752        753        764        763  
       632        633        644        643        753        754        765        764  
       633        634        645        644        754        755        766        765  
       634        635        646        645        755        756        767        766  
       635        636        647        646        756        757        768        767  
       636        637        648        647        757        758        769        768  
       637        638        649        648        758        759        770        769  
       639        640        651        650        760        761        772        771  
       640        641        652        651        761        762        773        772  
       641        642        653        652        762        763        774        773  
       642        643        654        653        763        764        775        774  
       643        644        655        654        764        765        776        775  
       644        645        656        655        765        766        777        776  
       645        646        657        656        766        767        778        777  
       646        647        658        657        767        768        779        778  
       647        648        659        658        768        769        780        779  
       648        649        660        659        769        770        781        780  
       650        651        662        661        771        772        783        782  
       651        652        663        662        772        773        784        783  
       652        653        664        663        773        774        785        784  
       653        654        665        664        774        775        786        785  
       654        655        666        665        775        776        787        786  
       655        656        667        666        776        777        788        787  
       656        657        668        667        777        778        789        788  
       657        658        669        668        778        779        790        789  
       658        659        670        669        779        780        791        790  
       659        660        671        670        780        781        792        791  
       661        662        673        672        782        783        794        793  
       662        663        674        673        783        784        795        794  
       663        664        675        674        784        785        796        795  
       664        665        676        675        785        786        797        796  
       665        666        677        676        786        787        798        797  
       666        667        678        677        787        788        799        798  
       667        668        679        678        788        789        800        799  
       668        669        680        679        789        790        801        800  
       669        670        681        680        790        791        802        801  
       670        671        682        681        791        792        803        802  
       672        673        684        683        793        794        805        804  
       673        674        685        684        794        795        806        805  
       674        675        686        685        795        796        807        806  
       675        676        687        686        796        797        808        807  
       676        677        688        687        797        798        809        808  
       677        678        689        688        798        799        810        809  
       678        679        690        689        799        800        811        810  
       679        680        691        690        800        801        812        811  
       680        681        692        691        801        802        813        812  
       681        682        693        692        802        803        814        813  
       683        684        695        694        804        805        816        815  
       684        685        696        695        805        806        817        816  
       685        686        697        696        806        807        818        817  
       686        687        698        697        807        808        819        818  
       687        688        699        698        808        809        820        819  
       688        689        700        699        809        810        821        820  
       689        690        701        700        810        811        822        821  
       690        691        702        701        811        812        823        822  
       691        692        703        702        812        813        824        823  
       692        693        704        703        813        814        825        824  
       694        695        706        705        815        816        827        826  
       695        696        707        706        816        817        828        827  
       696        697        708        707        817        818        829        828  
       697        698        709        708        818        819        830        829  
       698        699        710        709        819        820        831        830  
       699        700        711        710        820        821        832        831  
       700        701        712        711        821        822        833        832  
       701        702        713        712        822        823        834        833  
       702        703        714        713        823        824        835        834  
       703        704        715        714        824        825        836        835  
       705        706        717        716        826        827        838        837  
       706        707        718        717        827        828        839        838  
       707        708        719        718        828        829        840        839  
       708        709        720        719        829        830        841        840  
       709        710        721        720        830        831        842        841  
       710        711        722        721        831        832        843        842  
       711        712        723        722        832        833        844        843  
       712        713        724        723        833        834        845        844  
       713        714        725        724        834        835        846        845  
       714        715        726        725        835        836        847        846  
       727        728        739        738        848        849        860        859  
       728        729        740        739        849        850        861        860  
       729        730        741        740        850        851        862        861  
       730        731        742        741        851        852        863        862  
       731        732        743        742        852        853        864        863  
       732        733        744        743        853        854        865        864  
       733        734        745        744        854        855        866        865  
       734        735        746        745        855        856        867        866  
       735        736        747        746        856        857        868        867  
       736        737        748        747        857        858        869        868  
       738        739        750        749        859        860        871        870  
       739        740        751        750        860        861        872        871  
       740        741        752        751        861        862        873        872  
       741        742        753        752        862        863        874        873  
       742        743        754        753        863        864        875        874  
       743        744        755        754        864        865        876        875  
       744        745        756        755        865        866        877        876  
       745        746        757        756        866        867        878        877  
       746        747        758        757        867        868        879        878  
       747        748        759        758        868        869        880        879  
       749        750        761        760        870        871        882        881  
       750        751        762        761        871        872        883        882  
       751        752        763        762        872        873        884        883  
       752        753        764        763        873        874        885        884  
       753        754        765        764        874        875        886        885  
       754        755        766        765        875        876        887        886  
       755        756        767        766        876        877        888        887  
       756        757        768        767        877        878        889        888  
       757        758        769        768        878        879        890        889  
       758        759        770        769        879        880        891        890  
       760        761        772        771        881        882        893        892  
       761        762        773        772        882        883        894        893  
       762        763        774        773        883        884        895        894  
       763        764        775        774        884        885        896        895  
       764        765        776        775        885        886        897        896  
       765        766        777        776        886        887        898        897  
       766        767        778        777        887        888        899        898  
       767        768        779        778        888        889        900        899  
       768        769        780        779        889        890        901        900  
       769        770        781        780        890        891        902        901  
       771        772        783        782        892        893        904        903  
       772        773        784        783        893        894        905        904  
       773        774        785        784        894        895        906        905  
       774        775        786        785        895        896        907        906  
       775        776        787        786        896        897        908        907  
       776        777        788        787        897        898        909        908  
       777        778        789        788        898        899        910        909  
       778        779        790        789        899        900        911        910  
       779        780        791        790        900        901        912        911  
       780        781        792        791        901        902        913        912  
       782        783        794        793        903        904        915        914  
       783        784        795        794        904        905        916        915  
       784        785        796        795        905        906        917        916  
       785        786        797        796        906        907        918        917  
       786        787        798        797        907        908        919        918  
       787        788        799        798        908        909        920        919  
       788        789        800        799        909        910        921        920  
       789        790        801        800        910        911        922        921  
       790        791        802        801        911        912        923        922  
       791        792        803        802        912        913        924        923  
       793        794        805        804        914        915        926        925  
       794        795        806        805        915        916        927        926  
       795        796        807        806        916        917        928        927  
       796        797        808        807        917        918        929        928  
       797        798        809        808        918        919        930        929  
       798        799        810        809        919        920        931        930  
       799        800        811        810        920        921        932        931  
       800        801        812        811        921        922        933        932  
       801        802        813        812        922        923        934        933  
       802        803        814        813        923        924        935        934  
       804        805        816        815        925        926        937        936  
       805        806        817        816        926        927        938        937  
       806        807        818        817        927        928        939        938  
       807        808        819        818        928        929        940        939  
       808        809        820        819        929        930        941        940  
       809        810        821        820        930        931        942        941  
       810        811        822        821        931        932        943        942  
       811        812        823        822        932        933        944        943  
       812        813        824        823        933        934        945        944  
       813        814        825        824        934        935        946        945  
       815        816        827        826        936        937        948        947  
       816        817        828        827        937        938        949        948  
       817        818        829        828        938        939        950        949  
       818        819        830        829        939        940        951        950  
       819        820        831        830        940        941        952        951  
       820        821        832        831        941        942        953        952  
       821        822        833        832        942        943        954        953  
       822        823        834        833        943        944        955        954  
       823        824        835        834        944        945        956        955  
       824        825        836        835        945        946        957        956  
       826        827        838        837        947        948        959        958  
       827        828        839        838        948        949        960        959  
       828        829        840        839        949        950        961        960  
       829        830        841        840        950        951        962        961  
       830        831        842        841        951        952        963        962  
       831        832        843        842        952        953        964        963  
       832        833        844        843        953        954        965        964  
       833        834        845        844        954        955        966        965  
       834        835        846        845        955        956        967        966  
       835        836        847        846        956        957        968        967  
       848        849        860        859        969        970        981        980  
       849        850        861        860        970        971        982        981  
       850        851        862        861        971        972        983        982  
       851        852        863        862        972        973        984        983  
       852        853        864        863        973        974        985        984  
       853        854        865        864        974        975        986        985  
       854        855        866        865        975        976        987        986  
       855        856        867        866        976        977        988        987  
       856        857        868        867        977        978        989        988  
       857        858        869        868        978        979        990        989  
       859        860        871        870        980        981        992        991  
       860        861        872        871        981        982        993        992  
       861        862        873        872        982        983        994        993  
       862        863        874        873        983        984        995        994  
       863        864        875        874        984        985        996        995  
       864        865        876        875        985        986        997        996  
       865        866        877        876        986        987        998        997  
       866        867        878        877        987        988        999        998  
       867        868        879        878        988        989       1000        999  
       868        869        880        879        989        990       1001       1000  
       870        871        882        881        991        992       1003       1002  
       871        872        883        882        992        993       1004       1003  
       872        873        884        883        993        994       1005       1004  
       873        874        885        884        994        995       1006       1005  
       874        875        886        885        995        996       1007       1006  
       875        876        887        886        996        997       1008       1007  
       876        877        888        887        997        998       1009       1008  
       877        878        889        888        998        999       1010       1009  
       878        879        890        889        999       1000       1011       1010  
       879        880        891        890       1000       1001       1012       1011  
       881        882        893        892       1002       1003       1014       1013  
       882        883        894        893       1003       1004       1015       1014  
       883        884        895        894       1004       1005       1016       1015  
       884        885        896        895       1005       1006       1017       1016  
       885        886        897        896       1006       1007       1018       1017  
       886        887        898        897       1007       1008       1019       1018  
       887        888        899        898       1008       1009       1020       1019  
       888        889        900        899       1009       1010       1021       1020  
       889        890        901        900       1010       1011       1022       1021  
       890        891        902        901       1011       1012       1023       1022  
       892        893        904        903       1013       1014       1025       1024  
       893        894        905        904       1014       1015       1026       1025  
       894        895        906        905       1015       1016       1027       1026  
       895        896        907        906       1016       1017       1028       1027  
       896        897        908        907       1017       1018       1029       1028  
       897        898        909        908       1018       1019       1030       1029  
       898        899        910        909       1019       1020       1031       1030  
       899        900        911        910       1020       1021       1032       1031  
       900        901        912        911       1021       1022       1033       1032  
       901        902        913        912       1022       1023       1034       1033  
       903        904        915        914       1024       1025       1036       1035  
       904        905        916        915       1025       1026       1037       1036  
       905        906        917        916       1026       1027       1038       1037  
       906        907        918        917       1027       1028       1039       1038  
       907        908        919        918       1028       1029       1040       1039  
       908        909        920        919       1029       1030       1041       1040  
       909        910        921        920       1030       1031       1042       1041  
       910        911        922        921       1031       1032       1043       1042  
       911        912        923        922       1032       1033       1044       1043  
       912        913        924        923       1033       1034       1045       1044  
       914        915        926        925       1035       1036       1047       1046  
       915        916        927        926       1036       1037       1048       1047  
       916        917        928        927       1037       1038       1049       1048  
       917        918        929        928       1038       1039       1050       1049  
       918        919        930        929       1039       1040       1051       1050  
       919        920        931        930       1040       1041       1052       1051  
       920        921        932        931       1041       1042       1053       1052  
       921        922        933        932       1042       1043       1054       1053  
       922        923        934        933       1043       1044       1055       1054  
       923        924        935        934       1044       1045       1056       1055  
       925        926        937        936       1046       1047       1058       1057  
       926        927        938        937       1047       1048       1059       1058  
       927        928        939        938       1048       1049       1060       1059  
       928        929        940        939       1049       1050       1061       1060  
       929        930        941        940       1050       1051       1062       1061  
       930        931        942        941       1051       1052       1063       1062  
       931        932        943        942       1052       1053       1064       1063  
       932        933        944        943       1053       1054       1065       1064  
       933        934        945        944       1054       1055       1066       1065  
       934        935        946        945       1055       1056       1067       1066  
       936        937        948        947       1057       1058       1069       1068  
       937        938        949        948       1058       1059       1070       1069  
       938        939        950        949       1059       1060       1071       1070  
       939        940        951        950       1060       1061       1072       1071  
       940        941        952        951       1061       1062       1073       1072  
       941        942        953        952       1062       1063       1074       1073  
       942        943        954        953       1063       1064       1075       1074  
       943        944        955        954       1064       1065       1076       1075  
       944        945        956        955       1065       1066       1077       1076  
       945        946        957        956       1066       1067       1078       1077  
       947        948        959        958       1068       1069       1080       1079  
       948        949        960        959       1069       1070       1081       1080  
       949        950        961        960       1070       1071       1082       1081  
       950        951        962        961       1071       1072       1083       1082  
       951        952        963        962       1072       1073       1084       1083  
       952        953        964        963       1073       1074       1085       1084  
       953        954        965        964       1074       1075       1086       1085  
       954        955        966        965       1075       1076       1087       1086  
       955        956        967        966       1076       1077       1088       1087  
       956        957        968        967       1077       1078       1089       1088  
       969        970        981        980       1090       1091       1102       1101  
       970        971        982        981       1091       1092       1103       1102  
       971        972        983        982       1092       1093       1104       1103  
       972        973        984        983       1093       1094       1105       1104  
       973        974        985        984       1094       1095       1106       1105  
       974        975        986        985       1095       1096       1107       1106  
       975        976        987        986       1096       1097       1108       1107  
       976        977        988        987       1097       1098       1109       1108  
       977        978        989        988       1098       1099       1110       1109  
       978        979        990        989       1099       1100       1111       1110  
       980        981        992        991       1101       1102       1113       1112  
       981        982        993        992       1102       1103       1114       1113  
       982        983        994        993       1103       1104       1115       1114  
       983        984        995        994       1104       1105       1116       1115  
       984        985        996        995       1105       1106       1117       1116  
       985        986        997        996       1106       1107       1118       1117  
       986        987        998        997       1107       1108       1119       1118  
       987        988        999        998       1108       1109       1120       1119  
       988        989       1000        999       1109       1110       1121       1120  
       989        990       1001       1000       1110       1111       1122       1121  
       991        992       1003       1002       1112       1113       1124       1123  
       992        993       1004       1003       1113       1114       1125       1124  
       993        994       1005       1004       1114       1115       1126       1125  
       994        995       1006       1005       1115       1116       1127       1126  
       995        996       1007       1006       1116       1117       1128       1127  
       996        997       1008       1007       1117       1118       1129       1128  
       997        998       1009       1008       1118       1119       1130       1129  
       998        999       1010       1009       1119       1120       1131       1130  
       999       1000       1011       1010       1120       1121       1132       1131  
      1000       1001       1012       1011       1121       1122       1133       1132  
      1002       1003       1014       1013       1123       1124       1135       1134  
      1003       1004       1015       1014       1124       1125       1136       1135  
      1004       1005       1016       1015       1125       1126       1137       1136  
      1005       1006       1017       1016       1126       1127       1138       1137  
      1006       1007       1018       1017       1127       1128       1139       1138  
      1007       1008       1019       1018       1128       1129       1140       1139  
      1008       1009       1020       1019       1129       1130       1141       1140  
      1009       1010       1021       1020       1130       1131       1142       1141  
      1010       1011       1022       1021       1131       1132       1143       1142  
      1011       1012       1023       1022       1132       1133       1144       1143  
      1013       1014       1025       1024       1134       1135       1146       1145  
      1014       1015       1026       1025       1135       1136       1147       1146  
      1015       1016       1027       1026       1136       1137       1148       1147  
      1016       1017       1028       1027       1137       1138       1149       1148  
      1017       1018       1029       1028       1138       1139       1150       1149  
      1018       1019       1030       1029       1139       1140       1151       1150  
      1019       1020       1031       1030       1140       1141       1152       1151  
      1020       1021       1032       1031       1141       1142       1153       1152  
      1021       1022       1033       1032       1142       1143       1154       1153  
      1022       1023       1034       1033       1143       1144       1155       1154  
      1024       1025       1036       1035       1145       1146       1157       1156  
      1025       1026       1037       1036       1146       1147       1158       1157  
      1026       1027       1038       1037       1147       1148       1159       1158  
      1027       1028       1039       1038       1148       1149       1160       1159  
      1028       1029       1040       1039       1149       1150       1161       1160  
      1029       1030       1041       1040       1150       1151       1162       1161  
      1030       1031       1042       1041       1151       1152       1163       1162  
      1031       1032       1043       1042       1152       1153       1164       1163  
      1032       1033       1044       1043       1153       1154       1165       1164  
      1033       1034       1045       1044       1154       1155       1166       1165  
      1035       1036       1047       1046       1156       1157       1168       1167  
      1036       1037       1048       1047       1157       1158       1169       1168  
      1037       1038       1049       1048       1158       1159       1170       1169  
      1038       1039       1050       1049       1159       1160       1171       1170  
      1039       1040       1051       1050       1160       1161       1172       1171  
      1040       1041       1052       1051       1161       1162       1173       1172  
      1041       1042       1053       1052       1162       1163       1174       1173  
      1042       1043       1054       1053       1163       1164       1175       1174  
      1043       1044       1055       1054       1164       1165       1176       1175  
      1044       1045       1056       1055       1165       1166       1177       1176  
      1046       1047       1058       1057       1167       1168       1179       1178  
      1047       1048       1059       1058       1168       1169       1180       1179  
      1048       1049       1060       1059       1169       1170       1181       1180  
      1049       1050       1061       1060       1170       1171       1182       1181  
      1050       1051       1062       1061       1171       1172       1183       1182  
      1051       1052       1063       1062       1172       1173       1184       1183  
      1052       1053       1064       1063       1173       1174       1185       1184  
      1053       1054       1065       1064       1174       1175       1186       1185  
      1054       1055       1066       1065       1175       1176       1187       1186  
      1055       1056       1067       1066       1176       1177       1188       1187  
      1057       1058       1069       1068       1178       1179       1190       1189  
      1058       1059       1070       1069       1179       1180       1191       1190  
      1059       1060       1071       1070       1180       1181       1192       1191  
      1060       1061       1072       1071       1181       1182       1193       1192  
      1061       1062       1073       1072       1182       1183       1194       1193  
      1062       1063       1074       1073       1183       1184       1195       1194  
      1063       1064       1075       1074       1184       1185       1196       1195  
      1064       1065       1076       1075       1185       1186       1197       1196  
      1065       1066       1077       1076       1186       1187       1198       1197  
      1066       1067       1078       1077       1187       1188       1199       1198  
      1068       1069       1080       1079       1189       1190       1201       1200  
      1069       1070       1081       1080       1190       1191       1202       1201  
      1070       1071       1082       1081       1191       1192       1203       1202  
      1071       1072       1083       1082       1192       1193       1204       1203  
      1072       1073       1084       1083       1193       1194       1205       1204  
      1073       1074       1085       1084       1194       1195       1206       1205  
      1074       1075       1086       1085       1195       1196       1207       1206  
      1075       1076       1087       1086       1196       1197       1208       1207  
      1076       1077       1088       1087       1197       1198       1209       1208  
      1077       1078       1089       1088       1198       1199       1210       1209  
      1090       1091       1102       1101       1211       1212       1223       1222  
      1091       1092       1103       1102       1212       1213       1224       1223  
      1092       1093       1104       1103       1213       1214       1225       1224  
      1093       1094       1105       1104       1214       1215       1226       1225  
      1094       1095       1106       1105       1215       1216       1227       1226  
      1095       1096       1107       1106       1216       1217       1228       1227  
      1096       1097       1108       1107       1217       1218       1229       1228  
      1097       1098       1109       1108       1218       1219       1230       1229  
      1098       1099       1110       1109       1219       1220       1231       1230  
      1099       1100       1111       1110       1220       1221       1232       1231  
      1101       1102       1113       1112       1222       1223       1234       1233  
      1102       1103       1114       1113       1223       1224       1235       1234  
      1103       1104       1115       1114       1224       1225       1236       1235  
      1104       1105       1116       1115       1225       1226       1237       1236  
      1105       1106       1117       1116       1226       1227       1238       1237  
      1106       1107       1118       1117       1227       1228       1239       1238  
      1107       1108       1119       1118       1228       1229       1240       1239  
      1108       1109       1120       1119       1229       1230       1241       1240  
      1109       1110       1121       1120       1230       1231       1242       1241  
      1110       1111       1122       1121       1231       1232       1243       1242  
      1112       1113       1124       1123       1233       1234       1245       1244  
      1113       1114       1125       1124       1234       1235       1246       1245  
      1114       1115       1126       1125       1235       1236       1247       1246  
      1115       1116       1127       1126       1236       1237       1248       1247  
      1116       1117       1128       1127       1237       1238       1249       1248  
      1117       1118       1129       1128       1238       1239       1250       1249  
      1118       1119       1130       1129       1239       1240       1251       1250  
      1119       1120       1131       1130       1240       1241       1252       1251  
      1120       1121       1132       1131       1241       1242       1253       1252  
      1121       1122       1133       1132       1242       1243       1254       1253  
      1123       1124       1135       1134       1244       1245       1256       1255  
      1124       1125       1136       1135       1245       1246       1257       1256  
      1125       1126       1137       1136       1246       1247       1258       1257  
      1126       1127       1138       1137       1247       1248       1259       1258  
      1127       1128       1139       1138       1248       1249       1260       1259  
      1128       1129       1140       1139       1249       1250       1261       1260  
      1129       1130       1141       1140       1250       1251       1262       1261  
      1130       1131       1142       1141       1251       1252       1263       1262  
      1131       1132       1143       1142       1252       1253       1264       1263  
      1132       1133       1144       1143       1253       1254       1265       1264  
      1134       1135       1146       1145       1255       1256       1267       1266  
      1135       1136       1147       1146       1256       1257       1268       1267  
      1136       1137       1148       1147       1257       1258       1269       1268  
      1137       1138       1149       1148       1258       1259       1270       1269  
      1138       1139       1150       1149       1259       1260       1271       1270  
      1139       1140       1151       1150       1260       1261       1272       1271  
      1140       1141       1152       1151       1261       1262       1273       1272  
      1141       1142       1153       1152       1262       1263       1274       1273  
      1142       1143       1154       1153       1263       1264       1275       1274  
      1143       1144       1155       1154       1264       1265       1276       1275  
      1145       1146       1157       1156       1266       1267       1278       1277  
      1146       1147       1158       1157       1267       1268       1279       1278  
      1147       1148       1159       1158       1268       1269       1280       1279  
      1148       1149       1160       1159       1269       1270       1281       1280  
      1149       1150       1161       1160       1270       1271       1282       1281  
      1150       1151       1162       1161       1271       1272       1283       1282  
      1151       1152       1163       1162       1272       1273       1284       1283  
      1152       1153       1164       1163       1273       1274       1285       1284  
      1153       1154       1165       1164       1274       1275       1286       1285  
      1154       1155       1166       1165       1275       1276       1287       1286  
      1156       1157       1168       1167       1277       1278       1289       1288  
      1157       1158       1169       1168       1278       1279       1290       1289  
      1158       1159       1170       1169       1279       1280       1291       1290  
      1159       1160       1171       1170       1280       1281       1292       1291  
      1160       1161       1172       1171       1281       1282       1293       1292  
      1161       1162       1173       1172       1282       1283       1294       1293  
      1162       1163       1174       1173       1283       1284       1295       1294  
      1163       1164       1175       1174       1284       1285       1296       1295  
      1164       1165       1176       1175       1285       1286       1297       1296  
      1165       1166       1177       1176       1286       1287       1298       1297  
      1167       1168       1179       1178       1288       1289       1300       1299  
      1168       1169       1180       1179       1289       1290       1301       1300  
      1169       1170       1181       1180       1290       1291       1302       1301  
      1170       1171       1182       1181       1291       1292       1303       1302  
      1171       1172       1183       1182       1292       1293       1304       1303  
      1172       1173       1184       1183       1293       1294       1305       1304  
      1173       1174       1185       1184       1294       1295       1306       1305  
      1174       1175       1186       1185       1295       1296       1307       1306  
      1175       1176       1187       1186       1296       1297       1308       1307  
      1176       1177       1188       1187       1297       1298       1309       1308  
      1178       1179       1190       1189       1299       1300       1311       1310  
      1179       1180       1191       1190       1300       1301       1312       1311  
      1180       1181       1192       1191       1301       1302       1313       1312  
      1181       1182       1193       1192       1302       1303       1314       1313  
      1182       1183       1194       1193       1303       1304       1315       1314  
      1183       1184       1195       1194       1304       1305       1316       1315  
      1184       1185       1196       1195       1305       1306       1317       1316  
      1185       1186       1197       1196       1306       1307       1318       1317  
      1186       1187       1198       1197       1307       1308       1319       1318  
      1187       1188       1199       1198       1308       1309       1320       1319  
      1189       1190       1201       1200       1310       1311       1322       1321  
      1190       1191       1202       1201       1311       1312       1323       1322  
      1191       1192       1203       1202       1312       1313       1324       1323  
      1192       1193       1204       1203       1313       1314       1325       1324  
      1193       1194       1205       1204       1314       1315       1326       1325  
      1194       1195       1206       1205       1315       1316       1327       1326  
      1195       1196       1207       1206       1316       1317       1328       1327  
      1196       1197       1208       1207       1317       1318       1329       1328  
      1197       1198       1209       1208       1318       1319       1330       1329  
      1198       1199       1210       1209       1319       1320       1331       1330  
      1211       1212       1223       1222       1332       1333       1344       1343  
      1212       1213       1224       1223       1333       1334       1345       1344  
      1213       1214       1225       1224       1334       1335       1346       1345  
      1214       1215       1226       1225       1335       1336       1347       1346  
      1215       1216       1227       1226       1336       1337       1348       1347  
      1216       1217       1228       1227       1337       1338       1349       1348  
      1217       1218       1229       1228       1338       1339       1350       1349  
      1218       1219       1230       1229       1339       1340       1351       1350  
      1219       1220       1231       1230       1340       1341       1352       1351  
      1220       1221       1232       1231       1341       1342       1353       1352  
      1222       1223       1234       1233       1343       1344       1355       1354  
      1223       1224       1235       1234       1344       1345       1356       1355  
      1224       1225       1236       1235       1345       1346       1357       1356  
      1225       1226       1237       1236       1346       1347       1358       1357  
      1226       1227       1238       1237       1347       1348       1359       1358  
      1227       1228       1239       1238       1348       1349       1360       1359  
      1228       1229       1240       1239       1349       1350       1361       1360  
      1229       1230       1241       1240       1350       1351       1362       1361  
      1230       1231       1242       1241       1351       1352       1363       1362  
      1231       1232       1243       1242       1352       1353       1364       1363  
      1233       1234       1245       1244       1354       1355       1366       1365  
      1234       1235       1246       1245       1355       1356       1367       1366  
      1235       1236       1247       1246       1356       1357       1368       1367  
      1236       1237       1248       1247       1357       1358       1369       1368  
      1237       1238       1249       1248       1358       1359       1370       1369  
      1238       1239       1250       1249       1359       1360       1371       1370  
      1239       1240       1251       1250       1360       1361       1372       1371  
      1240       1241       1252       1251       1361       1362       1373       1372  
      1241       1242       1253       1252       1362       1363       1374       1373  
      1242       1243       1254       1253       1363       1364       1375       1374  
      1244       1245       1256       1255       1365       1366       1377       1376  
      1245       1246       1257       1256       1366       1367       1378       1377  
      1246       1247       1258       1257       1367       1368       1379       1378  
      1247       1248       1259       1258       1368       1369       1380       1379  
      1248       1249       1260       1259       1369       1370       1381       1380  
      1249       1250       1261       1260       1370       1371       1382       1381  
      1250       1251       1262       1261       1371       1372       1383       1382  
      1251       1252       1263       1262       1372       1373       1384       1383  
      1252       1253       1264       1263       1373       1374       1385       1384  
      1253       1254       1265       1264       1374       1375       1386       1385  
      1255       1256       1267       1266       1376       1377       1388       1387  
      1256       1257       1268       1267       1377       1378       1389       1388  
      1257       1258       1269       1268       1378       1379       1390       1389  
      1258       1259       1270       1269       1379       1380       1391       1390  
      1259       1260       1271       1270       1380       1381       1392       1391  
      1260       1261       1272       1271       1381       1382       1393       1392  
      1261       1262       1273       1272       1382       1383       1394       1393  
      1262       1263       1274       1273       1383       1384       1395       1394  
      1263       1264       1275       1274       1384       1385       1396       1395  
      1264       1265       1276       1275       1385       1386       1397       1396  
      1266       1267       1278       1277       1387       1388       1399       1398  
      1267       1268       1279       1278       1388       1389       1400       1399  
      1268       1269       1280       1279       1389       1390       1401       1400  
      1269       1270       1281       1280       1390       1391       1402       1401  
      1270       1271       1282       1281       1391       1392       1403       1402  
      1271       1272       1283       1282       1392       1393       1404       1403  
      1272       1273       1284       1283       1393       1394       1405       1404  
      1273       1274       1285       1284       1394       1395       1406       1405  
      1274       1275       1286       1285       1395       1396       1407       1406  
      1275       1276       1287       1286       1396       1397       1408       1407  
      1277       1278       1289       1288       1398       1399       1410       1409  
      1278       1279       1290       1289       1399       1400       1411       1410  
      1279       1280       1291       1290       1400       1401       1412       1411  
      1280       1281       1292       1291       1401       1402       1413       1412  
      1281       1282       1293       1292       1402       1403       1414       1413  
      1282       1283       1294       1293       1403       1404       1415       1414  
      1283       1284       1295       1294       1404       1405       1416       1415  
      1284       1285       1296       1295       1405       1406       1417       1416  
      1285       1286       1297       1296       1406       1407       1418       1417  
      1286       1287       1298       1297       1407       1408       1419       1418  
      1288       1289       1300       1299       1409       1410       1421       1420  
      1289       1290       1301       1300       1410       1411       1422       1421  
      1290       1291       1302       1301       1411       1412       1423       1422  
      1291       1292       1303       1302       1412       1413       1424       1423  
      1292       1293       1304       1303       1413       1414       1425       1424  
      1293       1294       1305       1304       1414       1415       1426       1425  
      1294       1295       1306       1305       1415       1416       1427       1426  
      1295       1296       1307       1306       1416       1417       1428       1427  
      1296       1297       1308       1307       1417       1418       1429       1428  
      1297       1298       1309       1308       1418       1419       1430       1429  
      1299       1300       1311       1310       1420       1421       1432       1431  
      1300       1301       1312       1311       1421       1422       1433       1432  
      1301       1302       1313       1312       1422       1423       1434       1433  
      1302       1303       1314       1313       1423       1424       1435       1434  
      1303       1304       1315       1314       1424       1425       1436       1435  
      1304       1305       1316       1315       1425       1426       1437       1436  
      1305       1306       1317       1316       1426       1427       1438       1437  
      1306       1307       1318       1317       1427       1428       1439       1438  
      1307       1308       1319       1318       1428       1429       1440       1439  
      1308       1309       1320       1319       1429       1430       1441       1440  
      1310       1311       1322       1321       1431       1432       1443       1442  
      1311       1312       1323       1322       1432       1433       1444       1443  
      1312       1313       1324       1323       1433       1434       1445       1444  
      1313       1314       1325       1324       1434       1435       1446       1445  
      1314       1315       1326       1325       1435       1436       1447       1446  
      1315       1316       1327       1326       1436       1437       1448       1447  
      1316       1317       1328       1327       1437       1438       1449       1448  
      1317       1318       1329       1328       1438       1439       1450       1449  
      1318       1319       1330       1329       1439       1440       1451       1450  
      1319       1320       1331       1330       1440       1441       1452       1451  
      1332       1333       1344       1343       1453       1454       1465       1464  
      1333       1334       1345       1344       1454       1455       1466       1465  
      1334       1335       1346       1345       1455       1456       1467       1466  
      1335       1336       1347       1346       1456       1457       1468       1467  
      1336       1337       1348       1347       1457       1458       1469       1468  
      1337       1338       1349       1348       1458       1459       1470       1469  
      1338       1339       1350       1349       1459       1460       1471       1470  
      1339       1340       1351       1350       1460       1461       1472       1471  
      1340       1341       1352       1351       1461       1462       1473       1472  
      1341       1342       1353       1352       1462       1463       1474       1473  
      1343       1344       1355       1354       1464       1465       1476       1475  
      1344       1345       1356       1355       1465       1466       1477       1476  
      1345       1346       1357       1356       1466       1467       1478       1477  
      1346       1347       1358       1357       1467       1468       1479       1478  
      1347       1348       1359       1358       1468       1469       1480       1479  
      1348       1349       1360       1359       1469       1470       1481       1480  
      1349       1350       1361       1360       1470       1471       1482       1481  
      1350       1351       1362       1361       1471       1472       1483       1482  
      1351       1352       1363       1362       1472       1473       1484       1483  
      1352       1353       1364       1363       1473       1474       1485       1484  
      1354       1355       1366       1365       1475       1476       1487       1486  
      1355       1356       1367       1366       1476       1477       1488       1487  
      1356       1357       1368       1367       1477       1478       1489       1488  
      1357       1358       1369       1368       1478       1479       1490       1489  
      1358       1359       1370       1369       1479       1480       1491       1490  
      1359       1360       1371       1370       1480       1481       1492       1491  
      1360       1361       1372       1371       1481       1482       1493       1492  
      1361       1362       1373       1372       1482       1483       1494       1493  
      1362       1363       1374       1373       1483       1484       1495       1494  
      1363       1364       1375       1374       1484       1485       1496       1495  
      1365       1366       1377       1376       1486       1487       1498       1497  
      1366       1367       1378       1377       1487       1488       1499       1498  
      1367       1368       1379       1378       1488       1489       1500       1499  
      1368       1369       1380       1379       1489       1490       1501       1500  
      1369       1370       1381       1380       1490       1491       1502       1501  
      1370       1371       1382       1381       1491       1492       1503       1502  
      1371       1372       1383       1382       1492       1493       1504       1503  
      1372       1373       1384       1383       1493       1494       1505       1504  
      1373       1374       1385       1384       1494       1495       1506       1505  
      1374       1375       1386       1385       1495       1496       1507       1506  
      1376       1377       1388       1387       1497       1498       1509       1508  
      1377       1378       1389       1388       1498       1499       1510       1509  
      1378       1379       1390       1389       1499       1500       1511       1510  
      1379       1380       1391       1390       1500       1501       1512       1511  
      1380       1381       1392       1391       1501       1502       1513       1512  
      1381       1382       1393       1392       1502       1503       1514       1513  
      1382       1383       1394       1393       1503       1504       1515       1514  
      1383       1384       1395       1394       1504       1505       1516       1515  
      1384       1385       1396       1395       1505       1506       1517       1516  
      1385       1386       1397       1396       1506       1507       1518       1517  
      1387       1388       1399       1398       1508       1509       1520       1519  
      1388       1389       1400       1399       1509       1510       1521       1520  
      1389       1390       1401       1400       1510       1511       1522       1521  
      1390       1391       1402       1401       1511       1512       1523       1522  
      1391       1392       1403       1402       1512       1513       1524       1523  
      1392       1393       1404       1403       1513       1514       1525       1524  
      1393       1394       1405       1404       1514       1515       1526       1525  
      1394       1395       1406       1405       1515       1516       1527       1526  
      1395       1396       1407       1406       1516       1517       1528       1527  
      1396       1397       1408       1407       1517       1518       1529       1528  
      1398       1399       1410       1409       1519       1520       1531       1530  
      1399       1400       1411       1410       1520       1521       1532       1531  
      1400       1401       1412       1411       1521       1522       1533       1532  
      1401       1402       1413       1412       1522       1523       1534       1533  
      1402       1403       1414       1413       1523       1524       1535       1534  
      1403       1404       1415       1414       1524       1525       1536       1535  
      1404       1405       1416       1415       1525       1526       1537       1536  
      1405       1406       1417       1416       1526       1527       1538       1537  
      1406       1407       1418       1417       1527       1528       1539       1538  
      1407       1408       1419       1418       1528       1529       1540       1539  
      1409       1410       1421       1420       1530       1531       1542       1541  
      1410       1411       1422       1421       1531       1532       1543       1542  
      1411       1412       1423       1422       1532       1533       1544       1543  
      1412       1413       1424       1423       1533       1534       1545       1544  
      1413       1414       1425       1424       1534       1535       1546       1545  
      1414       1415       1426       1425       1535       1536       1547       1546  
      1415       1416       1427       1426       1536       1537       1548       1547  
      1416       1417       1428       1427       1537       1538       1549       1548  
      1417       1418       1429       1428       1538       1539       1550       1549  
      1418       1419       1430       1429       1539       1540       1551       1550  
      1420       1421       1432       1431       1541       1542       1553       1552  
      1421       1422       1433       1432       1542       1543       1554       1553  
      1422       1423       1434       1433       1543       1544       1555       1554  
      1423       1424       1435       1434       1544       1545       1556       1555  
      1424       1425       1436       1435       1545       1546       1557       1556  
      1425       1426       1437       1436       1546       1547       1558       1557  
      1426       1427       1438       1437       1547       1548       1559       1558  
      1427       1428       1439       1438       1548       1549       1560       1559  
      1428       1429       1440       1439       1549       1550       1561       1560  
      1429       1430       1441       1440       1550       1551       1562       1561  
      1431       1432       1443       1442       1552       1553       1564       1563  
      1432       1433       1444       1443       1553       1554       1565       1564  
      1433       1434       1445       1444       1554       1555       1566       1565  
      1434       1435       1446       1445       1555       1556       1567       1566  
      1435       1436       1447       1446       1556       1557       1568       1567  
      1436       1437       1448       1447       1557       1558       1569       1568  
      1437       1438       1449       1448       1558       1559       1570       1569  
      1438       1439       1450       1449       1559       1560       1571       1570  
      1439       1440       1451       1450       1560       1561       1572       1571  
      1440       1441       1452       1451       1561       1562       1573       1572  
      1453       1454       1465       1464       1574       1575       1586       1585  
      1454       1455       1466       1465       1575       1576       1587       1586  
      1455       1456       1467       1466       1576       1577       1588       1587  
      1456       1457       1468       1467       1577       1578       1589       1588  
      1457       1458       1469       1468       1578       1579       1590       1589  
      1458       1459       1470       1469       1579       1580       1591       1590  
      1459       1460       1471       1470       1580       1581       1592       1591  
      1460       1461       1472       1471       1581       1582       1593       1592  
      1461       1462       1473       1472       1582       1583       1594       1593  
      1462       1463       1474       1473       1583       1584       1595       1594  
      1464       1465       1476       1475       1585       1586       1597       1596  
      1465       1466       1477       1476       1586       1587       1598       1597  
      1466       1467       1478       1477       1587       1588       1599       1598  
      1467       1468       1479       1478       1588       1589       1600       1599  
      1468       1469       1480       1479       1589       1590       1601       1600  
      1469       1470       1481       1480       1590       1591       1602       1601  
      1470       1471       1482       1481       1591       1592       1603       1602  
      1471       1472       1483       1482       1592       1593       1604       1603  
      1472       1473       1484       1483       1593       1594       1605       1604  
      1473       1474       1485       1484       1594       1595       1606       1605  
      1475       1476       1487       1486       1596       1597       1608       1607  
      1476       1477       1488       1487       1597       1598       1609       1608  
      1477       1478       1489       1488       1598       1599       1610       1609  
      1478       1479       1490       1489       1599       1600       1611       1610  
      1479       1480       1491       1490       1600       1601       1612       1611  
      1480       1481       1492       1491       1601       1602       1613       1612  
      1481       1482       1493       1492       1602       1603       1614       1613  
      1482       1483       1494       1493       1603       1604       1615       1614  
      1483       1484       1495       1494       1604       1605       1616       1615  
      1484       1485       1496       1495       1605       1606       1617       1616  
      1486       1487       1498       1497       1607       1608       1619       1618  
      1487       1488       1499       1498       1608       1609       1620       1619  
      1488       1489       1500       1499       1609       1610       1621       1620  
      1489       1490       1501       1500       1610       1611       1622       1621  
      1490       1491       1502       1501       1611       1612       1623       1622  
      1491       1492       1503       1502       1612       1613       1624       1623  
      1492       1493       1504       1503       1613       1614       1625       1624  
      1493       1494       1505       1504       1614       1615       1626       1625  
      1494       1495       1506       1505       1615       1616       1627       1626  
      1495       1496       1507       1506       1616       1617       1628       1627  
      1497       1498       1509       1508       1618       1619       1630       1629  
      1498       1499       1510       1509       1619       1620       1631       1630  
      1499       1500       1511       1510       1620       1621       1632       1631  
      1500       1501       1512       1511       1621       1622       1633       1632  
      1501       1502       1513       1512       1622       1623       1634       1633  
      1502       1503       1514       1513       1623       1624       1635       1634  
      1503       1504       1515       1514       1624       1625       1636       1635  
      1504       1505       1516       1515       1625       1626       1637       1636  
      1505       1506       1517       1516       1626       1627       1638       1637  
      1506       1507       1518       1517       1627       1628       1639       1638  
      1508       1509       1520       1519       1629       1630       1641       1640  
      1509       1510       1521       1520       1630       1631       1642       1641  
      1510       1511       1522       1521       1631       1632       1643       1642  
      1511       1512       1523       1522       1632       1633       1644       1643  
      1512       1513       1524       1523       1633       1634       1645       1644  
      1513       1514       1525       1524       1634       1635       1646       1645  
      1514       1515       1526       1525       1635       1636       1647       1646  
      1515       1516       1527       1526       1636       1637       1648       1647  
      1516       1517       1528       1527       1637       1638       1649       1648  
      1517       1518       1529       1528       1638       1639       1650       1649  
      1519       1520       1531       1530       1640       1641       1652       1651  
      1520       1521       1532       1531       1641       1642       1653       1652  
      1521       1522       1533       1532       1642       1643       1654       1653  
      1522       1523       1534       1533       1643       1644       1655       1654  
      1523       1524       1535       1534       1644       1645       1656       1655  
      1524       1525       1536       1535       1645       1646       1657       1656  
      1525       1526       1537       1536       1646       1647       1658       1657  
      1526       1527       1538       1537       1647       1648       1659       1658  
      1527       1528       1539       1538       1648       1649       1660       1659  
      1528       1529       1540       1539       1649       1650       1661       1660  
      1530       1531       1542       1541       1651       1652       1663       1662  
      1531       1532       1543       1542       1652       1653       1664       1663  
      1532       1533       1544       1543       1653       1654       1665       1664  
      1533       1534       1545       1544       1654       1655       1666       1665  
      1534       1535       1546       1545       1655       1656       1667       1666  
      1535       1536       1547       1546       1656       1657       1668       1667  
      1536       1537       1548       1547       1657       1658       1669       1668  
      1537       1538       1549       1548       1658       1659       1670       1669  
      1538       1539       1550       1549       1659       1660       1671       1670  
      1539       1540       1551       1550       1660       1661       1672       1671  
      1541       1542       1553       1552       1662       1663       1674       1673  
      1542       1543       1554       1553       1663       1664       1675       1674  
      1543       1544       1555       1554       1664       1665       1676       1675  
      1544       1545       1556       1555       1665       1666       1677       1676  
      1545       1546       1557       1556       1666       1667       1678       1677  
      1546       1547       1558       1557       1667       1668       1679       1678  
      1547       1548       1559       1558       1668       1669       1680       1679  
      1548       1549       1560       1559       1669       1670       1681       1680  
      1549       1550       1561       1560       1670       1671       1682       1681  
      1550       1551       1562       1561       1671       1672       1683       1682  
      1552       1553       1564       1563       1673       1674       1685       1684  
      1553       1554       1565       1564       1674       1675       1686       1685  
      1554       1555       1566       1565       1675       1676       1687       1686  
      1555       1556       1567       1566       1676       1677       1688       1687  
      1556       1557       1568       1567       1677       1678       1689       1688  
      1557       1558       1569       1568       1678       1679       1690       1689  
      1558       1559       1570       1569       1679       1680       1691       1690  
      1559       1560       1571       1570       1680       1681       1692       1691  
      1560       1561       1572       1571       1681       1682       1693       1692  
      1561       1562       1573       1572       1682       1683       1694       1693  
      1574       1575       1586       1585       1695       1696       1707       1706  
      1575       1576       1587       1586       1696       1697       1708       1707  
      1576       1577       1588       1587       1697       1698       1709       1708  
      1577       1578       1589       1588       1698       1699       1710       1709  
      1578       1579       1590       1589       1699       1700       1711       1710  
      1579       1580       1591       1590       1700       1701       1712       1711  
      1580       1581       1592       1591       1701       1702       1713       1712  
      1581       1582       1593       1592       1702       1703       1714       1713  
      1582       1583       1594       1593       1703       1704       1715       1714  
      1583       1584       1595       1594       1704       1705       1716       1715  
      1585       1586       1597       1596       1706       1707       1718       1717  
      1586       1587       1598       1597       1707       1708       1719       1718  
      1587       1588       1599       1598       1708       1709       1720       1719  
      1588       1589       1600       1599       1709       1710       1721       1720  
      1589       1590       1601       1600       1710       1711       1722       1721  
      1590       1591       1602       1601       1711       1712       1723       1722  
      1591       1592       1603       1602       1712       1713       1724       1723  
      1592       1593       1604       1603       1713       1714       1725       1724  
      1593       1594       1605       1604       1714       1715       1726       1725  
      1594       1595       1606       1605       1715       1716       1727       1726  
      1596       1597       1608       1607       1717       1718       1729       1728  
      1597       1598       1609       1608       1718       1719       1730       1729  
      1598       1599       1610       1609       1719       1720       1731       1730  
      1599       1600       1611       1610       1720       1721       1732       1731  
      1600       1601       1612       1611       1721       1722       1733       1732  
      1601       1602       1613       1612       1722       1723       1734       1733  
      1602       1603       1614       1613       1723       1724       1735       1734  
      1603       1604       1615       1614       1724       1725       1736       1735  
      1604       1605       1616       1615       1725       1726       1737       1736  
      1605       1606       1617       1616       1726       1727       1738       1737  
      1607       1608       1619       1618       1728       1729       1740       1739  
      1608       1609       1620       1619       1729       1730       1741       1740  
      1609       1610       1621       1620       1730       1731       1742       1741  
      1610       1611       1622       1621       1731       1732       1743       1742  
      1611       1612       1623       1622       1732       1733       1744       1743  
      1612       1613       1624       1623       1733       1734       1745       1744  
      1613       1614       1625       1624       1734       1735       1746       1745  
      1614       1615       1626       1625       1735       1736       1747       1746  
      1615       1616       1627       1626       1736       1737       1748       1747  
      1616       1617       1628       1627       1737       1738       1749       1748  
      1618       1619       1630       1629       1739       1740       1751       1750  
      1619       1620       1631       1630       1740       1741       1752       1751  
      1620       1621       1632       1631       1741       1742       1753       1752  
      1621       1622       1633       1632       1742       1743       1754       1753  
      1622       1623       1634       1633       1743       1744       1755       1754  
      1623       1624       1635       1634       1744       1745       1756       1755  
      1624       1625       1636       1635       1745       1746       1757       1756  
      1625       1626       1637       1636       1746       1747       1758       1757  
      1626       1627       1638       1637       1747       1748       1759       1758  
      1627       1628       1639       1638       1748       1749       1760       1759  
      1629       1630       1641       1640       1750       1751       1762       1761  
      1630       1631       1642       1641       1751       1752       1763       1762  
      1631       1632       1643       1642       1752       1753       1764       1763  
      1632       1633       1644       1643       1753       1754       1765       1764  
      1633       1634       1645       1644       1754       1755       1766       1765  
      1634       1635       1646       1645       1755       1756       1767       1766  
      1635       1636       1647       1646       1756       1757       1768       1767  
      1636       1637       1648       1647       1757       1758       1769       1768  
      1637       1638       1649       1648       1758       1759       1770       1769  
      1638       1639       1650       1649       1759       1760       1771       1770  
      1640       1641       1652       1651       1761       1762       1773       1772  
      1641       1642       1653       1652       1762       1763       1774       1773  
      1642       1643       1654       1653       1763       1764       1775       1774  
      1643       1644       1655       1654       1764       1765       1776       1775  
      1644       1645       1656       1655       1765       1766       1777       1776  
      1645       1646       1657       1656       1766       1767       1778       1777  
      1646       1647       1658       1657       1767       1768       1779       1778  
      1647       1648       1659       1658       1768       1769       1780       1779  
      1648       1649       1660       1659       1769       1770       1781       1780  
      1649       1650       1661       1660       1770       1771       1782       1781  
      1651       1652       1663       1662       1772       1773       1784       1783  
      1652       1653       1664       1663       1773       1774       1785       1784  
      1653       1654       1665       1664       1774       1775       1786       1785  
      1654       1655       1666       1665       1775       1776       1787       1786  
      1655       1656       1667       1666       1776       1777       1788       1787  
      1656       1657       1668       1667       1777       1778       1789       1788  
      1657       1658       1669       1668       1778       1779       1790       1789  
      1658       1659       1670       1669       1779       1780       1791       1790  
      1659       1660       1671       1670       1780       1781       1792       1791  
      1660       1661       1672       1671       1781       1782       1793       1792  
      1662       1663       1674       1673       1783       1784       1795       1794  
      1663       1664       1675       1674       1784       1785       1796       1795  
      1664       1665       1676       1675       1785       1786       1797       1796  
      1665       1666       1677       1676       1786       1787       1798       1797  
      1666       1667       1678       1677       1787       1788       1799       1798  
      1667       1668       1679       1678       1788       1789       1800       1799  
      1668       1669       1680       1679       1789       1790       1801       1800  
      1669       1670       1681       1680       1790       1791       1802       1801  
      1670       1671       1682       1681       1791       1792       1803       1802  
      1671       1672       1683       1682       1792       1793       1804       1803  
      1673       1674       1685       1684       1794       1795       1806       1805  
      1674       1675       1686       1685       1795       1796       1807       1806  
      1675       1676       1687       1686       1796       1797       1808       1807  
      1676       1677       1688       1687       1797       1798       1809       1808  
      1677       1678       1689       1688       1798       1799       1810       1809  
      1678       1679       1690       1689       1799       1800       1811       1810  
      1679       1680       1691       1690       1800       1801       1812       1811  
      1680       1681       1692       1691       1801       1802       1813       1812  
      1681       1682       1693       1692       1802       1803       1814       1813  
      1682       1683       1694       1693       1803       1804       1815       1814  
      1695       1696       1707       1706       1816       1817       1828       1827  
      1696       1697       1708       1707       1817       1818       1829       1828  
      1697       1698       1709       1708       1818       1819       1830       1829  
      1698       1699       1710       1709       1819       1820       1831       1830  
      1699       1700       1711       1710       1820       1821       1832       1831  
      1700       1701       1712       1711       1821       1822       1833       1832  
      1701       1702       1713       1712       1822       1823       1834       1833  
      1702       1703       1714       1713       1823       1824       1835       1834  
      1703       1704       1715       1714       1824       1825       1836       1835  
      1704       1705       1716       1715       1825       1826       1837       1836  
      1706       1707       1718       1717       1827       1828       1839       1838  
      1707       1708       1719       1718       1828       1829       1840       1839  
      1708       1709       1720       1719       1829       1830       1841       1840  
      1709       1710       1721       1720       1830       1831       1842       1841  
      1710       1711       1722       1721       1831       1832       1843       1842  
      1711       1712       1723       1722       1832       1833       1844       1843  
      1712       1713       1724       1723       1833       1834       1845       1844  
      1713       1714       1725       1724       1834       1835       1846       1845  
      1714       1715       1726       1725       1835       1836       1847       1846  
      1715       1716       1727       1726       1836       1837       1848       1847  
      1717       1718       1729       1728       1838       1839       1850       1849  
      1718       1719       1730       1729       1839       1840       1851       1850  
      1719       1720       1731       1730       1840       1841       1852       1851  
      1720       1721       1732       1731       1841       1842       1853       1852  
      1721       1722       1733       1732       1842       1843       1854       1853  
      1722       1723       1734       1733       1843       1844       1855       1854  
      1723       1724       1735       1734       1844       1845       1856       1855  
      1724       1725       1736       1735       1845       1846       1857       1856  
      1725       1726       1737       1736       1846       1847       1858       1857  
      1726       1727       1738       1737       1847       1848       1859       1858  
      1728       1729       1740       1739       1849       1850       1861       1860  
      1729       1730       1741       1740       1850       1851       1862       1861  
      1730       1731       1742       1741       1851       1852       1863       1862  
      1731       1732       1743       1742       1852       1853       1864       1863  
      1732       1733       1744       1743       1853       1854       1865       1864  
      1733       1734       1745       1744       1854       1855       1866       1865  
      1734       1735       1746       1745       1855       1856       1867       1866  
      1735       1736       1747       1746       1856       1857       1868       1867  
      1736       1737       1748       1747       1857       1858       1869       1868  
      1737       1738       1749       1748       1858       1859       1870       1869  
      1739       1740       1751       1750       1860       1861       1872       1871  
      1740       1741       1752       1751       1861       1862       1873       1872  
      1741       1742       1753       1752       1862       1863       1874       1873  
      1742       1743       1754       1753       1863       1864       1875       1874  
      1743       1744       1755       1754       1864       1865       1876       1875  
      1744       1745       1756       1755       1865       1866       1877       1876  
      1745       1746       1757       1756       1866       1867       1878       1877  
      1746       1747       1758       1757       1867       1868       1879       1878  
      1747       1748       1759       1758       1868       1869       1880       1879  
      1748       1749       1760       1759       1869       1870       1881       1880  
      1750       1751       1762       1761       1871       1872       1883       1882  
      1751       1752       1763       1762       1872       1873       1884       1883  
      1752       1753       1764       1763       1873       1874       1885       1884  
      1753       1754       1765       1764       1874       1875       1886       1885  
      1754       1755       1766       1765       1875       1876       1887       1886  
      1755       1756       1767       1766       1876       1877       1888       1887  
      1756       1757       1768       1767       1877       1878       1889       1888  
      1757       1758       1769       1768       1878       1879       1890       1889  
      1758       1759       1770       1769       1879       1880       1891       1890  
      1759       1760       1771       1770       1880       1881       1892       1891  
      1761       1762       1773       1772       1882       1883       1894       1893  
      1762       1763       1774       1773       1883       1884       1895       1894  
      1763       1764       1775       1774       1884       1885       1896       1895  
      1764       1765       1776       1775       1885       1886       1897       1896  
      1765       1766       1777       1776       1886       1887       1898       1897  
      1766       1767       1778       1777       1887       1888       1899       1898  
      1767       1768       1779       1778       1888       1889       1900       1899  
      1768       1769       1780       1779       1889       1890       1901       1900  
      1769       1770       1781       1780       1890       1891       1902       1901  
      1770       1771       1782       1781       1891       1892       1903       1902  
      1772       1773       1784       1783       1893       1894       1905       1904  
      1773       1774       1785       1784       1894       1895       1906       1905  
      1774       1775       1786       1785       1895       1896       1907       1906  
      1775       1776       1787       1786       1896       1897       1908       1907  
      1776       1777       1788       1787       1897       1898       1909       1908  
      1777       1778       1789       1788       1898       1899       1910       1909  
      1778       1779       1790       1789       1899       1900       1911       1910  
      1779       1780       1791       1790       1900       1901       1912       1911  
      1780       1781       1792       1791       1901       1902       1913       1912  
      1781       1782       1793       1792       1902       1903       1914       1913  
      1783       1784       1795       1794       1904       1905       1916       1915  
      1784       1785       1796       1795       1905       1906       1917       1916  
      1785       1786       1797       1796       1906       1907       1918       1917  
      1786       1787       1798       1797       1907       1908       1919       1918  
      1787       1788       1799       1798       1908       1909       1920       1919  
      1788       1789       1800       1799       1909       1910       1921       1920  
      1789       1790       1801       1800       1910       1911       1922       1921  
      1790       1791       1802       1801       1911       1912       1923       1922  
      1791       1792       1803       1802       1912       1913       1924       1923  
      1792       1793       1804       1803       1913       1914       1925       1924  
      1794       1795       1806       1805       1915       1916       1927       1926  
      1795       1796       1807       1806       1916       1917       1928       1927  
      1796       1797       1808       1807       1917       1918       1929       1928  
      1797       1798       1809       1808       1918       1919       1930       1929  
      1798       1799       1810       1809       1919       1920       1931       1930  
      1799       1800       1811       1810       1920       1921       1932       1931  
      1800       1801       1812       1811       1921       1922       1933       1932  
      1801       1802       1813       1812       1922       1923       1934       1933  
      1802       1803       1814       1813       1923       1924       1935       1934  
      1803       1804       1815       1814       1924       1925       1936       1935  
      1816       1817       1828       1827       1937       1938       1949       1948  
      1817       1818       1829       1828       1938       1939       1950       1949  
      1818       1819       1830       1829       1939       1940       1951       1950  
      1819       1820       1831       1830       1940       1941       1952       1951  
      1820       1821       1832       1831       1941       1942       1953       1952  
      1821       1822       1833       1832       1942       1943       1954       1953  
      1822       1823       1834       1833       1943       1944       1955       1954  
      1823       1824       1835       1834       1944       1945       1956       1955  
      1824       1825       1836       1835       1945       1946       1957       1956  
      1825       1826       1837       1836       1946       1947       1958       1957  
      1827       1828       1839       1838       1948       1949       1960       1959  
      1828       1829       1840       1839       1949       1950       1961       1960  
      1829       1830       1841       1840       1950       1951       1962       1961  
      1830       1831       1842       1841       1951       1952       1963       1962  
      1831       1832       1843       1842       1952       1953       1964       1963  
      1832       1833       1844       1843       1953       1954       1965       1964  
      1833       1834       1845       1844       1954       1955       1966       1965  
      1834       1835       1846       1845       1955       1956       1967       1966  
      1835       1836       1847       1846       1956       1957       1968       1967  
      1836       1837       1848       1847       1957       1958       1969       1968  
      1838       1839       1850       1849       1959       1960       1971       1970  
      1839       1840       1851       1850       1960       1961       1972       1971  
      1840       1841       1852       1851       1961       1962       1973       1972  
      1841       1842       1853       1852       1962       1963       1974       1973  
      1842       1843       1854       1853       1963       1964       1975       1974  
      1843       1844       1855       1854       1964       1965       1976       1975  
      1844       1845       1856       1855       1965       1966       1977       1976  
      1845       1846       1857       1856       1966       1967       1978       1977  
      1846       1847       1858       1857       1967       1968       1979       1978  
      1847       1848       1859       1858       1968       1969       1980       1979  
      1849       1850       1861       1860       1970       1971       1982       1981  
      1850       1851       1862       1861       1971       1972       1983       1982  
      1851       1852       1863       1862       1972       1973       1984       1983  
      1852       1853       1864       1863       1973       1974       1985       1984  
      1853       1854       1865       1864       1974       1975       1986       1985  
      1854       1855       1866       1865       1975       1976       1987       1986  
      1855       1856       1867       1866       1976       1977       1988       1987  
      1856       1857       1868       1867       1977       1978       1989       1988  
      1857       1858       1869       1868       1978       1979       1990       1989  
      1858       1859       1870       1869       1979       1980       1991       1990  
      1860       1861       1872       1871       1981       1982       1993       1992  
      1861       1862       1873       1872       1982       1983       1994       1993  
      1862       1863       1874       1873       1983       1984       1995       1994  
      1863       1864       1875       1874       1984       1985       1996       1995  
      1864       1865       1876       1875       1985       1986       1997       1996  
      1865       1866       1877       1876       1986       1987       1998       1997  
      1866       1867       1878       1877       1987       1988       1999       1998  
      1867       1868       1879       1878       1988       1989       2000       1999  
      1868       1869       1880       1879       1989       1990       2001       2000  
      1869       1870       1881       1880       1990       1991       2002       2001  
      1871       1872       1883       1882       1992       1993       2004       2003  
      1872       1873       1884       1883       1993       1994       2005       2004  
      1873       1874       1885       1884       1994       1995       2006       2005  
      1874       1875       1886       1885       1995       1996       2007       2006  
      1875       1876       1887       1886       1996       1997       2008       2007  
      1876       1877       1888       1887       1997       1998       2009       2008  
      1877       1878       1889       1888       1998       1999       2010       2009  
      1878       1879       1890       1889       1999       2000       2011       2010  
      1879       1880       1891       1890       2000       2001       2012       2011  
      1880       1881       1892       1891       2001       2002       2013       2012  
      1882       1883       1894       1893       2003       2004       2015       2014  
      1883       1884       1895       1894       2004       2005       2016       2015  
      1884       1885       1896       1895       2005       2006       2017       2016  
      1885       1886       1897       1896       2006       2007       2018       2017  
      1886       1887       1898       1897       2007       2008       2019       2018  
      1887       1888       1899       1898       2008       2009       2020       2019  
      1888       1889       1900       1899       2009       2010       2021       2020  
      1889       1890       1901       1900       2010       2011       2022       2021  
      1890       1891       1902       1901       2011       2012       2023       2022  
      1891       1892       1903       1902       2012       2013       2024       2023  
      1893       1894       1905       1904       2014       2015       2026       2025  
      1894       1895       1906       1905       2015       2016       2027       2026  
      1895       1896       1907       1906       2016       2017       2028       2027  
      1896       1897       1908       1907       2017       2018       2029       2028  
      1897       1898       1909       1908       2018       2019       2030       2029  
      1898       1899       1910       1909       2019       2020       2031       2030  
      1899       1900       1911       1910       2020       2021       2032       2031  
      1900       1901       1912       1911       2021       2022       2033       2032  
      1901       1902       1913       1912       2022       2023       2034       2033  
      1902       1903       1914       1913       2023       2024       2035       2034  
      1904       1905       1916       1915       2025       2026       2037       2036  
      1905       1906       1917       1916       2026       2027       2038       2037  
      1906       1907       1918       1917       2027       2028       2039       2038  
      1907       1908       1919       1918       2028       2029       2040       2039  
      1908       1909       1920       1919       2029       2030       2041       2040  
      1909       1910       1921       1920       2030       2031       2042       2041  
      1910       1911       1922       1921       2031       2032       2043       2042  
      1911       1912       1923       1922       2032       2033       2044       2043  
      1912       1913       1924       1923       2033       2034       2045       2044  
      1913       1914       1925       1924       2034       2035       2046       2045  
      1915       1916       1927       1926       2036       2037       2048       2047  
      1916       1917       1928       1927       2037       2038       2049       2048  
      1917       1918       1929       1928       2038       2039       2050       2049  
      1918       1919       1930       1929       2039       2040       2051       2050  
      1919       1920       1931       1930       2040       2041       2052       2051  
      1920       1921       1932       1931       2041       2042       2053       2052  
      1921       1922       1933       1932       2042       2043       2054       2053  
      1922       1923       1934       1933       2043       2044       2055       2054  
      1923       1924       1935       1934       2044       2045       2056       2055  
      1924       1925       1936       1935       2045       2046       2057       2056  
      1937       1938       1949       1948       2058       2059       2070       2069  
      1938       1939       1950       1949       2059       2060       2071       2070  
      1939       1940       1951       1950       2060       2061       2072       2071  
      1940       1941       1952       1951       2061       2062       2073       2072  
      1941       1942       1953       1952       2062       2063       2074       2073  
      1942       1943       1954       1953       2063       2064       2075       2074  
      1943       1944       1955       1954       2064       2065       2076       2075  
      1944       1945       1956       1955       2065       2066       2077       2076  
      1945       1946       1957       1956       2066       2067       2078       2077  
      1946       1947       1958       1957       2067       2068       2079       2078  
      1948       1949       1960       1959       2069       2070       2081       2080  
      1949       1950       1961       1960       2070       2071       2082       2081  
      1950       1951       1962       1961       2071       2072       2083       2082  
      1951       1952       1963       1962       2072       2073       2084       2083  
      1952       1953       1964       1963       2073       2074       2085       2084  
      1953       1954       1965       1964       2074       2075       2086       2085  
      1954       1955       1966       1965       2075       2076       2087       2086  
      1955       1956       1967       1966       2076       2077       2088       2087  
      1956       1957       1968       1967       2077       2078       2089       2088  
      1957       1958       1969       1968       2078       2079       2090       2089  
      1959       1960       1971       1970       2080       2081       2092       2091  
      1960       1961       1972       1971       2081       2082       2093       2092  
      1961       1962       1973       1972       2082       2083       2094       2093  
      1962       1963       1974       1973       2083       2084       2095       2094  
      1963       1964       1975       1974       2084       2085       2096       2095  
      1964       1965       1976       1975       2085       2086       2097       2096  
      1965       1966       1977       1976       2086       2087       2098       2097  
      1966       1967       1978       1977       2087       2088       2099       2098  
      1967       1968       1979       1978       2088       2089       2100       2099  
      1968       1969       1980       1979       2089       2090       2101       2100  
      1970       1971       1982       1981       2091       2092       2103       2102  
      1971       1972       1983       1982       2092       2093       2104       2103  
      1972       1973       1984       1983       2093       2094       2105       2104  
      1973       1974       1985       1984       2094       2095       2106       2105  
      1974       1975       1986       1985       2095       2096       2107       2106  
      1975       1976       1987       1986       2096       2097       2108       2107  
      1976       1977       1988       1987       2097       2098       2109       2108  
      1977       1978       1989       1988       2098       2099       2110       2109  
      1978       1979       1990       1989       2099       2100       2111       2110  
      1979       1980       1991       1990       2100       2101       2112       2111  
      1981       1982       1993       1992       2102       2103       2114       2113  
      1982       1983       1994       1993       2103       2104       2115       2114  
      1983       1984       1995       1994       2104       2105       2116       2115  
      1984       1985       1996       1995       2105       2106       2117       2116  
      1985       1986       1997       1996       2106       2107       2118       2117  
      1986       1987       1998       1997       2107       2108       2119       2118  
      1987       1988       1999       1998       2108       2109       2120       2119  
      1988       1989       2000       1999       2109       2110       2121       2120  
      1989       1990       2001       2000       2110       2111       2122       2121  
      1990       1991       2002       2001       2111       2112       2123       2122  
      1992       1993       2004       2003       2113       2114       2125       2124  
      1993       1994       2005       2004       2114       2115       2126       2125  
      1994       1995       2006       2005       2115       2116       2127       2126  
      1995       1996       2007       2006       2116       2117       2128       2127  
      1996       1997       2008       2007       2117       2118       2129       2128  
      1997       1998       2009       2008       2118       2119       2130       2129  
      1998       1999       2010       2009       2119       2120       2131       2130  
      1999       2000       2011       2010       2120       2121       2132       2131  
      2000       2001       2012       2011       2121       2122       2133       2132  
      2001       2002       2013       2012       2122       2123       2134       2133  
      2003       2004       2015       2014       2124       2125       2136       2135  
      2004       2005       2016       2015       2125       2126       2137       2136  
      2005       2006       2017       2016       2126       2127       2138       2137  
      2006       2007       2018       2017       2127       2128       2139       2138  
      2007       2008       2019       2018       2128       2129       2140       2139  
      2008       2009       2020       2019       2129       2130       2141       2140  
      2009       2010       2021       2020       2130       2131       2142       2141  
      2010       2011       2022       2021       2131       2132       2143       2142  
      2011       2012       2023       2022       2132       2133       2144       2143  
      2012       2013       2024       2023       2133       2134       2145       2144  
      2014       2015       2026       2025       2135       2136       2147       2146  
      2015       2016       2027       2026       2136       2137       2148       2147  
      2016       2017       2028       2027       2137       2138       2149       2148  
      2017       2018       2029       2028       2138       2139       2150       2149  
      2018       2019       2030       2029       2139       2140       2151       2150  
      2019       2020       2031       2030       2140       2141       2152       2151  
      2020       2021       2032       2031       2141       2142       2153       2152  
      2021       2022       2033       2032       2142       2143       2154       2153  
      2022       2023       2034       2033       2143       2144       2155       2154  
      2023       2024       2035       2034       2144       2145       2156       2155  
      2025       2026       2037       2036       2146       2147       2158       2157  
      2026       2027       2038       2037       2147       2148       2159       2158  
      2027       2028       2039       2038       2148       2149       2160       2159  
      2028       2029       2040       2039       2149       2150       2161       2160  
      2029       2030       2041       2040       2150       2151       2162       2161  
      2030       2031       2042       2041       2151       2152       2163       2162  
      2031       2032       2043       2042       2152       2153       2164       2163  
      2032       2033       2044       2043       2153       2154       2165       2164  
      2033       2034       2045       2044       2154       2155       2166       2165  
      2034       2035       2046       2045       2155       2156       2167       2166  
      2036       2037       2048       2047       2157       2158       2169       2168  
      2037       2038       2049       2048       2158       2159       2170       2169  
      2038       2039       2050       2049       2159       2160       2171       2170  
      2039       2040       2051       2050       2160       2161       2172       2171  
      2040       2041       2052       2051       2161       2162       2173       2172  
      2041       2042       2053       2052       2162       2163       2174       2173  
      2042       2043       2054       2053       2163       2164       2175       2174  
      2043       2044       2055       2054       2164       2165       2176       2175  
      2044       2045       2056       2055       2165       2166       2177       2176  
      2045       2046       2057       2056       2166       2167       2178       2177  
      2058       2059       2070       2069       2179       2180       2191       2190  
      2059       2060       2071       2070       2180       2181       2192       2191  
      2060       2061       2072       2071       2181       2182       2193       2192  
      2061       2062       2073       2072       2182       2183       2194       2193  
      2062       2063       2074       2073       2183       2184       2195       2194  
      2063       2064       2075       2074       2184       2185       2196       2195  
      2064       2065       2076       2075       2185       2186       2197       2196  
      2065       2066       2077       2076       2186       2187       2198       2197  
      2066       2067       2078       2077       2187       2188       2199       2198  
      2067       2068       2079       2078       2188       2189       2200       2199  
      2069       2070       2081       2080       2190       2191       2202       2201  
      2070       2071       2082       2081       2191       2192       2203       2202  
      2071       2072       2083       2082       2192       2193       2204       2203  
      2072       2073       2084       2083       2193       2194       2205       2204  
      2073       2074       2085       2084       2194       2195       2206       2205  
      2074       2075       2086       2085       2195       2196       2207       2206  
      2075       2076       2087       2086       2196       2197       2208       2207  
      2076       2077       2088       2087       2197       2198       2209       2208  
      2077       2078       2089       2088       2198       2199       2210       2209  
      2078       2079       2090       2089       2199       2200       2211       2210  
      2080       2081       2092       2091       2201       2202       2213       2212  
      2081       2082       2093       2092       2202       2203       2214       2213  
      2082       2083       2094       2093       2203       2204       2215       2214  
      2083       2084       2095       2094       2204       2205       2216       2215  
      2084       2085       2096       2095       2205       2206       2217       2216  
      2085       2086       2097       2096       2206       2207       2218       2217  
      2086       2087       2098       2097       2207       2208       2219       2218  
      2087       2088       2099       2098       2208       2209       2220       2219  
      2088       2089       2100       2099       2209       2210       2221       2220  
      2089       2090       2101       2100       2210       2211       2222       2221  
      2091       2092       2103       2102       2212       2213       2224       2223  
      2092       2093       2104       2103       2213       2214       2225       2224  
      2093       2094       2105       2104       2214       2215       2226       2225  
      2094       2095       2106       2105       2215       2216       2227       2226  
      2095       2096       2107       2106       2216       2217       2228       2227  
      2096       2097       2108       2107       2217       2218       2229       2228  
      2097       2098       2109       2108       2218       2219       2230       2229  
      2098       2099       2110       2109       2219       2220       2231       2230  
      2099       2100       2111       2110       2220       2221       2232       2231  
      2100       2101       2112       2111       2221       2222       2233       2232  
      2102       2103       2114       2113       2223       2224       2235       2234  
      2103       2104       2115       2114       2224       2225       2236       2235  
      2104       2105       2116       2115       2225       2226       2237       2236  
      2105       2106       2117       2116       2226       2227       2238       2237  
      2106       2107       2118       2117       2227       2228       2239       2238  
      2107       2108       2119       2118       2228       2229       2240       2239  
      2108       2109       2120       2119       2229       2230       2241       2240  
      2109       2110       2121       2120       2230       2231       2242       2241  
      2110       2111       2122       2121       2231       2232       2243       2242  
      2111       2112       2123       2122       2232       2233       2244       2243  
      2113       2114       2125       2124       2234       2235       2246       2245  
      2114       2115       2126       2125       2235       2236       2247       2246  
      2115       2116       2127       2126       2236       2237       2248       2247  
      2116       2117       2128       2127       2237       2238       2249       2248  
      2117       2118       2129       2128       2238       2239       2250       2249  
      2118       2119       2130       2129       2239       2240       2251       2250  
      2119       2120       2131       2130       2240       2241       2252       2251  
      2120       2121       2132       2131       2241       2242       2253       2252  
      2121       2122       2133       2132       2242       2243       2254       2253  
      2122       2123       2134       2133       2243       2244       2255       2254  
      2124       2125       2136       2135       2245       2246       2257       2256  
      2125       2126       2137       2136       2246       2247       2258       2257  
      2126       2127       2138       2137       2247       2248       2259       2258  
      2127       2128       2139       2138       2248       2249       2260       2259  
      2128       2129       2140       2139       2249       2250       2261       2260  
      2129       2130       2141       2140       2250       2251       2262       2261  
      2130       2131       2142       2141       2251       2252       2263       2262  
      2131       2132       2143       2142       2252       2253       2264       2263  
      2132       2133       2144       2143       2253       2254       2265       2264  
      2133       2134       2145       2144       2254       2255       2266       2265  
      2135       2136       2147       2146       2256       2257       2268       2267  
      2136       2137       2148       2147       2257       2258       2269       2268  
      2137       2138       2149       2148       2258       2259       2270       2269  
      2138       2139       2150       2149       2259       2260       2271       2270  
      2139       2140       2151       2150       2260       2261       2272       2271  
      2140       2141       2152       2151       2261       2262       2273       2272  
      2141       2142       2153       2152       2262       2263       2274       2273  
      2142       2143       2154       2153       2263       2264       2275       2274  
      2143       2144       2155       2154       2264       2265       2276       2275  
      2144       2145       2156       2155       2265       2266       2277       2276  
      2146       2147       2158       2157       2267       2268       2279       2278  
      2147       2148       2159       2158       2268       2269       2280       2279  
      2148       2149       2160       2159       2269       2270       2281       2280  
      2149       2150       2161       2160       2270       2271       2282       2281  
      2150       2151       2162       2161       2271       2272       2283       2282  
      2151       2152       2163       2162       2272       2273       2284       2283  
      2152       2153       2164       2163       2273       2274       2285       2284  
      2153       2154       2165       2164       2274       2275       2286       2285  
      2154       2155       2166       2165       2275       2276       2287       2286  
      2155       2156       2167       2166       2276       2277       2288       2287  
      2157       2158       2169       2168       2278       2279       2290       2289  
      2158       2159       2170       2169       2279       2280       2291       2290  
      2159       2160       2171       2170       2280       2281       2292       2291  
      2160       2161       2172       2171       2281       2282       2293       2292  
      2161       2162       2173       2172       2282       2283       2294       2293  
      2162       2163       2174       2173       2283       2284       2295       2294  
      2163       2164       2175       2174       2284       2285       2296       2295  
      2164       2165       2176       2175       2285       2286       2297       2296  
      2165       2166       2177       2176       2286       2287       2298       2297  
      2166       2167       2178       2177       2287       2288       2299       2298  
      2179       2180       2191       2190       2300       2301       2312       2311  
      2180       2181       2192       2191       2301       2302       2313       2312  
      2181       2182       2193       2192       2302       2303       2314       2313  
      2182       2183       2194       2193       2303       2304       2315       2314  
      2183       2184       2195       2194       2304       2305       2316       2315  
      2184       2185       2196       2195       2305       2306       2317       2316  
      2185       2186       2197       2196       2306       2307       2318       2317  
      2186       2187       2198       2197       2307       2308       2319       2318  
      2187       2188       2199       2198       2308       2309       2320       2319  
      2188       2189       2200       2199       2309       2310       2321       2320  
      2190       2191       2202       2201       2311       2312       2323       2322  
      2191       2192       2203       2202       2312       2313       2324       2323  
      2192       2193       2204       2203       2313       2314       2325       2324  
      2193       2194       2205       2204       2314       2315       2326       2325  
      2194       2195       2206       2205       2315       2316       2327       2326  
      2195       2196       2207       2206       2316       2317       2328       2327  
      2196       2197       2208       2207       2317       2318       2329       2328  
      2197       2198       2209       2208       2318       2319       2330       2329  
      2198       2199       2210       2209       2319       2320       2331       2330  
      2199       2200       2211       2210       2320       2321       2332       2331  
      2201       2202       2213       2212       2322       2323       2334       2333  
      2202       2203       2214       2213       2323       2324       2335       2334  
      2203       2204       2215       2214       2324       2325       2336       2335  
      2204       2205       2216       2215       2325       2326       2337       2336  
      2205       2206       2217       2216       2326       2327       2338       2337  
      2206       2207       2218       2217       2327       2328       2339       2338  
      2207       2208       2219       2218       2328       2329       2340       2339  
      2208       2209       2220       2219       2329       2330       2341       2340  
      2209       2210       2221       2220       2330       2331       2342       2341  
      2210       2211       2222       2221       2331       2332       2343       2342  
      2212       2213       2224       2223       2333       2334       2345       2344  
      2213       2214       2225       2224       2334       2335       2346       2345  
      2214       2215       2226       2225       2335       2336       2347       2346  
      2215       2216       2227       2226       2336       2337       2348       2347  
      2216       2217       2228       2227       2337       2338       2349       2348  
      2217       2218       2229       2228       2338       2339       2350       2349  
      2218       2219       2230       2229       2339       2340       2351       2350  
      2219       2220       2231       2230       2340       2341       2352       2351  
      2220       2221       2232       2231       2341       2342       2353       2352  
      2221       2222       2233       2232       2342       2343       2354       2353  
      2223       2224       2235       2234       2344       2345       2356       2355  
      2224       2225       2236       2235       2345       2346       2357       2356  
      2225       2226       2237       2236       2346       2347       2358       2357  
      2226       2227       2238       2237       2347       2348       2359       2358  
      2227       2228       2239       2238       2348       2349       2360       2359  
      2228       2229       2240       2239       2349       2350       2361       2360  
      2229       2230       2241       2240       2350       2351       2362       2361  
      2230       2231       2242       2241       2351       2352       2363       2362  
      2231       2232       2243       2242       2352       2353       2364       2363  
      2232       2233       2244       2243       2353       2354       2365       2364  
      2234       2235       2246       2245       2355       2356       2367       2366  
      2235       2236       2247       2246       2356       2357       2368       2367  
      2236       2237       2248       2247       2357       2358       2369       2368  
      2237       2238       2249       2248       2358       2359       2370       2369  
      2238       2239       2250       2249       2359       2360       2371       2370  
      2239       2240       2251       2250       2360       2361       2372       2371  
      2240       2241       2252       2251       2361       2362       2373       2372  
      2241       2242       2253       2252       2362       2363       2374       2373  
      2242       2243       2254       2253       2363       2364       2375       2374  
      2243       2244       2255       2254       2364       2365       2376       2375  
      2245       2246       2257       2256       2366       2367       2378       2377  
      2246       2247       2258       2257       2367       2368       2379       2378  
      2247       2248       2259       2258       2368       2369       2380       2379  
      2248       2249       2260       2259       2369       2370       2381       2380  
      2249       2250       2261       2260       2370       2371       2382       2381  
      2250       2251       2262       2261       2371       2372       2383       2382  
      2251       2252       2263       2262       2372       2373       2384       2383  
      2252       2253       2264       2263       2373       2374       2385       2384  
      2253       2254       2265       2264       2374       2375       2386       2385  
      2254       2255       2266       2265       2375       2376       2387       2386  
      2256       2257       2268       2267       2377       2378       2389       2388  
      2257       2258       2269       2268       2378       2379       2390       2389  
      2258       2259       2270       2269       2379       2380       2391       2390  
      2259       2260       2271       2270       2380       2381       2392       2391  
      2260       2261       2272       2271       2381       2382       2393       2392  
      2261       2262       2273       2272       2382       2383       2394       2393  
      2262       2263       2274       2273       2383       2384       2395       2394  
      2263       2264       2275       2274       2384       2385       2396       2395  
      2264       2265       2276       2275       2385       2386       2397       2396  
      2265       2266       2277       2276       2386       2387       2398       2397  
      2267       2268       2279       2278       2388       2389       2400       2399  
      2268       2269       2280       2279       2389       2390       2401       2400  
      2269       2270       2281       2280       2390       2391       2402       2401  
      2270       2271       2282       2281       2391       2392       2403       2402  
      2271       2272       2283       2282       2392       2393       2404       2403  
      2272       2273       2284       2283       2393       2394       2405       2404  
      2273       2274       2285       2284       2394       2395       2406       2405  
      2274       2275       2286       2285       2395       2396       2407       2406  
      2275       2276       2287       2286       2396       2397       2408       2407  
      2276       2277       2288       2287       2397       2398       2409       2408  
      2278       2279       2290       2289       2399       2400       2411       2410  
      2279       2280       2291       2290       2400       2401       2412       2411  
      2280       2281       2292       2291       2401       2402       2413       2412  
      2281       2282       2293       2292       2402       2403       2414       2413  
      2282       2283       2294       2293       2403       2404       2415       2414  
      2283       2284       2295       2294       2404       2405       2416       2415  
      2284       2285       2296       2295       2405       2406       2417       2416  
      2285       2286       2297       2296       2406       2407       2418       2417  
      2286       2287       2298       2297       2407       2408       2419       2418  
      2287       2288       2299       2298       2408       2409       2420       2419  
      2300       2301       2312       2311       2421       2422       2433       2432  
      2301       2302       2313       2312       2422       2423       2434       2433  
      2302       2303       2314       2313       2423       2424       2435       2434  
      2303       2304       2315       2314       2424       2425       2436       2435  
      2304       2305       2316       2315       2425       2426       2437       2436  
      2305       2306       2317       2316       2426       2427       2438       2437  
      2306       2307       2318       2317       2427       2428       2439       2438  
      2307       2308       2319       2318       2428       2429       2440       2439  
      2308       2309       2320       2319       2429       2430       2441       2440  
      2309       2310       2321       2320       2430       2431       2442       2441  
      2311       2312       2323       2322       2432       2433       2444       2443  
      2312       2313       2324       2323       2433       2434       2445       2444  
      2313       2314       2325       2324       2434       2435       2446       2445  
      2314       2315       2326       2325       2435       2436       2447       2446  
      2315       2316       2327       2326       2436       2437       2448       2447  
      2316       2317       2328       2327       2437       2438       2449       2448  
      2317       2318       2329       2328       2438       2439       2450       2449  
      2318       2319       2330       2329       2439       2440       2451       2450  
      2319       2320       2331       2330       2440       2441       2452       2451  
      2320       2321       2332       2331       2441       2442       2453       2452  
      2322       2323       2334       2333       2443       2444       2455       2454  
      2323       2324       2335       2334       2444       2445       2456       2455  
      2324       2325       2336       2335       2445       2446       2457       2456  
      2325       2326       2337       2336       2446       2447       2458       2457  
      2326       2327       2338       2337       2447       2448       2459       2458  
      2327       2328       2339       2338       2448       2449       2460       2459  
      2328       2329       2340       2339       2449       2450       2461       2460  
      2329       2330       2341       2340       2450       2451       2462       2461  
      2330       2331       2342       2341       2451       2452       2463       2462  
      2331       2332       2343       2342       2452       2453       2464       2463  
      2333       2334       2345       2344       2454       2455       2466       2465  
      2334       2335       2346       2345       2455       2456       2467       2466  
      2335       2336       2347       2346       2456       2457       2468       2467  
      2336       2337       2348       2347       2457       2458       2469       2468  
      2337       2338       2349       2348       2458       2459       2470       2469  
      2338       2339       2350       2349       2459       2460       2471       2470  
      2339       2340       2351       2350       2460       2461       2472       2471  
      2340       2341       2352       2351       2461       2462       2473       2472  
      2341       2342       2353       2352       2462       2463       2474       2473  
      2342       2343       2354       2353       2463       2464       2475       2474  
      2344       2345       2356       2355       2465       2466       2477       2476  
      2345       2346       2357       2356       2466       2467       2478       2477  
      2346       2347       2358       2357       2467       2468       2479       2478  
      2347       2348       2359       2358       2468       2469       2480       2479  
      2348       2349       2360       2359       2469       2470       2481       2480  
      2349       2350       2361       2360       2470       2471       2482       2481  
      2350       2351       2362       2361       2471       2472       2483       2482  
      2351       2352       2363       2362       2472       2473       2484       2483  
      2352       2353       2364       2363       2473       2474       2485       2484  
      2353       2354       2365       2364       2474       2475       2486       2485  
      2355       2356       2367       2366       2476       2477       2488       2487  
      2356       2357       2368       2367       2477       2478       2489       2488  
      2357       2358       2369       2368       2478       2479       2490       2489  
      2358       2359       2370       2369       2479       2480       2491       2490  
      2359       2360       2371       2370       2480       2481       2492       2491  
      2360       2361       2372       2371       2481       2482       2493       2492  
      2361       2362       2373       2372       2482       2483       2494       2493  
      2362       2363       2374       2373       2483       2484       2495       2494  
      2363       2364       2375       2374       2484       2485       2496       2495  
      2364       2365       2376       2375       2485       2486       2497       2496  
      2366       2367       2378       2377       2487       2488       2499       2498  
      2367       2368       2379       2378       2488       2489       2500       2499  
      2368       2369       2380       2379       2489       2490       2501       2500  
      2369       2370       2381       2380       2490       2491       2502       2501  
      2370       2371       2382       2381       2491       2492       2503       2502  
      2371       2372       2383       2382       2492       2493       2504       2503  
      2372       2373       2384       2383       2493       2494       2505       2504  
      2373       2374       2385       2384       2494       2495       2506       2505  
      2374       2375       2386       2385       2495       2496       2507       2506  
      2375       2376       2387       2386       2496       2497       2508       2507  
      2377       2378       2389       2388       2498       2499       2510       2509  
      2378       2379       2390       2389       2499       2500       2511       2510  
      2379       2380       2391       2390       2500       2501       2512       2511  
      2380       2381       2392       2391       2501       2502       2513       2512  
      2381       2382       2393       2392       2502       2503       2514       2513  
      2382       2383       2394       2393       2503       2504       2515       2514  
      2383       2384       2395       2394       2504       2505       2516       2515  
      2384       2385       2396       2395       2505       2506       2517       2516  
      2385       2386       2397       2396       2506       2507       2518       2517  
      2386       2387       2398       2397       2507       2508       2519       2518  
      2388       2389       2400       2399       2509       2510       2521       2520  
      2389       2390       2401       2400       2510       2511       2522       2521  
      2390       2391       2402       2401       2511       2512       2523       2522  
      2391       2392       2403       2402       2512       2513       2524       2523  
      2392       2393       2404       2403       2513       2514       2525       2524  
      2393       2394       2405       2404       2514       2515       2526       2525  
      2394       2395       2406       2405       2515       2516       2527       2526  
      2395       2396       2407       2406       2516       2517       2528       2527  
      2396       2397       2408       2407       2517       2518       2529       2528  
      2397       2398       2409       2408       2518       2519       2530       2529  
      2399       2400       2411       2410       2520       2521       2532       2531  
      2400       2401       2412       2411       2521       2522       2533       2532  
      2401       2402       2413       2412       2522       2523       2534       2533  
      2402       2403       2414       2413       2523       2524       2535       2534  
      2403       2404       2415       2414       2524       2525       2536       2535  
      2404       2405       2416       2415       2525       2526       2537       2536  
      2405       2406       2417       2416       2526       2527       2538       2537  
      2406       2407       2418       2417       2527       2528       2539       2538  
      2407       2408       2419       2418       2528       2529       2540       2539  
      2408       2409       2420       2419       2529       2530       2541       2540  
      2421       2422       2433       2432       2542       2543       2554       2553  
      2422       2423       2434       2433       2543       2544       2555       2554  
      2423       2424       2435       2434       2544       2545       2556       2555  
      2424       2425       2436       2435       2545       2546       2557       2556  
      2425       2426       2437       2436       2546       2547       2558       2557  
      2426       2427       2438       2437       2547       2548       2559       2558  
      2427       2428       2439       2438       2548       2549       2560       2559  
      2428       2429       2440       2439       2549       2550       2561       2560  
      2429       2430       2441       2440       2550       2551       2562       2561  
      2430       2431       2442       2441       2551       2552       2563       2562  
      2432       2433       2444       2443       2553       2554       2565       2564  
      2433       2434       2445       2444       2554       2555       2566       2565  
      2434       2435       2446       2445       2555       2556       2567       2566  
      2435       2436       2447       2446       2556       2557       2568       2567  
      2436       2437       2448       2447       2557       2558       2569       2568  
      2437       2438       2449       2448       2558       2559       2570       2569  
      2438       2439       2450       2449       2559       2560       2571       2570  
      2439       2440       2451       2450       2560       2561       2572       2571  
      2440       2441       2452       2451       2561       2562       2573       2572  
      2441       2442       2453       2452       2562       2563       2574       2573  
      2443       2444       2455       2454       2564       2565       2576       2575  
      2444       2445       2456       2455       2565       2566       2577       2576  
      2445       2446       2457       2456       2566       2567       2578       2577  
      2446       2447       2458       2457       2567       2568       2579       2578  
      2447       2448       2459       2458       2568       2569       2580       2579  
      2448       2449       2460       2459       2569       2570       2581       2580  
      2449       2450       2461       2460       2570       2571       2582       2581  
      2450       2451       2462       2461       2571       2572       2583       2582  
      2451       2452       2463       2462       2572       2573       2584       2583  
      2452       2453       2464       2463       2573       2574       2585       2584  
      2454       2455       2466       2465       2575       2576       2587       2586  
      2455       2456       2467       2466       2576       2577       2588       2587  
      2456       2457       2468       2467       2577       2578       2589       2588  
      2457       2458       2469       2468       2578       2579       2590       2589  
      2458       2459       2470       2469       2579       2580       2591       2590  
      2459       2460       2471       2470       2580       2581       2592       2591  
      2460       2461       2472       2471       2581       2582       2593       2592  
      2461       2462       2473       2472       2582       2583       2594       2593  
      2462       2463       2474       2473       2583       2584       2595       2594  
      2463       2464       2475       2474       2584       2585       2596       2595  
      2465       2466       2477       2476       2586       2587       2598       2597  
      2466       2467       2478       2477       2587       2588       2599       2598  
      2467       2468       2479       2478       2588       2589       2600       2599  
      2468       2469       2480       2479       2589       2590       2601       2600  
      2469       2470       2481       2480       2590       2591       2602       2601  
      2470       2471       2482       2481       2591       2592       2603       2602  
      2471       2472       2483       2482       2592       2593       2604       2603  
      2472       2473       2484       2483       2593       2594       2605       2604  
      2473       2474       2485       2484       2594       2595       2606       2605  
      2474       2475       2486       2485       2595       2596       2607       2606  
      2476       2477       2488       2487       2597       2598       2609       2608  
      2477       2478       2489       2488       2598       2599       2610       2609  
      2478       2479       2490       2489       2599       2600       2611       2610  
      2479       2480       2491       2490       2600       2601       2612       2611  
      2480       2481       2492       2491       2601       2602       2613       2612  
      2481       2482       2493       2492       2602       2603       2614       2613  
      2482       2483       2494       2493       2603       2604       2615       2614  
      2483       2484       2495       2494       2604       2605       2616       2615  
      2484       2485       2496       2495       2605       2606       2617       2616  
      2485       2486       2497       2496       2606       2607       2618       2617  
      2487       2488       2499       2498       2608       2609       2620       2619  
      2488       2489       2500       2499       2609       2610       2621       2620  
      2489       2490       2501       2500       2610       2611       2622       2621  
      2490       2491       2502       2501       2611       2612       2623       2622  
      2491       2492       2503       2502       2612       2613       2624       2623  
      2492       2493       2504       2503       2613       2614       2625       2624  
      2493       2494       2505       2504       2614       2615       2626       2625  
      2494       2495       2506       2505       2615       2616       2627       2626  
      2495       2496       2507       2506       2616       2617       2628       2627  
      2496       2497       2508       2507       2617       2618       2629       2628  
      2498       2499       2510       2509       2619       2620       2631       2630  
      2499       2500       2511       2510       2620       2621       2632       2631  
      2500       2501       2512       2511       2621       2622       2633       2632  
      2501       2502       2513       2512       2622       2623       2634       2633  
      2502       2503       2514       2513       2623       2624       2635       2634  
      2503       2504       2515       2514       2624       2625       2636       2635  
      2504       2505       2516       2515       2625       2626       2637       2636  
      2505       2506       2517       2516       2626       2627       2638       2637  
      2506       2507       2518       2517       2627       2628       2639       2638  
      2507       2508       2519       2518       2628       2629       2640       2639  
      2509       2510       2521       2520       2630       2631       2642       2641  
      2510       2511       2522       2521       2631       2632       2643       2642  
      2511       2512       2523       2522       2632       2633       2644       2643  
      2512       2513       2524       2523       2633       2634       2645       2644  
      2513       2514       2525       2524       2634       2635       2646       2645  
      2514       2515       2526       2525       2635       2636       2647       2646  
      2515       2516       2527       2526       2636       2637       2648       2647  
      2516       2517       2528       2527       2637       2638       2649       2648  
      2517       2518       2529       2528       2638       2639       2650       2649  
      2518       2519       2530       2529       2639       2640       2651       2650  
      2520       2521       2532       2531       2641       2642       2653       2652  
      2521       2522       2533       2532       2642       2643       2654       2653  
      2522       2523       2534       2533       2643       2644       2655       2654  
      2523       2524       2535       2534       2644       2645       2656       2655  
      2524       2525       2536       2535       2645       2646       2657       2656  
      2525       2526       2537       2536       2646       2647       2658       2657  
      2526       2527       2538       2537       2647       2648       2659       2658  
      2527       2528       2539       2538       2648       2649       2660       2659  
      2528       2529       2540       2539       2649       2650       2661       2660  
      2529       2530       2541       2540       2650       2651       2662       2661  
      2542       2543       2554       2553       2663       2664       2675       2674  
      2543       2544       2555       2554       2664       2665       2676       2675  
      2544       2545       2556       2555       2665       2666       2677       2676  
      2545       2546       2557       2556       2666       2667       2678       2677  
      2546       2547       2558       2557       2667       2668       2679       2678  
      2547       2548       2559       2558       2668       2669       2680       2679  
      2548       2549       2560       2559       2669       2670       2681       2680  
      2549       2550       2561       2560       2670       2671       2682       2681  
      2550       2551       2562       2561       2671       2672       2683       2682  
      2551       2552       2563       2562       2672       2673       2684       2683  
      2553       2554       2565       2564       2674       2675       2686       2685  
      2554       2555       2566       2565       2675       2676       2687       2686  
      2555       2556       2567       2566       2676       2677       2688       2687  
      2556       2557       2568       2567       2677       2678       2689       2688  
      2557       2558       2569       2568       2678       2679       2690       2689  
      2558       2559       2570       2569       2679       2680       2691       2690  
      2559       2560       2571       2570       2680       2681       2692       2691  
      2560       2561       2572       2571       2681       2682       2693       2692  
      2561       2562       2573       2572       2682       2683       2694       2693  
      2562       2563       2574       2573       2683       2684       2695       2694  
      2564       2565       2576       2575       2685       2686       2697       2696  
      2565       2566       2577       2576       2686       2687       2698       2697  
      2566       2567       2578       2577       2687       2688       2699       2698  
      2567       2568       2579       2578       2688       2689       2700       2699  
      2568       2569       2580       2579       2689       2690       2701       2700  
      2569       2570       2581       2580       2690       2691       2702       2701  
      2570       2571       2582       2581       2691       2692       2703       2702  
      2571       2572       2583       2582       2692       2693       2704       2703  
      2572       2573       2584       2583       2693       2694       2705       2704  
      2573       2574       2585       2584       2694       2695       2706       2705  
      2575       2576       2587       2586       2696       2697       2708       2707  
      2576       2577       2588       2587       2697       2698       2709       2708  
      2577       2578       2589       2588       2698       2699       2710       2709  
      2578       2579       2590       2589       2699       2700       2711       2710  
      2579       2580       2591       2590       2700       2701       2712       2711  
      2580       2581       2592       2591       2701       2702       2713       2712  
      2581       2582       2593       2592       2702       2703       2714       2713  
      2582       2583       2594       2593       2703       2704       2715       2714  
      2583       2584       2595       2594       2704       2705       2716       2715  
      2584       2585       2596       2595       2705       2706       2717       2716  
      2586       2587       2598       2597       2707       2708       2719       2718  
      2587       2588       2599       2598       2708       2709       2720       2719  
      2588       2589       2600       2599       2709       2710       2721       2720  
      2589       2590       2601       2600       2710       2711       2722       2721  
      2590       2591       2602       2601       2711       2712       2723       2722  
      2591       2592       2603       2602       2712       2713       2724       2723  
      2592       2593       2604       2603       2713       2714       2725       2724  
      2593       2594       2605       2604       2714       2715       2726       2725  
      2594       2595       2606       2605       2715       2716       2727       2726  
      2595       2596       2607       2606       2716       2717       2728       2727  
      2597       2598       2609       2608       2718       2719       2730       2729  
      2598       2599       2610       2609       2719       2720       2731       2730  
      2599       2600       2611       2610       2720       2721       2732       2731  
      2600       2601       2612       2611       2721       2722       2733       2732  
      2601       2602       2613       2612       2722       2723       2734       2733  
      2602       2603       2614       2613       2723       2724       2735       2734  
      2603       2604       2615       2614       2724       2725       2736       2735  
      2604       2605       2616       2615       2725       2726       2737       2736  
      2605       2606       2617       2616       2726       2727       2738       2737  
      2606       2607       2618       2617       2727       2728       2739       2738  
      2608       2609       2620       2619       2729       2730       2741       2740  
      2609       2610       2621       2620       2730       2731       2742       2741  
      2610       2611       2622       2621       2731       2732       2743       2742  
      2611       2612       2623       2622       2732       2733       2744       2743  
      2612       2613       2624       2623       2733       2734       2745       2744  
      2613       2614       2625       2624       2734       2735       2746       2745  
      2614       2615       2626       2625       2735       2736       2747       2746  
      2615       2616       2627       2626       2736       2737       2748       2747  
      2616       2617       2628       2627       2737       2738       2749       2748  
      2617       2618       2629       2628       2738       2739       2750       2749  
      2619       2620       2631       2630       2740       2741       2752       2751  
      2620       2621       2632       2631       2741       2742       2753       2752  
      2621       2622       2633       2632       2742       2743       2754       2753  
      2622       2623       2634       2633       2743       2744       2755       2754  
      2623       2624       2635       2634       2744       2745       2756       2755  
      2624       2625       2636       2635       2745       2746       2757       2756  
      2625       2626       2637       2636       2746       2747       2758       2757  
      2626       2627       2638       2637       2747       2748       2759       2758  
      2627       2628       2639       2638       2748       2749       2760       2759  
      2628       2629       2640       2639       2749       2750       2761       2760  
      2630       2631       2642       2641       2751       2752       2763       2762  
      2631       2632       2643       2642       2752       2753       2764       2763  
      2632       2633       2644       2643       2753       2754       2765       2764  
      2633       2634       2645       2644       2754       2755       2766       2765  
      2634       2635       2646       2645       2755       2756       2767       2766  
      2635       2636       2647       2646       2756       2757       2768       2767  
      2636       2637       2648       2647       2757       2758       2769       2768  
      2637       2638       2649       2648       2758       2759       2770       2769  
      2638       2639       2650       2649       2759       2760       2771       2770  
      2639       2640       2651       2650       2760       2761       2772       2771  
      2641       2642       2653       2652       2762       2763       2774       2773  
      2642       2643       2654       2653       2763       2764       2775       2774  
      2643       2644       2655       2654       2764       2765       2776       2775  
      2644       2645       2656       2655       2765       2766       2777       2776  
      2645       2646       2657       2656       2766       2767       2778       2777  
      2646       2647       2658       2657       2767       2768       2779       2778  
      2647       2648       2659       2658       2768       2769       2780       2779  
      2648       2649       2660       2659       2769       2770       2781       2780  
      2649       2650       2661       2660       2770       2771       2782       2781  
      2650       2651       2662       2661       2771       2772       2783       2782  
      2663       2664       2675       2674       2784       2785       2796       2795  
      2664       2665       2676       2675       2785       2786       2797       2796  
      2665       2666       2677       2676       2786       2787       2798       2797  
      2666       2667       2678       2677       2787       2788       2799       2798  
      2667       2668       2679       2678       2788       2789       2800       2799  
      2668       2669       2680       2679       2789       2790       2801       2800  
      2669       2670       2681       2680       2790       2791       2802       2801  
      2670       2671       2682       2681       2791       2792       2803       2802  
      2671       2672       2683       2682       2792       2793       2804       2803  
      2672       2673       2684       2683       2793       2794       2805       2804  
      2674       2675       2686       2685       2795       2796       2807       2806  
      2675       2676       2687       2686       2796       2797       2808       2807  
      2676       2677       2688       2687       2797       2798       2809       2808  
      2677       2678       2689       2688       2798       2799       2810       2809  
      2678       2679       2690       2689       2799       2800       2811       2810  
      2679       2680       2691       2690       2800       2801       2812       2811  
      2680       2681       2692       2691       2801       2802       2813       2812  
      2681       2682       2693       2692       2802       2803       2814       2813  
      2682       2683       2694       2693       2803       2804       2815       2814  
      2683       2684       2695       2694       2804       2805       2816       2815  
      2685       2686       2697       2696       2806       2807       2818       2817  
      2686       2687       2698       2697       2807       2808       2819       2818  
      2687       2688       2699       2698       2808       2809       2820       2819  
      2688       2689       2700       2699       2809       2810       2821       2820  
      2689       2690       2701       2700       2810       2811       2822       2821  
      2690       2691       2702       2701       2811       2812       2823       2822  
      2691       2692       2703       2702       2812       2813       2824       2823  
      2692       2693       2704       2703       2813       2814       2825       2824  
      2693       2694       2705       2704       2814       2815       2826       2825  
      2694       2695       2706       2705       2815       2816       2827       2826  
      2696       2697       2708       2707       2817       2818       2829       2828  
      2697       2698       2709       2708       2818       2819       2830       2829  
      2698       2699       2710       2709       2819       2820       2831       2830  
      2699       2700       2711       2710       2820       2821       2832       2831  
      2700       2701       2712       2711       2821       2822       2833       2832  
      2701       2702       2713       2712       2822       2823       2834       2833  
      2702       2703       2714       2713       2823       2824       2835       2834  
      2703       2704       2715       2714       2824       2825       2836       2835  
      2704       2705       2716       2715       2825       2826       2837       2836  
      2705       2706       2717       2716       2826       2827       2838       2837  
      2707       2708       2719       2718       2828       2829       2840       2839  
      2708       2709       2720       2719       2829       2830       2841       2840  
      2709       2710       2721       2720       2830       2831       2842       2841  
      2710       2711       2722       2721       2831       2832       2843       2842  
      2711       2712       2723       2722       2832       2833       2844       2843  
      2712       2713       2724       2723       2833       2834       2845       2844  
      2713       2714       2725       2724       2834       2835       2846       2845  
      2714       2715       2726       2725       2835       2836       2847       2846  
      2715       2716       2727       2726       2836       2837       2848       2847  
      2716       2717       2728       2727       2837       2838       2849       2848  
      2718       2719       2730       2729       2839       2840       2851       2850  
      2719       2720       2731       2730       2840       2841       2852       2851  
      2720       2721       2732       2731       2841       2842       2853       2852  
      2721       2722       2733       2732       2842       2843       2854       2853  
      2722       2723       2734       2733       2843       2844       2855       2854  
      2723       2724       2735       2734       2844       2845       2856       2855  
      2724       2725       2736       2735       2845       2846       2857       2856  
      2725       2726       2737       2736       2846       2847       2858       2857  
      2726       2727       2738       2737       2847       2848       2859       2858  
      2727       2728       2739       2738       2848       2849       2860       2859  
      2729       2730       2741       2740       2850       2851       2862       2861  
      2730       2731       2742       2741       2851       2852       2863       2862  
      2731       2732       2743       2742       2852       2853       2864       2863  
      2732       2733       2744       2743       2853       2854       2865       2864  
      2733       2734       2745       2744       2854       2855       2866       2865  
      2734       2735       2746       2745       2855       2856       2867       2866  
      2735       2736       2747       2746       2856       2857       2868       2867  
      2736       2737       2748       2747       2857       2858       2869       2868  
      2737       2738       2749       2748       2858       2859       2870       2869  
      2738       2739       2750       2749       2859       2860       2871       2870  
      2740       2741       2752       2751       2861       2862       2873       2872  
      2741       2742       2753       2752       2862       2863       2874       2873  
      2742       2743       2754       2753       2863       2864       2875       2874  
      2743       2744       2755       2754       2864       2865       2876       2875  
      2744       2745       2756       2755       2865       2866       2877       2876  
      2745       2746       2757       2756       2866       2867       2878       2877  
      2746       2747       2758       2757       2867       2868       2879       2878  
      2747       2748       2759       2758       2868       2869       2880       2879  
      2748       2749       2760       2759       2869       2870       2881       2880  
      2749       2750       2761       2760       2870       2871       2882       2881  
      2751       2752       2763       2762       2872       2873       2884       2883  
      2752       2753       2764       2763       2873       2874       2885       2884  
      2753       2754       2765       2764       2874       2875       2886       2885  
      2754       2755       2766       2765       2875       2876       2887       2886  
      2755       2756       2767       2766       2876       2877       2888       2887  
      2756       2757       2768       2767       2877       2878       2889       2888  
      2757       2758       2769       2768       2878       2879       2890       2889  
      2758       2759       2770       2769       2879       2880       2891       2890  
      2759       2760       2771       2770       2880       2881       2892       2891  
      2760       2761       2772       2771       2881       2882       2893       2892  
      2762       2763       2774       2773       2883       2884       2895       2894  
      2763       2764       2775       2774       2884       2885       2896       2895  
      2764       2765       2776       2775       2885       2886       2897       2896  
      2765       2766       2777       2776       2886       2887       2898       2897  
      2766       2767       2778       2777       2887       2888       2899       2898  
      2767       2768       2779       2778       2888       2889       2900       2899  
      2768       2769       2780       2779       2889       2890       2901       2900  
      2769       2770       2781       2780       2890       2891       2902       2901  
      2770       2771       2782       2781       2891       2892       2903       2902  
      2771       2772       2783       2782       2892       2893       2904       2903  
      2784       2785       2796       2795       2905       2906       2917       2916  
      2785       2786       2797       2796       2906       2907       2918       2917  
      2786       2787       2798       2797       2907       2908       2919       2918  
      2787       2788       2799       2798       2908       2909       2920       2919  
      2788       2789       2800       2799       2909       2910       2921       2920  
      2789       2790       2801       2800       2910       2911       2922       2921  
      2790       2791       2802       2801       2911       2912       2923       2922  
      2791       2792       2803       2802       2912       2913       2924       2923  
      2792       2793       2804       2803       2913       2914       2925       2924  
      2793       2794       2805       2804       2914       2915       2926       2925  
      2795       2796       2807       2806       2916       2917       2928       2927  
      2796       2797       2808       2807       2917       2918       2929       2928  
      2797       2798       2809       2808       2918       2919       2930       2929  
      2798       2799       2810       2809       2919       2920       2931       2930  
      2799       2800       2811       2810       2920       2921       2932       2931  
      2800       2801       2812       2811       2921       2922       2933       2932  
      2801       2802       2813       2812       2922       2923       2934       2933  
      2802       2803       2814       2813       2923       2924       2935       2934  
      2803       2804       2815       2814       2924       2925       2936       2935  
      2804       2805       2816       2815       2925       2926       2937       2936  
      2806       2807       2818       2817       2927       2928       2939       2938  
      2807       2808       2819       2818       2928       2929       2940       2939  
      2808       2809       2820       2819       2929       2930       2941       2940  
      2809       2810       2821       2820       2930       2931       2942       2941  
      2810       2811       2822       2821       2931       2932       2943       2942  
      2811       2812       2823       2822       2932       2933       2944       2943  
      2812       2813       2824       2823       2933       2934       2945       2944  
      2813       2814       2825       2824       2934       2935       2946       2945  
      2814       2815       2826       2825       2935       2936       2947       2946  
      2815       2816       2827       2826       2936       2937       2948       2947  
      2817       2818       2829       2828       2938       2939       2950       2949  
      2818       2819       2830       2829       2939       2940       2951       2950  
      2819       2820       2831       2830       2940       2941       2952       2951  
      2820       2821       2832       2831       2941       2942       2953       2952  
      2821       2822       2833       2832       2942       2943       2954       2953  
      2822       2823       2834       2833       2943       2944       2955       2954  
      2823       2824       2835       2834       2944       2945       2956       2955  
      2824       2825       2836       2835       2945       2946       2957       2956  
      2825       2826       2837       2836       2946       2947       2958       2957  
      2826       2827       2838       2837       2947       2948       2959       2958  
      2828       2829       2840       2839       2949       2950       2961       2960  
      2829       2830       2841       2840       2950       2951       2962       2961  
      2830       2831       2842       2841       2951       2952       2963       2962  
      2831       2832       2843       2842       2952       2953       2964       2963  
      2832       2833       2844       2843       2953       2954       2965       2964  
      2833       2834       2845       2844       2954       2955       2966       2965  
      2834       2835       2846       2845       2955       2956       2967       2966  
      2835       2836       2847       2846       2956       2957       2968       2967  
      2836       2837       2848       2847       2957       2958       2969       2968  
      2837       2838       2849       2848       2958       2959       2970       2969  
      2839       2840       2851       2850       2960       2961       2972       2971  
      2840       2841       2852       2851       2961       2962       2973       2972  
      2841       2842       2853       2852       2962       2963       2974       2973  
      2842       2843       2854       2853       2963       2964       2975       2974  
      2843       2844       2855       2854       2964       2965       2976       2975  
      2844       2845       2856       2855       2965       2966       2977       2976  
      2845       2846       2857       2856       2966       2967       2978       2977  
      2846       2847       2858       2857       2967       2968       2979       2978  
      2847       2848       2859       2858       2968       2969       2980       2979  
      2848       2849       2860       2859       2969       2970       2981       2980  
      2850       2851       2862       2861       2971       2972       2983       2982  
      2851       2852       2863       2862       2972       2973       2984       2983  
      2852       2853       2864       2863       2973       2974       2985       2984  
      2853       2854       2865       2864       2974       2975       2986       2985  
      2854       2855       2866       2865       2975       2976       2987       2986  
      2855       2856       2867       2866       2976       2977       2988       2987  
      2856       2857       2868       2867       2977       2978       2989       2988  
      2857       2858       2869       2868       2978       2979       2990       2989  
      2858       2859       2870       2869       2979       2980       2991       2990  
      2859       2860       2871       2870       2980       2981       2992       2991  
      2861       2862       2873       2872       2982       2983       2994       2993  
      2862       2863       2874       2873       2983       2984       2995       2994  
      2863       2864       2875       2874       2984       2985       2996       2995  
      2864       2865       2876       2875       2985       2986       2997       2996  
      2865       2866       2877       2876       2986       2987       2998       2997  
      2866       2867       2878       2877       2987       2988       2999       2998  
      2867       2868       2879       2878       2988       2989       3000       2999  
      2868       2869       2880       2879       2989       2990       3001       3000  
      2869       2870       2881       2880       2990       2991       3002       3001  
      2870       2871       2882       2881       2991       2992       3003       3002  
      2872       2873       2884       2883       2993       2994       3005       3004  
      2873       2874       2885       2884       2994       2995       3006       3005  
      2874       2875       2886       2885       2995       2996       3007       3006  
      2875       2876       2887       2886       2996       2997       3008       3007  
      2876       2877       2888       2887       2997       2998       3009       3008  
      2877       2878       2889       2888       2998       2999       3010       3009  
      2878       2879       2890       2889       2999       3000       3011       3010  
      2879       2880       2891       2890       3000       3001       3012       3011  
      2880       2881       2892       2891       3001       3002       3013       3012  
      2881       2882       2893       2892       3002       3003       3014       3013  
      2883       2884       2895       2894       3004       3005       3016       3015  
      2884       2885       2896       2895       3005       3006       3017       3016  
      2885       2886       2897       2896       3006       3007       3018       3017  
      2886       2887       2898       2897       3007       3008       3019       3018  
      2887       2888       2899       2898       3008       3009       3020       3019  
      2888       2889       2900       2899       3009       3010       3021       3020  
      2889       2890       2901       2900       3010       3011       3022       3021  
      2890       2891       2902       2901       3011       3012       3023       3022  
      2891       2892       2903       2902       3012       3013       3024       3023  
      2892       2893       2904       2903       3013       3014       3025       3024  
      2905       2906       2917       2916       3026       3027       3038       3037  
      2906       2907       2918       2917       3027       3028       3039       3038  
      2907       2908       2919       2918       3028       3029       3040       3039  
      2908       2909       2920       2919       3029       3030       3041       3040  
      2909       2910       2921       2920       3030       3031       3042       3041  
      2910       2911       2922       2921       3031       3032       3043       3042  
      2911       2912       2923       2922       3032       3033       3044       3043  
      2912       2913       2924       2923       3033       3034       3045       3044  
      2913       2914       2925       2924       3034       3035       3046       3045  
      2914       2915       2926       2925       3035       3036       3047       3046  
      2916       2917       2928       2927       3037       3038       3049       3048  
      2917       2918       2929       2928       3038       3039       3050       3049  
      2918       2919       2930       2929       3039       3040       3051       3050  
      2919       2920       2931       2930       3040       3041       3052       3051  
      2920       2921       2932       2931       3041       3042       3053       3052  
      2921       2922       2933       2932       3042       3043       3054       3053  
      2922       2923       2934       2933       3043       3044       3055       3054  
      2923       2924       2935       2934       3044       3045       3056       3055  
      2924       2925       2936       2935       3045       3046       3057       3056  
      2925       2926       2937       2936       3046       3047       3058       3057  
      2927       2928       2939       2938       3048       3049       3060       3059  
      2928       2929       2940       2939       3049       3050       3061       3060  
      2929       2930       2941       2940       3050       3051       3062       3061  
      2930       2931       2942       2941       3051       3052       3063       3062  
      2931       2932       2943       2942       3052       3053       3064       3063  
      2932       2933       2944       2943       3053       3054       3065       3064  
      2933       2934       2945       2944       3054       3055       3066       3065  
      2934       2935       2946       2945       3055       3056       3067       3066  
      2935       2936       2947       2946       3056       3057       3068       3067  
      2936       2937       2948       2947       3057       3058       3069       3068  
      2938       2939       2950       2949       3059       3060       3071       3070  
      2939       2940       2951       2950       3060       3061       3072       3071  
      2940       2941       2952       2951       3061       3062       3073       3072  
      2941       2942       2953       2952       3062       3063       3074       3073  
      2942       2943       2954       2953       3063       3064       3075       3074  
      2943       2944       2955       2954       3064       3065       3076       3075  
      2944       2945       2956       2955       3065       3066       3077       3076  
      2945       2946       2957       2956       3066       3067       3078       3077  
      2946       2947       2958       2957       3067       3068       3079       3078  
      2947       2948       2959       2958       3068       3069       3080       3079  
      2949       2950       2961       2960       3070       3071       3082       3081  
      2950       2951       2962       2961       3071       3072       3083       3082  
      2951       2952       2963       2962       3072       3073       3084       3083  
      2952       2953       2964       2963       3073       3074       3085       3084  
      2953       2954       2965       2964       3074       3075       3086       3085  
      2954       2955       2966       2965       3075       3076       3087       3086  
      2955       2956       2967       2966       3076       3077       3088       3087  
      2956       2957       2968       2967       3077       3078       3089       3088  
      2957       2958       2969       2968       3078       3079       3090       3089  
      2958       2959       2970       2969       3079       3080       3091       3090  
      2960       2961       2972       2971       3081       3082       3093       3092  
      2961       2962       2973       2972       3082       3083       3094       3093  
      2962       2963       2974       2973       3083       3084       3095       3094  
      2963       2964       2975       2974       3084       3085       3096       3095  
      2964       2965       2976       2975       3085       3086       3097       3096  
      2965       2966       2977       2976       3086       3087       3098       3097  
      2966       2967       2978       2977       3087       3088       3099       3098  
      2967       2968       2979       2978       3088       3089       3100       3099  
      2968       2969       2980       2979       3089       3090       3101       3100  
      2969       2970       2981       2980       3090       3091       3102       3101  
      2971       2972       2983       2982       3092       3093       3104       3103  
      2972       2973       2984       2983       3093       3094       3105       3104  
      2973       2974       2985       2984       3094       3095       3106       3105  
      2974       2975       2986       2985       3095       3096       3107       3106  
      2975       2976       2987       2986       3096       3097       3108       3107  
      2976       2977       2988       2987       3097       3098       3109       3108  
      2977       2978       2989       2988       3098       3099       3110       3109  
      2978       2979       2990       2989       3099       3100       3111       3110  
      2979       2980       2991       2990       3100       3101       3112       3111  
      2980       2981       2992       2991       3101       3102       3113       3112  
      2982       2983       2994       2993       3103       3104       3115       3114  
      2983       2984       2995       2994       3104       3105       3116       3115  
      2984       2985       2996       2995       3105       3106       3117       3116  
      2985       2986       2997       2996       3106       3107       3118       3117  
      2986       2987       2998       2997       3107       3108       3119       3118  
      2987       2988       2999       2998       3108       3109       3120       3119  
      2988       2989       3000       2999       3109       3110       3121       3120  
      2989       2990       3001       3000       3110       3111       3122       3121  
      2990       2991       3002       3001       3111       3112       3123       3122  
      2991       2992       3003       3002       3112       3113       3124       3123  
      2993       2994       3005       3004       3114       3115       3126       3125  
      2994       2995       3006       3005       3115       3116       3127       3126  
      2995       2996       3007       3006       3116       3117       3128       3127  
      2996       2997       3008       3007       3117       3118       3129       3128  
      2997       2998       3009       3008       3118       3119       3130       3129  
      2998       2999       3010       3009       3119       3120       3131       3130  
      2999       3000       3011       3010       3120       3121       3132       3131  
      3000       3001       3012       3011       3121       3122       3133       3132  
      3001       3002       3013       3012       3122       3123       3134       3133  
      3002       3003       3014       3013       3123       3124       3135       3134  
      3004       3005       3016       3015       3125       3126       3137       3136  
      3005       3006       3017       3016       3126       3127       3138       3137  
      3006       3007       3018       3017       3127       3128       3139       3138  
      3007       3008       3019       3018       3128       3129       3140       3139  
      3008       3009       3020       3019       3129       3130       3141       3140  
      3009       3010       3021       3020       3130       3131       3142       3141  
      3010       3011       3022       3021       3131       3132       3143       3142  
      3011       3012       3023       3022       3132       3133       3144       3143  
      3012       3013       3024       3023       3133       3134       3145       3144  
      3013       3014       3025       3024       3134       3135       3146       3145  
      3026       3027       3038       3037       3147       3148       3159       3158  
      3027       3028       3039       3038       3148       3149       3160       3159  
      3028       3029       3040       3039       3149       3150       3161       3160  
      3029       3030       3041       3040       3150       3151       3162       3161  
      3030       3031       3042       3041       3151       3152       3163       3162  
      3031       3032       3043       3042       3152       3153       3164       3163  
      3032       3033       3044       3043       3153       3154       3165       3164  
      3033       3034       3045       3044       3154       3155       3166       3165  
      3034       3035       3046       3045       3155       3156       3167       3166  
      3035       3036       3047       3046       3156       3157       3168       3167  
      3037       3038       3049       3048       3158       3159       3170       3169  
      3038       3039       3050       3049       3159       3160       3171       3170  
      3039       3040       3051       3050       3160       3161       3172       3171  
      3040       3041       3052       3051       3161       3162       3173       3172  
      3041       3042       3053       3052       3162       3163       3174       3173  
      3042       3043       3054       3053       3163       3164       3175       3174  
      3043       3044       3055       3054       3164       3165       3176       3175  
      3044       3045       3056       3055       3165       3166       3177       3176  
      3045       3046       3057       3056       3166       3167       3178       3177  
      3046       3047       3058       3057       3167       3168       3179       3178  
      3048       3049       3060       3059       3169       3170       3181       3180  
      3049       3050       3061       3060       3170       3171       3182       3181  
      3050       3051       3062       3061       3171       3172       3183       3182  
      3051       3052       3063       3062       3172       3173       3184       3183  
      3052       3053       3064       3063       3173       3174       3185       3184  
      3053       3054       3065       3064       3174       3175       3186       3185  
      3054       3055       3066       3065       3175       3176       3187       3186  
      3055       3056       3067       3066       3176       3177       3188       3187  
      3056       3057       3068       3067       3177       3178       3189       3188  
      3057       3058       3069       3068       3178       3179       3190       3189  
      3059       3060       3071       3070       3180       3181       3192       3191  
      3060       3061       3072       3071       3181       3182       3193       3192  
      3061       3062       3073       3072       3182       3183       3194       3193  
      3062       3063       3074       3073       3183       3184       3195       3194  
      3063       3064       3075       3074       3184       3185       3196       3195  
      3064       3065       3076       3075       3185       3186       3197       3196  
      3065       3066       3077       3076       3186       3187       3198       3197  
      3066       3067       3078       3077       3187       3188       3199       3198  
      3067       3068       3079       3078       3188       3189       3200       3199  
      3068       3069       3080       3079       3189       3190       3201       3200  
      3070       3071       3082       3081       3191       3192       3203       3202  
      3071       3072       3083       3082       3192       3193       3204       3203  
      3072       3073       3084       3083       3193       3194       3205       3204  
      3073       3074       3085       3084       3194       3195       3206       3205  
      3074       3075       3086       3085       3195       3196       3207       3206  
      3075       3076       3087       3086       3196       3197       3208       3207  
      3076       3077       3088       3087       3197       3198       3209       3208  
      3077       3078       3089       3088       3198       3199       3210       3209  
      3078       3079       3090       3089       3199       3200       3211       3210  
      3079       3080       3091       3090       3200       3201       3212       3211  
      3081       3082       3093       3092       3202       3203       3214       3213  
      3082       3083       3094       3093       3203       3204       3215       3214  
      3083       3084       3095       3094       3204       3205       3216       3215  
      3084       3085       3096       3095       3205       3206       3217       3216  
      3085       3086       3097       3096       3206       3207       3218       3217  
      3086       3087       3098       3097       3207       3208       3219       3218  
      3087       3088       3099       3098       3208       3209       3220       3219  
      3088       3089       3100       3099       3209       3210       3221       3220  
      3089       3090       3101       3100       3210       3211       3222       3221  
      3090       3091       3102       3101       3211       3212       3223       3222  
      3092       3093       3104       3103       3213       3214       3225       3224  
      3093       3094       3105       3104       3214       3215       3226       3225  
      3094       3095       3106       3105       3215       3216       3227       3226  
      3095       3096       3107       3106       3216       3217       3228       3227  
      3096       3097       3108       3107       3217       3218       3229       3228  
      3097       3098       3109       3108       3218       3219       3230       3229  
      3098       3099       3110       3109       3219       3220       3231       3230  
      3099       3100       3111       3110       3220       3221       3232       3231  
      3100       3101       3112       3111       3221       3222       3233       3232  
      3101       3102       3113       3112       3222       3223       3234       3233  
      3103       3104       3115       3114       3224       3225       3236       3235  
      3104       3105       3116       3115       3225       3226       3237       3236  
      3105       3106       3117       3116       3226       3227       3238       3237  
      3106       3107       3118       3117       3227       3228       3239       3238  
      3107       3108       3119       3118       3228       3229       3240       3239  
      3108       3109       3120       3119       3229       3230       3241       3240  
      3109       3110       3121       3120       3230       3231       3242       3241  
      3110       3111       3122       3121       3231       3232       3243       3242  
      3111       3112       3123       3122       3232       3233       3244       3243  
      3112       3113       3124       3123       3233       3234       3245       3244  
      3114       3115       3126       3125       3235       3236       3247       3246  
      3115       3116       3127       3126       3236       3237       3248       3247  
      3116       3117       3128       3127       3237       3238       3249       3248  
      3117       3118       3129       3128       3238       3239       3250       3249  
      3118       3119       3130       3129       3239       3240       3251       3250  
      3119       3120       3131       3130       3240       3241       3252       3251  
      3120       3121       3132       3131       3241       3242       3253       3252  
      3121       3122       3133       3132       3242       3243       3254       3253  
      3122       3123       3134       3133       3243       3244       3255       3254  
      3123       3124       3135       3134       3244       3245       3256       3255  
      3125       3126       3137       3136       3246       3247       3258       3257  
      3126       3127       3138       3137       3247       3248       3259       3258  
      3127       3128       3139       3138       3248       3249       3260       3259  
      3128       3129       3140       3139       3249       3250       3261       3260  
      3129       3130       3141       3140       3250       3251       3262       3261  
      3130       3131       3142       3141       3251       3252       3263       3262  
      3131       3132       3143       3142       3252       3253       3264       3263  
      3132       3133       3144       3143       3253       3254       3265       3264  
      3133       3134       3145       3144       3254       3255       3266       3265  
      3134       3135       3146       3145       3255       3256       3267       3266  
      3147       3148       3159       3158       3268       3269       3280       3279  
      3148       3149       3160       3159       3269       3270       3281       3280  
      3149       3150       3161       3160       3270       3271       3282       3281  
      3150       3151       3162       3161       3271       3272       3283       3282  
      3151       3152       3163       3162       3272       3273       3284       3283  
      3152       3153       3164       3163       3273       3274       3285       3284  
      3153       3154       3165       3164       3274       3275       3286       3285  
      3154       3155       3166       3165       3275       3276       3287       3286  
      3155       3156       3167       3166       3276       3277       3288       3287  
      3156       3157       3168       3167       3277       3278       3289       3288  
      3158       3159       3170       3169       3279       3280       3291       3290  
      3159       3160       3171       3170       3280       3281       3292       3291  
      3160       3161       3172       3171       3281       3282       3293       3292  
      3161       3162       3173       3172       3282       3283       3294       3293  
      3162       3163       3174       3173       3283       3284       3295       3294  
      3163       3164       3175       3174       3284       3285       3296       3295  
      3164       3165       3176       3175       3285       3286       3297       3296  
      3165       3166       3177       3176       3286       3287       3298       3297  
      3166       3167       3178       3177       3287       3288       3299       3298  
      3167       3168       3179       3178       3288       3289       3300       3299  
      3169       3170       3181       3180       3290       3291       3302       3301  
      3170       3171       3182       3181       3291       3292       3303       3302  
      3171       3172       3183       3182       3292       3293       3304       3303  
      3172       3173       3184       3183       3293       3294       3305       3304  
      3173       3174       3185       3184       3294       3295       3306       3305  
      3174       3175       3186       3185       3295       3296       3307       3306  
      3175       3176       3187       3186       3296       3297       3308       3307  
      3176       3177       3188       3187       3297       3298       3309       3308  
      3177       3178       3189       3188       3298       3299       3310       3309  
      3178       3179       3190       3189       3299       3300       3311       3310  
      3180       3181       3192       3191       3301       3302       3313       3312  
      3181       3182       3193       3192       3302       3303       3314       3313  
      3182       3183       3194       3193       3303       3304       3315       3314  
      3183       3184       3195       3194       3304       3305       3316       3315  
      3184       3185       3196       3195       3305       3306       3317       3316  
      3185       3186       3197       3196       3306       3307       3318       3317  
      3186       3187       3198       3197       3307       3308       3319       3318  
      3187       3188       3199       3198       3308       3309       3320       3319  
      3188       3189       3200       3199       3309       3310       3321       3320  
      3189       3190       3201       3200       3310       3311       3322       3321  
      3191       3192       3203       3202       3312       3313       3324       3323  
      3192       3193       3204       3203       3313       3314       3325       3324  
      3193       3194       3205       3204       3314       3315       3326       3325  
      3194       3195       3206       3205       3315       3316       3327       3326  
      3195       3196       3207       3206       3316       3317       3328       3327  
      3196       3197       3208       3207       3317       3318       3329       3328  
      3197       3198       3209       3208       3318       3319       3330       3329  
      3198       3199       3210       3209       3319       3320       3331       3330  
      3199       3200       3211       3210       3320       3321       3332       3331  
      3200       3201       3212       3211       3321       3322       3333       3332  
      3202       3203       3214       3213       3323       3324       3335       3334  
      3203       3204       3215       3214       3324       3325       3336       3335  
      3204       3205       3216       3215       3325       3326       3337       3336  
      3205       3206       3217       3216       3326       3327       3338       3337  
      3206       3207       3218       3217       3327       3328       3339       3338  
      3207       3208       3219       3218       3328       3329       3340       3339  
      3208       3209       3220       3219       3329       3330       3341       3340  
      3209       3210       3221       3220       3330       3331       3342       3341  
      3210       3211       3222       3221       3331       3332       3343       3342  
      3211       3212       3223       3222       3332       3333       3344       3343  
      3213       3214       3225       3224       3334       3335       3346       3345  
      3214       3215       3226       3225       3335       3336       3347       3346  
      3215       3216       3227       3226       3336       3337       3348       3347  
      3216       3217       3228       3227       3337       3338       3349       3348  
      3217       3218       3229       3228       3338       3339       3350       3349  
      3218       3219       3230       3229       3339       3340       3351       3350  
      3219       3220       3231       3230       3340       3341       3352       3351  
      3220       3221       3232       3231       3341       3342       3353       3352  
      3221       3222       3233       3232       3342       3343       3354       3353  
      3222       3223       3234       3233       3343       3344       3355       3354  
      3224       3225       3236       3235       3345       3346       3357       3356  
      3225       3226       3237       3236       3346       3347       3358       3357  
      3226       3227       3238       3237       3347       3348       3359       3358  
      3227       3228       3239       3238       3348       3349       3360       3359  
      3228       3229       3240       3239       3349       3350       3361       3360  
      3229       3230       3241       3240       3350       3351       3362       3361  
      3230       3231       3242       3241       3351       3352       3363       3362  
      3231       3232       3243       3242       3352       3353       3364       3363  
      3232       3233       3244       3243       3353       3354       3365       3364  
      3233       3234       3245       3244       3354       3355       3366       3365  
      3235       3236       3247       3246       3356       3357       3368       3367  
      3236       3237       3248       3247       3357       3358       3369       3368  
      3237       3238       3249       3248       3358       3359       3370       3369  
      3238       3239       3250       3249       3359       3360       3371       3370  
      3239       3240       3251       3250       3360       3361       3372       3371  
      3240       3241       3252       3251       3361       3362       3373       3372  
      3241       3242       3253       3252       3362       3363       3374       3373  
      3242       3243       3254       3253       3363       3364       3375       3374  
      3243       3244       3255       3254       3364       3365       3376       3375  
      3244       3245       3256       3255       3365       3366       3377       3376  
      3246       3247       3258       3257       3367       3368       3379       3378  
      3247       3248       3259       3258       3368       3369       3380       3379  
      3248       3249       3260       3259       3369       3370       3381       3380  
      3249       3250       3261       3260       3370       3371       3382       3381  
      3250       3251       3262       3261       3371       3372       3383       3382  
      3251       3252       3263       3262       3372       3373       3384       3383  
      3252       3253       3264       3263       3373       3374       3385       3384  
      3253       3254       3265       3264       3374       3375       3386       3385  
      3254       3255       3266       3265       3375       3376       3387       3386  
      3255       3256       3267       3266       3376       3377       3388       3387  
      3268       3269       3280       3279       3389       3390       3401       3400  
      3269       3270       3281       3280       3390       3391       3402       3401  
      3270       3271       3282       3281       3391       3392       3403       3402  
      3271       3272       3283       3282       3392       3393       3404       3403  
      3272       3273       3284       3283       3393       3394       3405       3404  
      3273       3274       3285       3284       3394       3395       3406       3405  
      3274       3275       3286       3285       3395       3396       3407       3406  
      3275       3276       3287       3286       3396       3397       3408       3407  
      3276       3277       3288       3287       3397       3398       3409       3408  
      3277       3278       3289       3288       3398       3399       3410       3409  
      3279       3280       3291       3290       3400       3401       3412       3411  
      3280       3281       3292       3291       3401       3402       3413       3412  
      3281       3282       3293       3292       3402       3403       3414       3413  
      3282       3283       3294       3293       3403       3404       3415       3414  
      3283       3284       3295       3294       3404       3405       3416       3415  
      3284       3285       3296       3295       3405       3406       3417       3416  
      3285       3286       3297       3296       3406       3407       3418       3417  
      3286       3287       3298       3297       3407       3408       3419       3418  
      3287       3288       3299       3298       3408       3409       3420       3419  
      3288       3289       3300       3299       3409       3410       3421       3420  
      3290       3291       3302       3301       3411       3412       3423       3422  
      3291       3292       3303       3302       3412       3413       3424       3423  
      3292       3293       3304       3303       3413       3414       3425       3424  
      3293       3294       3305       3304       3414       3415       3426       3425  
      3294       3295       3306       3305       3415       3416       3427       3426  
      3295       3296       3307       3306       3416       3417       3428       3427  
      3296       3297       3308       3307       3417       3418       3429       3428  
      3297       3298       3309       3308       3418       3419       3430       3429  
      3298       3299       3310       3309       3419       3420       3431       3430  
      3299       3300       3311       3310       3420       3421       3432       3431  
      3301       3302       3313       3312       3422       3423       3434       3433  
      3302       3303       3314       3313       3423       3424       3435       3434  
      3303       3304       3315       3314       3424       3425       3436       3435  
      3304       3305       3316       3315       3425       3426       3437       3436  
      3305       3306       3317       3316       3426       3427       3438       3437  
      3306       3307       3318       3317       3427       3428       3439       3438  
      3307       3308       3319       3318       3428       3429       3440       3439  
      3308       3309       3320       3319       3429       3430       3441       3440  
      3309       3310       3321       3320       3430       3431       3442       3441  
      3310       3311       3322       3321       3431       3432       3443       3442  
      3312       3313       3324       3323       3433       3434       3445       3444  
      3313       3314       3325       3324       3434       3435       3446       3445  
      3314       3315       3326       3325       3435       3436       3447       3446  
      3315       3316       3327       3326       3436       3437       3448       3447  
      3316       3317       3328       3327       3437       3438       3449       3448  
      3317       3318       3329       3328       3438       3439       3450       3449  
      3318       3319       3330       3329       3439       3440       3451       3450  
      3319       3320       3331       3330       3440       3441       3452       3451  
      3320       3321       3332       3331       3441       3442       3453       3452  
      3321       3322       3333       3332       3442       3443       3454       3453  
      3323       3324       3335       3334       3444       3445       3456       3455  
      3324       3325       3336       3335       3445       3446       3457       3456  
      3325       3326       3337       3336       3446       3447       3458       3457  
      3326       3327       3338       3337       3447       3448       3459       3458  
      3327       3328       3339       3338       3448       3449       3460       3459  
      3328       3329       3340       3339       3449       3450       3461       3460  
      3329       3330       3341       3340       3450       3451       3462       3461  
      3330       3331       3342       3341       3451       3452       3463       3462  
      3331       3332       3343       3342       3452       3453       3464       3463  
      3332       3333       3344       3343       3453       3454       3465       3464  
      3334       3335       3346       3345       3455       3456       3467       3466  
      3335       3336       3347       3346       3456       3457       3468       3467  
      3336       3337       3348       3347       3457       3458       3469       3468  
      3337       3338       3349       3348       3458       3459       3470       3469  
      3338       3339       3350       3349       3459       3460       3471       3470  
      3339       3340       3351       3350       3460       3461       3472       3471  
      3340       3341       3352       3351       3461       3462       3473       3472  
      3341       3342       3353       3352       3462       3463       3474       3473  
      3342       3343       3354       3353       3463       3464       3475       3474  
      3343       3344       3355       3354       3464       3465       3476       3475  
      3345       3346       3357       3356       3466       3467       3478       3477  
      3346       3347       3358       3357       3467       3468       3479       3478  
      3347       3348       3359       3358       3468       3469       3480       3479  
      3348       3349       3360       3359       3469       3470       3481       3480  
      3349       3350       3361       3360       3470       3471       3482       3481  
      3350       3351       3362       3361       3471       3472       3483       3482  
      3351       3352       3363       3362       3472       3473       3484       3483  
      3352       3353       3364       3363       3473       3474       3485       3484  
      3353       3354       3365       3364       3474       3475       3486       3485  
      3354       3355       3366       3365       3475       3476       3487       3486  
      3356       3357       3368       3367       3477       3478       3489       3488  
      3357       3358       3369       3368       3478       3479       3490       3489  
      3358       3359       3370       3369       3479       3480       3491       3490  
      3359       3360       3371       3370       3480       3481       3492       3491  
      3360       3361       3372       3371       3481       3482       3493       3492  
      3361       3362       3373       3372       3482       3483       3494       3493  
      3362       3363       3374       3373       3483       3484       3495       3494  
      3363       3364       3375       3374       3484       3485       3496       3495  
      3364       3365       3376       3375       3485       3486       3497       3496  
      3365       3366       3377       3376       3486       3487       3498       3497  
      3367       3368       3379       3378       3488       3489       3500       3499  
      3368       3369       3380       3379       3489       3490       3501       3500  
      3369       3370       3381       3380       3490       3491       3502       3501  
      3370       3371       3382       3381       3491       3492       3503       3502  
      3371       3372       3383       3382       3492       3493       3504       3503  
      3372       3373       3384       3383       3493       3494       3505       3504  
      3373       3374       3385       3384       3494       3495       3506       3505  
      3374       3375       3386       3385       3495       3496       3507       3506  
      3375       3376       3387       3386       3496       3497       3508       3507  
      3376       3377       3388       3387       3497       3498       3509       3508  
      3389       3390       3401       3400       3510       3511       3522       3521  
      3390       3391       3402       3401       3511       3512       3523       3522  
      3391       3392       3403       3402       3512       3513       3524       3523  
      3392       3393       3404       3403       3513       3514       3525       3524  
      3393       3394       3405       3404       3514       3515       3526       3525  
      3394       3395       3406       3405       3515       3516       3527       3526  
      3395       3396       3407       3406       3516       3517       3528       3527  
      3396       3397       3408       3407       3517       3518       3529       3528  
      3397       3398       3409       3408       3518       3519       3530       3529  
      3398       3399       3410       3409       3519       3520       3531       3530  
      3400       3401       3412       3411       3521       3522       3533       3532  
      3401       3402       3413       3412       3522       3523       3534       3533  
      3402       3403       3414       3413       3523       3524       3535       3534  
      3403       3404       3415       3414       3524       3525       3536       3535  
      3404       3405       3416       3415       3525       3526       3537       3536  
      3405       3406       3417       3416       3526       3527       3538       3537  
      3406       3407       3418       3417       3527       3528       3539       3538  
      3407       3408       3419       3418       3528       3529       3540       3539  
      3408       3409       3420       3419       3529       3530       3541       3540  
      3409       3410       3421       3420       3530       3531       3542       3541  
      3411       3412       3423       3422       3532       3533       3544       3543  
      3412       3413       3424       3423       3533       3534       3545       3544  
      3413       3414       3425       3424       3534       3535       3546       3545  
      3414       3415       3426       3425       3535       3536       3547       3546  
      3415       3416       3427       3426       3536       3537       3548       3547  
      3416       3417       3428       3427       3537       3538       3549       3548  
      3417       3418       3429       3428       3538       3539       3550       3549  
      3418       3419       3430       3429       3539       3540       3551       3550  
      3419       3420       3431       3430       3540       3541       3552       3551  
      3420       3421       3432       3431       3541       3542       3553       3552  
      3422       3423       3434       3433       3543       3544       3555       3554  
      3423       3424       3435       3434       3544       3545       3556       3555  
      3424       3425       3436       3435       3545       3546       3557       3556  
      3425       3426       3437       3436       3546       3547       3558       3557  
      3426       3427       3438       3437       3547       3548       3559       3558  
      3427       3428       3439       3438       3548       3549       3560       3559  
      3428       3429       3440       3439       3549       3550       3561       3560  
      3429       3430       3441       3440       3550       3551       3562       3561  
      3430       3431       3442       3441       3551       3552       3563       3562  
      3431       3432       3443       3442       3552       3553       3564       3563  
      3433       3434       3445       3444       3554       3555       3566       3565  
      3434       3435       3446       3445       3555       3556       3567       3566  
      3435       3436       3447       3446       3556       3557       3568       3567  
      3436       3437       3448       3447       3557       3558       3569       3568  
      3437       3438       3449       3448       3558       3559       3570       3569  
      3438       3439       3450       3449       3559       3560       3571       3570  
      3439       3440       3451       3450       3560       3561       3572       3571  
      3440       3441       3452       3451       3561       3562       3573       3572  
      3441       3442       3453       3452       3562       3563       3574       3573  
      3442       3443       3454       3453       3563       3564       3575       3574  
      3444       3445       3456       3455       3565       3566       3577       3576  
      3445       3446       3457       3456       3566       3567       3578       3577  
      3446       3447       3458       3457       3567       3568       3579       3578  
      3447       3448       3459       3458       3568       3569       3580       3579  
      3448       3449       3460       3459       3569       3570       3581       3580  
      3449       3450       3461       3460       3570       3571       3582       3581  
      3450       3451       3462       3461       3571       3572       3583       3582  
      3451       3452       3463       3462       3572       3573       3584       3583  
      3452       3453       3464       3463       3573       3574       3585       3584  
      3453       3454       3465       3464       3574       3575       3586       3585  
      3455       3456       3467       3466       3576       3577       3588       3587  
      3456       3457       3468       3467       3577       3578       3589       3588  
      3457       3458       3469       3468       3578       3579       3590       3589  
      3458       3459       3470       3469       3579       3580       3591       3590  
      3459       3460       3471       3470       3580       3581       3592       3591  
      3460       3461       3472       3471       3581       3582       3593       3592  
      3461       3462       3473       3472       3582       3583       3594       3593  
      3462       3463       3474       3473       3583       3584       3595       3594  
      3463       3464       3475       3474       3584       3585       3596       3595  
      3464       3465       3476       3475       3585       3586       3597       3596  
      3466       3467       3478       3477       3587       3588       3599       3598  
      3467       3468       3479       3478       3588       3589       3600       3599  
      3468       3469       3480       3479       3589       3590       3601       3600  
      3469       3470       3481       3480       3590       3591       3602       3601  
      3470       3471       3482       3481       3591       3592       3603       3602  
      3471       3472       3483       3482       3592       3593       3604       3603  
      3472       3473       3484       3483       3593       3594       3605       3604  
      3473       3474       3485       3484       3594       3595       3606       3605  
      3474       3475       3486       3485       3595       3596       3607       3606  
      3475       3476       3487       3486       3596       3597       3608       3607  
      3477       3478       3489       3488       3598       3599       3610       3609  
      3478       3479       3490       3489       3599       3600       3611       3610  
      3479       3480       3491       3490       3600       3601       3612       3611  
      3480       3481       3492       3491       3601       3602       3613       3612  
      3481       3482       3493       3492       3602       3603       3614       3613  
      3482       3483       3494       3493       3603       3604       3615       3614  
      3483       3484       3495       3494       3604       3605       3616       3615  
      3484       3485       3496       3495       3605       3606       3617       3616  
      3485       3486       3497       3496       3606       3607       3618       3617  
      3486       3487       3498       3497       3607       3608       3619       3618  
      3488       3489       3500       3499       3609       3610       3621       3620  
      3489       3490       3501       3500       3610       3611       3622       3621  
      3490       3491       3502       3501       3611       3612       3623       3622  
      3491       3492       3503       3502       3612       3613       3624       3623  
      3492       3493       3504       3503       3613       3614       3625       3624  
      3493       3494       3505       3504       3614       3615       3626       3625  
      3494       3495       3506       3505       3615       3616       3627       3626  
      3495       3496       3507       3506       3616       3617       3628       3627  
      3496       3497       3508       3507       3617       3618       3629       3628  
      3497       3498       3509       3508       3618       3619       3630       3629  
      3510       3511       3522       3521       3631       3632       3643       3642  
      3511       3512       3523       3522       3632       3633       3644       3643  
      3512       3513       3524       3523       3633       3634       3645       3644  
      3513       3514       3525       3524       3634       3635       3646       3645  
      3514       3515       3526       3525       3635       3636       3647       3646  
      3515       3516       3527       3526       3636       3637       3648       3647  
      3516       3517       3528       3527       3637       3638       3649       3648  
      3517       3518       3529       3528       3638       3639       3650       3649  
      3518       3519       3530       3529       3639       3640       3651       3650  
      3519       3520       3531       3530       3640       3641       3652       3651  
      3521       3522       3533       3532       3642       3643       3654       3653  
      3522       3523       3534       3533       3643       3644       3655       3654  
      3523       3524       3535       3534       3644       3645       3656       3655  
      3524       3525       3536       3535       3645       3646       3657       3656  
      3525       3526       3537       3536       3646       3647       3658       3657  
      3526       3527       3538       3537       3647       3648       3659       3658  
      3527       3528       3539       3538       3648       3649       3660       3659  
      3528       3529       3540       3539       3649       3650       3661       3660  
      3529       3530       3541       3540       3650       3651       3662       3661  
      3530       3531       3542       3541       3651       3652       3663       3662  
      3532       3533       3544       3543       3653       3654       3665       3664  
      3533       3534       3545       3544       3654       3655       3666       3665  
      3534       3535       3546       3545       3655       3656       3667       3666  
      3535       3536       3547       3546       3656       3657       3668       3667  
      3536       3537       3548       3547       3657       3658       3669       3668  
      3537       3538       3549       3548       3658       3659       3670       3669  
      3538       3539       3550       3549       3659       3660       3671       3670  
      3539       3540       3551       3550       3660       3661       3672       3671  
      3540       3541       3552       3551       3661       3662       3673       3672  
      3541       3542       3553       3552       3662       3663       3674       3673  
      3543       3544       3555       3554       3664       3665       3676       3675  
      3544       3545       3556       3555       3665       3666       3677       3676  
      3545       3546       3557       3556       3666       3667       3678       3677  
      3546       3547       3558       3557       3667       3668       3679       3678  
      3547       3548       3559       3558       3668       3669       3680       3679  
      3548       3549       3560       3559       3669       3670       3681       3680  
      3549       3550       3561       3560       3670       3671       3682       3681  
      3550       3551       3562       3561       3671       3672       3683       3682  
      3551       3552       3563       3562       3672       3673       3684       3683  
      3552       3553       3564       3563       3673       3674       3685       3684  
      3554       3555       3566       3565       3675       3676       3687       3686  
      3555       3556       3567       3566       3676       3677       3688       3687  
      3556       3557       3568       3567       3677       3678       3689       3688  
      3557       3558       3569       3568       3678       3679       3690       3689  
      3558       3559       3570       3569       3679       3680       3691       3690  
      3559       3560       3571       3570       3680       3681       3692       3691  
      3560       3561       3572       3571       3681       3682       3693       3692  
      3561       3562       3573       3572       3682       3683       3694       3693  
      3562       3563       3574       3573       3683       3684       3695       3694  
      3563       3564       3575       3574       3684       3685       3696       3695  
      3565       3566       3577       3576       3686       3687       3698       3697  
      3566       3567       3578       3577       3687       3688       3699       3698  
      3567       3568       3579       3578       3688       3689       3700       3699  
      3568       3569       3580       3579       3689       3690       3701       3700  
      3569       3570       3581       3580       3690       3691       3702       3701  
      3570       3571       3582       3581       3691       3692       3703       3702  
      3571       3572       3583       3582       3692       3693       3704       3703  
      3572       3573       3584       3583       3693       3694       3705       3704  
      3573       3574       3585       3584       3694       3695       3706       3705  
      3574       3575       3586       3585       3695       3696       3707       3706  
      3576       3577       3588       3587       3697       3698       3709       3708  
      3577       3578       3589       3588       3698       3699       3710       3709  
      3578       3579       3590       3589       3699       3700       3711       3710  
      3579       3580       3591       3590       3700       3701       3712       3711  
      3580       3581       3592       3591       3701       3702       3713       3712  
      3581       3582       3593       3592       3702       3703       3714       3713  
      3582       3583       3594       3593       3703       3704       3715       3714  
      3583       3584       3595       3594       3704       3705       3716       3715  
      3584       3585       3596       3595       3705       3706       3717       3716  
      3585       3586       3597       3596       3706       3707       3718       3717  
      3587       3588       3599       3598       3708       3709       3720       3719  
      3588       3589       3600       3599       3709       3710       3721       3720  
      3589       3590       3601       3600       3710       3711       3722       3721  
      3590       3591       3602       3601       3711       3712       3723       3722  
      3591       3592       3603       3602       3712       3713       3724       3723  
      3592       3593       3604       3603       3713       3714       3725       3724  
      3593       3594       3605       3604       3714       3715       3726       3725  
      3594       3595       3606       3605       3715       3716       3727       3726  
      3595       3596       3607       3606       3716       3717       3728       3727  
      3596       3597       3608       3607       3717       3718       3729       3728  
      3598       3599       3610       3609       3719       3720       3731       3730  
      3599       3600       3611       3610       3720       3721       3732       3731  
      3600       3601       3612       3611       3721       3722       3733       3732  
      3601       3602       3613       3612       3722       3723       3734       3733  
      3602       3603       3614       3613       3723       3724       3735       3734  
      3603       3604       3615       3614       3724       3725       3736       3735  
      3604       3605       3616       3615       3725       3726       3737       3736  
      3605       3606       3617       3616       3726       3727       3738       3737  
      3606       3607       3618       3617       3727       3728       3739       3738  
      3607       3608       3619       3618       3728       3729       3740       3739  
      3609       3610       3621       3620       3730       3731       3742       3741  
      3610       3611       3622       3621       3731       3732       3743       3742  
      3611       3612       3623       3622       3732       3733       3744       3743  
      3612       3613       3624       3623       3733       3734       3745       3744  
      3613       3614       3625       3624       3734       3735       3746       3745  
      3614       3615       3626       3625       3735       3736       3747       3746  
      3615       3616       3627       3626       3736       3737       3748       3747  
      3616       3617       3628       3627       3737       3738       3749       3748  
      3617       3618       3629       3628       3738       3739       3750       3749  
      3618       3619       3630       3629       3739       3740       3751       3750  
      3631       3632       3643       3642       3752       3753       3764       3763  
      3632       3633       3644       3643       3753       3754       3765       3764  
      3633       3634       3645       3644       3754       3755       3766       3765  
      3634       3635       3646       3645       3755       3756       3767       3766  
      3635       3636       3647       3646       3756       3757       3768       3767  
      3636       3637       3648       3647       3757       3758       3769       3768  
      3637       3638       3649       3648       3758       3759       3770       3769  
      3638       3639       3650       3649       3759       3760       3771       3770  
      3639       3640       3651       3650       3760       3761       3772       3771  
      3640       3641       3652       3651       3761       3762       3773       3772  
      3642       3643       3654       3653       3763       3764       3775       3774  
      3643       3644       3655       3654       3764       3765       3776       3775  
      3644       3645       3656       3655       3765       3766       3777       3776  
      3645       3646       3657       3656       3766       3767       3778       3777  
      3646       3647       3658       3657       3767       3768       3779       3778  
      3647       3648       3659       3658       3768       3769       3780       3779  
      3648       3649       3660       3659       3769       3770       3781       3780  
      3649       3650       3661       3660       3770       3771       3782       3781  
      3650       3651       3662       3661       3771       3772       3783       3782  
      3651       3652       3663       3662       3772       3773       3784       3783  
      3653       3654       3665       3664       3774       3775       3786       3785  
      3654       3655       3666       3665       3775       3776       3787       3786  
      3655       3656       3667       3666       3776       3777       3788       3787  
      3656       3657       3668       3667       3777       3778       3789       3788  
      3657       3658       3669       3668       3778       3779       3790       3789  
      3658       3659       3670       3669       3779       3780       3791       3790  
      3659       3660       3671       3670       3780       3781       3792       3791  
      3660       3661       3672       3671       3781       3782       3793       3792  
      3661       3662       3673       3672       3782       3783       3794       3793  
      3662       3663       3674       3673       3783       3784       3795       3794  
      3664       3665       3676       3675       3785       3786       3797       3796  
      3665       3666       3677       3676       3786       3787       3798       3797  
      3666       3667       3678       3677       3787       3788       3799       3798  
      3667       3668       3679       3678       3788       3789       3800       3799  
      3668       3669       3680       3679       3789       3790       3801       3800  
      3669       3670       3681       3680       3790       3791       3802       3801  
      3670       3671       3682       3681       3791       3792       3803       3802  
      3671       3672       3683       3682       3792       3793       3804       3803  
      3672       3673       3684       3683       3793       3794       3805       3804  
      3673       3674       3685       3684       3794       3795       3806       3805  
      3675       3676       3687       3686       3796       3797       3808       3807  
      3676       3677       3688       3687       3797       3798       3809       3808  
      3677       3678       3689       3688       3798       3799       3810       3809  
      3678       3679       3690       3689       3799       3800       3811       3810  
      3679       3680       3691       3690       3800       3801       3812       3811  
      3680       3681       3692       3691       3801       3802       3813       3812  
      3681       3682       3693       3692       3802       3803       3814       3813  
      3682       3683       3694       3693       3803       3804       3815       3814  
      3683       3684       3695       3694       3804       3805       3816       3815  
      3684       3685       3696       3695       3805       3806       3817       3816  
      3686       3687       3698       3697       3807       3808       3819       3818  
      3687       3688       3699       3698       3808       3809       3820       3819  
      3688       3689       3700       3699       3809       3810       3821       3820  
      3689       3690       3701       3700       3810       3811       3822       3821  
      3690       3691       3702       3701       3811       3812       3823       3822  
      3691       3692       3703       3702       3812       3813       3824       3823  
      3692       3693       3704       3703       3813       3814       3825       3824  
      3693       3694       3705       3704       3814       3815       3826       3825  
      3694       3695       3706       3705       3815       3816       3827       3826  
      3695       3696       3707       3706       3816       3817       3828       3827  
      3697       3698       3709       3708       3818       3819       3830       3829  
      3698       3699       3710       3709       3819       3820       3831       3830  
      3699       3700       3711       3710       3820       3821       3832       3831  
      3700       3701       3712       3711       3821       3822       3833       3832  
      3701       3702       3713       3712       3822       3823       3834       3833  
      3702       3703       3714       3713       3823       3824       3835       3834  
      3703       3704       3715       3714       3824       3825       3836       3835  
      3704       3705       3716       3715       3825       3826       3837       3836  
      3705       3706       3717       3716       3826       3827       3838       3837  
      3706       3707       3718       3717       3827       3828       3839       3838  
      3708       3709       3720       3719       3829       3830       3841       3840  
      3709       3710       3721       3720       3830       3831       3842       3841  
      3710       3711       3722       3721       3831       3832       3843       3842  
      3711       3712       3723       3722       3832       3833       3844       3843  
      3712       3713       3724       3723       3833       3834       3845       3844  
      3713       3714       3725       3724       3834       3835       3846       3845  
      3714       3715       3726       3725       3835       3836       3847       3846  
      3715       3716       3727       3726       3836       3837       3848       3847  
      3716       3717       3728       3727       3837       3838       3849       3848  
      3717       3718       3729       3728       3838       3839       3850       3849  
      3719       3720       3731       3730       3840       3841       3852       3851  
      3720       3721       3732       3731       3841       3842       3853       3852  
      3721       3722       3733       3732       3842       3843       3854       3853  
      3722       3723       3734       3733       3843       3844       3855       3854  
      3723       3724       3735       3734       3844       3845       3856       3855  
      3724       3725       3736       3735       3845       3846       3857       3856  
      3725       3726       3737       3736       3846       3847       3858       3857  
      3726       3727       3738       3737       3847       3848       3859       3858  
      3727       3728       3739       3738       3848       3849       3860       3859  
      3728       3729       3740       3739       3849       3850       3861       3860  
      3730       3731       3742       3741       3851       3852       3863       3862  
      3731       3732       3743       3742       3852       3853       3864       3863  
      3732       3733       3744       3743       3853       3854       3865       3864  
      3733       3734       3745       3744       3854       3855       3866       3865  
      3734       3735       3746       3745       3855       3856       3867       3866  
      3735       3736       3747       3746       3856       3857       3868       3867  
      3736       3737       3748       3747       3857       3858       3869       3868  
      3737       3738       3749       3748       3858       3859       3870       3869  
      3738       3739       3750       3749       3859       3860       3871       3870  
      3739       3740       3751       3750       3860       3861       3872       3871  
      3752       3753       3764       3763       3873       3874       3885       3884  
      3753       3754       3765       3764       3874       3875       3886       3885  
      3754       3755       3766       3765       3875       3876       3887       3886  
      3755       3756       3767       3766       3876       3877       3888       3887  
      3756       3757       3768       3767       3877       3878       3889       3888  
      3757       3758       3769       3768       3878       3879       3890       3889  
      3758       3759       3770       3769       3879       3880       3891       3890  
      3759       3760       3771       3770       3880       3881       3892       3891  
      3760       3761       3772       3771       3881       3882       3893       3892  
      3761       3762       3773       3772       3882       3883       3894       3893  
      3763       3764       3775       3774       3884       3885       3896       3895  
      3764       3765       3776       3775       3885       3886       3897       3896  
      3765       3766       3777       3776       3886       3887       3898       3897  
      3766       3767       3778       3777       3887       3888       3899       3898  
      3767       3768       3779       3778       3888       3889       3900       3899  
      3768       3769       3780       3779       3889       3890       3901       3900  
      3769       3770       3781       3780       3890       3891       3902       3901  
      3770       3771       3782       3781       3891       3892       3903       3902  
      3771       3772       3783       3782       3892       3893       3904       3903  
      3772       3773       3784       3783       3893       3894       3905       3904  
      3774       3775       3786       3785       3895       3896       3907       3906  
      3775       3776       3787       3786       3896       3897       3908       3907  
      3776       3777       3788       3787       3897       3898       3909       3908  
      3777       3778       3789       3788       3898       3899       3910       3909  
      3778       3779       3790       3789       3899       3900       3911       3910  
      3779       3780       3791       3790       3900       3901       3912       3911  
      3780       3781       3792       3791       3901       3902       3913       3912  
      3781       3782       3793       3792       3902       3903       3914       3913  
      3782       3783       3794       3793       3903       3904       3915       3914  
      3783       3784       3795       3794       3904       3905       3916       3915  
      3785       3786       3797       3796       3906       3907       3918       3917  
      3786       3787       3798       3797       3907       3908       3919       3918  
      3787       3788       3799       3798       3908       3909       3920       3919  
      3788       3789       3800       3799       3909       3910       3921       3920  
      3789       3790       3801       3800       3910       3911       3922       3921  
      3790       3791       3802       3801       3911       3912       3923       3922  
      3791       3792       3803       3802       3912       3913       3924       3923  
      3792       3793       3804       3803       3913       3914       3925       3924  
      3793       3794       3805       3804       3914       3915       3926       3925  
      3794       3795       3806       3805       3915       3916       3927       3926  
      3796       3797       3808       3807       3917       3918       3929       3928  
      3797       3798       3809       3808       3918       3919       3930       3929  
      3798       3799       3810       3809       3919       3920       3931       3930  
      3799       3800       3811       3810       3920       3921       3932       3931  
      3800       3801       3812       3811       3921       3922       3933       3932  
      3801       3802       3813       3812       3922       3923       3934       3933  
      3802       3803       3814       3813       3923       3924       3935       3934  
      3803       3804       3815       3814       3924       3925       3936       3935  
      3804       3805       3816       3815       3925       3926       3937       3936  
      3805       3806       3817       3816       3926       3927       3938       3937  
      3807       3808       3819       3818       3928       3929       3940       3939  
      3808       3809       3820       3819       3929       3930       3941       3940  
      3809       3810       3821       3820       3930       3931       3942       3941  
      3810       3811       3822       3821       3931       3932       3943       3942  
      3811       3812       3823       3822       3932       3933       3944       3943  
      3812       3813       3824       3823       3933       3934       3945       3944  
      3813       3814       3825       3824       3934       3935       3946       3945  
      3814       3815       3826       3825       3935       3936       3947       3946  
      3815       3816       3827       3826       3936       3937       3948       3947  
      3816       3817       3828       3827       3937       3938       3949       3948  
      3818       3819       3830       3829       3939       3940       3951       3950  
      3819       3820       3831       3830       3940       3941       3952       3951  
      3820       3821       3832       3831       3941       3942       3953       3952  
      3821       3822       3833       3832       3942       3943       3954       3953  
      3822       3823       3834       3833       3943       3944       3955       3954  
      3823       3824       3835       3834       3944       3945       3956       3955  
      3824       3825       3836       3835       3945       3946       3957       3956  
      3825       3826       3837       3836       3946       3947       3958       3957  
      3826       3827       3838       3837       3947       3948       3959       3958  
      3827       3828       3839       3838       3948       3949       3960       3959  
      3829       3830       3841       3840       3950       3951       3962       3961  
      3830       3831       3842       3841       3951       3952       3963       3962  
      3831       3832       3843       3842       3952       3953       3964       3963  
      3832       3833       3844       3843       3953       3954       3965       3964  
      3833       3834       3845       3844       3954       3955       3966       3965  
      3834       3835       3846       3845       3955       3956       3967       3966  
      3835       3836       3847       3846       3956       3957       3968       3967  
      3836       3837       3848       3847       3957       3958       3969       3968  
      3837       3838       3849       3848       3958       3959       3970       3969  
      3838       3839       3850       3849       3959       3960       3971       3970  
      3840       3841       3852       3851       3961       3962       3973       3972  
      3841       3842       3853       3852       3962       3963       3974       3973  
      3842       3843       3854       3853       3963       3964       3975       3974  
      3843       3844       3855       3854       3964       3965       3976       3975  
      3844       3845       3856       3855       3965       3966       3977       3976  
      3845       3846       3857       3856       3966       3967       3978       3977  
      3846       3847       3858       3857       3967       3968       3979       3978  
      3847       3848       3859       3858       3968       3969       3980       3979  
      3848       3849       3860       3859       3969       3970       3981       3980  
      3849       3850       3861       3860       3970       3971       3982       3981  
      3851       3852       3863       3862       3972       3973       3984       3983  
      3852       3853       3864       3863       3973       3974       3985       3984  
      3853       3854       3865       3864       3974       3975       3986       3985  
      3854       3855       3866       3865       3975       3976       3987       3986  
      3855       3856       3867       3866       3976       3977       3988       3987  
      3856       3857       3868       3867       3977       3978       3989       3988  
      3857       3858       3869       3868       3978       3979       3990       3989  
      3858       3859       3870       3869       3979       3980       3991       3990  
      3859       3860       3871       3870       3980       3981       3992       3991  
      3860       3861       3872       3871       3981       3982       3993       3992  
      3873       3874       3885       3884       3994       3995       4006       4005  
      3874       3875       3886       3885       3995       3996       4007       4006  
      3875       3876       3887       3886       3996       3997       4008       4007  
      3876       3877       3888       3887       3997       3998       4009       4008  
      3877       3878       3889       3888       3998       3999       4010       4009  
      3878       3879       3890       3889       3999       4000       4011       4010  
      3879       3880       3891       3890       4000       4001       4012       4011  
      3880       3881       3892       3891       4001       4002       4013       4012  
      3881       3882       3893       3892       4002       4003       4014       4013  
      3882       3883       3894       3893       4003       4004       4015       4014  
      3884       3885       3896       3895       4005       4006       4017       4016  
      3885       3886       3897       3896       4006       4007       4018       4017  
      3886       3887       3898       3897       4007       4008       4019       4018  
      3887       3888       3899       3898       4008       4009       4020       4019  
      3888       3889       3900       3899       4009       4010       4021       4020  
      3889       3890       3901       3900       4010       4011       4022       4021  
      3890       3891       3902       3901       4011       4012       4023       4022  
      3891       3892       3903       3902       4012       4013       4024       4023  
      3892       3893       3904       3903       4013       4014       4025       4024  
      3893       3894       3905       3904       4014       4015       4026       4025  
      3895       3896       3907       3906       4016       4017       4028       4027  
      3896       3897       3908       3907       4017       4018       4029       4028  
      3897       3898       3909       3908       4018       4019       4030       4029  
      3898       3899       3910       3909       4019       4020       4031       4030  
      3899       3900       3911       3910       4020       4021       4032       4031  
      3900       3901       3912       3911       4021       4022       4033       4032  
      3901       3902       3913       3912       4022       4023       4034       4033  
      3902       3903       3914       3913       4023       4024       4035       4034  
      3903       3904       3915       3914       4024       4025       4036       4035  
      3904       3905       3916       3915       4025       4026       4037       4036  
      3906       3907       3918       3917       4027       4028       4039       4038  
      3907       3908       3919       3918       4028       4029       4040       4039  
      3908       3909       3920       3919       4029       4030       4041       4040  
      3909       3910       3921       3920       4030       4031       4042       4041  
      3910       3911       3922       3921       4031       4032       4043       4042  
      3911       3912       3923       3922       4032       4033       4044       4043  
      3912       3913       3924       3923       4033       4034       4045       4044  
      3913       3914       3925       3924       4034       4035       4046       4045  
      3914       3915       3926       3925       4035       4036       4047       4046  
      3915       3916       3927       3926       4036       4037       4048       4047  
      3917       3918       3929       3928       4038       4039       4050       4049  
      3918       3919       3930       3929       4039       4040       4051       4050  
      3919       3920       3931       3930       4040       4041       4052       4051  
      3920       3921       3932       3931       4041       4042       4053       4052  
      3921       3922       3933       3932       4042       4043       4054       4053  
      3922       3923       3934       3933       4043       4044       4055       4054  
      3923       3924       3935       3934       4044       4045       4056       4055  
      3924       3925       3936       3935       4045       4046       4057       4056  
      3925       3926       3937       3936       4046       4047       4058       4057  
      3926       3927       3938       3937       4047       4048       4059       4058  
      3928       3929       3940       3939       4049       4050       4061       4060  
      3929       3930       3941       3940       4050       4051       4062       4061  
      3930       3931       3942       3941       4051       4052       4063       4062  
      3931       3932       3943       3942       4052       4053       4064       4063  
      3932       3933       3944       3943       4053       4054       4065       4064  
      3933       3934       3945       3944       4054       4055       4066       4065  
      3934       3935       3946       3945       4055       4056       4067       4066  
      3935       3936       3947       3946       4056       4057       4068       4067  
      3936       3937       3948       3947       4057       4058       4069       4068  
      3937       3938       3949       3948       4058       4059       4070       4069  
      3939       3940       3951       3950       4060       4061       4072       4071  
      3940       3941       3952       3951       4061       4062       4073       4072  
      3941       3942       3953       3952       4062       4063       4074       4073  
      3942       3943       3954       3953       4063       4064       4075       4074  
      3943       3944       3955       3954       4064       4065       4076       4075  
      3944       3945       3956       3955       4065       4066       4077       4076  
      3945       3946       3957       3956       4066       4067       4078       4077  
      3946       3947       3958       3957       4067       4068       4079       4078  
      3947       3948       3959       3958       4068       4069       4080       4079  
      3948       3949       3960       3959       4069       4070       4081       4080  
      3950       3951       3962       3961       4071       4072       4083       4082  
      3951       3952       3963       3962       4072       4073       4084       4083  
      3952       3953       3964       3963       4073       4074       4085       4084  
      3953       3954       3965       3964       4074       4075       4086       4085  
      3954       3955       3966       3965       4075       4076       4087       4086  
      3955       3956       3967       3966       4076       4077       4088       4087  
      3956       3957       3968       3967       4077       4078       4089       4088  
      3957       3958       3969       3968       4078       4079       4090       4089  
      3958       3959       3970       3969       4079       4080       4091       4090  
      3959       3960       3971       3970       4080       4081       4092       4091  
      3961       3962       3973       3972       4082       4083       4094       4093  
      3962       3963       3974       3973       4083       4084       4095       4094  
      3963       3964       3975       3974       4084       4085       4096       4095  
      3964       3965       3976       3975       4085       4086       4097       4096  
      3965       3966       3977       3976       4086       4087       4098       4097  
      3966       3967       3978       3977       4087       4088       4099       4098  
      3967       3968       3979       3978       4088       4089       4100       4099  
      3968       3969       3980       3979       4089       4090       4101       4100  
      3969       3970       3981       3980       4090       4091       4102       4101  
      3970       3971       3982       3981       4091       4092       4103       4102  
      3972       3973       3984       3983       4093       4094       4105       4104  
      3973       3974       3985       3984       4094       4095       4106       4105  
      3974       3975       3986       3985       4095       4096       4107       4106  
      3975       3976       3987       3986       4096       4097       4108       4107  
      3976       3977       3988       3987       4097       4098       4109       4108  
      3977       3978       3989       3988       4098       4099       4110       4109  
      3978       3979       3990       3989       4099       4100       4111       4110  
      3979       3980       3991       3990       4100       4101       4112       4111  
      3980       3981       3992       3991       4101       4102       4113       4112  
      3981       3982       3993       3992       4102       4103       4114       4113  
      3994       3995       4006       4005       4115       4116       4127       4126  
      3995       3996       4007       4006       4116       4117       4128       4127  
      3996       3997       4008       4007       4117       4118       4129       4128  
      3997       3998       4009       4008       4118       4119       4130       4129  
      3998       3999       4010       4009       4119       4120       4131       4130  
      3999       4000       4011       4010       4120       4121       4132       4131  
      4000       4001       4012       4011       4121       4122       4133       4132  
      4001       4002       4013       4012       4122       4123       4134       4133  
      4002       4003       4014       4013       4123       4124       4135       4134  
      4003       4004       4015       4014       4124       4125       4136       4135  
      4005       4006       4017       4016       4126       4127       4138       4137  
      4006       4007       4018       4017       4127       4128       4139       4138  
      4007       4008       4019       4018       4128       4129       4140       4139  
      4008       4009       4020       4019       4129       4130       4141       4140  
      4009       4010       4021       4020       4130       4131       4142       4141  
      4010       4011       4022       4021       4131       4132       4143       4142  
      4011       4012       4023       4022       4132       4133       4144       4143  
      4012       4013       4024       4023       4133       4134       4145       4144  
      4013       4014       4025       4024       4134       4135       4146       4145  
      4014       4015       4026       4025       4135       4136       4147       4146  
      4016       4017       4028       4027       4137       4138       4149       4148  
      4017       4018       4029       4028       4138       4139       4150       4149  
      4018       4019       4030       4029       4139       4140       4151       4150  
      4019       4020       4031       4030       4140       4141       4152       4151  
      4020       4021       4032       4031       4141       4142       4153       4152  
      4021       4022       4033       4032       4142       4143       4154       4153  
      4022       4023       4034       4033       4143       4144       4155       4154  
      4023       4024       4035       4034       4144       4145       4156       4155  
      4024       4025       4036       4035       4145       4146       4157       4156  
      4025       4026       4037       4036       4146       4147       4158       4157  
      4027       4028       4039       4038       4148       4149       4160       4159  
      4028       4029       4040       4039       4149       4150       4161       4160  
      4029       4030       4041       4040       4150       4151       4162       4161  
      4030       4031       4042       4041       4151       4152       4163       4162  
      4031       4032       4043       4042       4152       4153       4164       4163  
      4032       4033       4044       4043       4153       4154       4165       4164  
      4033       4034       4045       4044       4154       4155       4166       4165  
      4034       4035       4046       4045       4155       4156       4167       4166  
      4035       4036       4047       4046       4156       4157       4168       4167  
      4036       4037       4048       4047       4157       4158       4169       4168  
      4038       4039       4050       4049       4159       4160       4171       4170  
      4039       4040       4051       4050       4160       4161       4172       4171  
      4040       4041       4052       4051       4161       4162       4173       4172  
      4041       4042       4053       4052       4162       4163       4174       4173  
      4042       4043       4054       4053       4163       4164       4175       4174  
      4043       4044       4055       4054       4164       4165       4176       4175  
      4044       4045       4056       4055       4165       4166       4177       4176  
      4045       4046       4057       4056       4166       4167       4178       4177  
      4046       4047       4058       4057       4167       4168       4179       4178  
      4047       4048       4059       4058       4168       4169       4180       4179  
      4049       4050       4061       4060       4170       4171       4182       4181  
      4050       4051       4062       4061       4171       4172       4183       4182  
      4051       4052       4063       4062       4172       4173       4184       4183  
      4052       4053       4064       4063       4173       4174       4185       4184  
      4053       4054       4065       4064       4174       4175       4186       4185  
      4054       4055       4066       4065       4175       4176       4187       4186  
      4055       4056       4067       4066       4176       4177       4188       4187  
      4056       4057       4068       4067       4177       4178       4189       4188  
      4057       4058       4069       4068       4178       4179       4190       4189  
      4058       4059       4070       4069       4179       4180       4191       4190  
      4060       4061       4072       4071       4181       4182       4193       4192  
      4061       4062       4073       4072       4182       4183       4194       4193  
      4062       4063       4074       4073       4183       4184       4195       4194  
      4063       4064       4075       4074       4184       4185       4196       4195  
      4064       4065       4076       4075       4185       4186       4197       4196  
      4065       4066       4077       4076       4186       4187       4198       4197  
      4066       4067       4078       4077       4187       4188       4199       4198  
      4067       4068       4079       4078       4188       4189       4200       4199  
      4068       4069       4080       4079       4189       4190       4201       4200  
      4069       4070       4081       4080       4190       4191       4202       4201  
      4071       4072       4083       4082       4192       4193       4204       4203  
      4072       4073       4084       4083       4193       4194       4205       4204  
      4073       4074       4085       4084       4194       4195       4206       4205  
      4074       4075       4086       4085       4195       4196       4207       4206  
      4075       4076       4087       4086       4196       4197       4208       4207  
      4076       4077       4088       4087       4197       4198       4209       4208  
      4077       4078       4089       4088       4198       4199       4210       4209  
      4078       4079       4090       4089       4199       4200       4211       4210  
      4079       4080       4091       4090       4200       4201       4212       4211  
      4080       4081       4092       4091       4201       4202       4213       4212  
      4082       4083       4094       4093       4203       4204       4215       4214  
      4083       4084       4095       4094       4204       4205       4216       4215  
      4084       4085       4096       4095       4205       4206       4217       4216  
      4085       4086       4097       4096       4206       4207       4218       4217  
      4086       4087       4098       4097       4207       4208       4219       4218  
      4087       4088       4099       4098       4208       4209       4220       4219  
      4088       4089       4100       4099       4209       4210       4221       4220  
      4089       4090       4101       4100       4210       4211       4222       4221  
      4090       4091       4102       4101       4211       4212       4223       4222  
      4091       4092       4103       4102       4212       4213       4224       4223  
      4093       4094       4105       4104       4214       4215       4226       4225  
      4094       4095       4106       4105       4215       4216       4227       4226  
      4095       4096       4107       4106       4216       4217       4228       4227  
      4096       4097       4108       4107       4217       4218       4229       4228  
      4097       4098       4109       4108       4218       4219       4230       4229  
      4098       4099       4110       4109       4219       4220       4231       4230  
      4099       4100       4111       4110       4220       4221       4232       4231  
      4100       4101       4112       4111       4221       4222       4233       4232  
      4101       4102       4113       4112       4222       4223       4234       4233  
      4102       4103       4114       4113       4223       4224       4235       4234  
      4115       4116       4127       4126       4236       4237       4248       4247  
      4116       4117       4128       4127       4237       4238       4249       4248  
      4117       4118       4129       4128       4238       4239       4250       4249  
      4118       4119       4130       4129       4239       4240       4251       4250  
      4119       4120       4131       4130       4240       4241       4252       4251  
      4120       4121       4132       4131       4241       4242       4253       4252  
      4121       4122       4133       4132       4242       4243       4254       4253  
      4122       4123       4134       4133       4243       4244       4255       4254  
      4123       4124       4135       4134       4244       4245       4256       4255  
      4124       4125       4136       4135       4245       4246       4257       4256  
      4126       4127       4138       4137       4247       4248       4259       4258  
      4127       4128       4139       4138       4248       4249       4260       4259  
      4128       4129       4140       4139       4249       4250       4261       4260  
      4129       4130       4141       4140       4250       4251       4262       4261  
      4130       4131       4142       4141       4251       4252       4263       4262  
      4131       4132       4143       4142       4252       4253       4264       4263  
      4132       4133       4144       4143       4253       4254       4265       4264  
      4133       4134       4145       4144       4254       4255       4266       4265  
      4134       4135       4146       4145       4255       4256       4267       4266  
      4135       4136       4147       4146       4256       4257       4268       4267  
      4137       4138       4149       4148       4258       4259       4270       4269  
      4138       4139       4150       4149       4259       4260       4271       4270  
      4139       4140       4151       4150       4260       4261       4272       4271  
      4140       4141       4152       4151       4261       4262       4273       4272  
      4141       4142       4153       4152       4262       4263       4274       4273  
      4142       4143       4154       4153       4263       4264       4275       4274  
      4143       4144       4155       4154       4264       4265       4276       4275  
      4144       4145       4156       4155       4265       4266       4277       4276  
      4145       4146       4157       4156       4266       4267       4278       4277  
      4146       4147       4158       4157       4267       4268       4279       4278  
      4148       4149       4160       4159       4269       4270       4281       4280  
      4149       4150       4161       4160       4270       4271       4282       4281  
      4150       4151       4162       4161       4271       4272       4283       4282  
      4151       4152       4163       4162       4272       4273       4284       4283  
      4152       4153       4164       4163       4273       4274       4285       4284  
      4153       4154       4165       4164       4274       4275       4286       4285  
      4154       4155       4166       4165       4275       4276       4287       4286  
      4155       4156       4167       4166       4276       4277       4288       4287  
      4156       4157       4168       4167       4277       4278       4289       4288  
      4157       4158       4169       4168       4278       4279       4290       4289  
      4159       4160       4171       4170       4280       4281       4292       4291  
      4160       4161       4172       4171       4281       4282       4293       4292  
      4161       4162       4173       4172       4282       4283       4294       4293  
      4162       4163       4174       4173       4283       4284       4295       4294  
      4163       4164       4175       4174       4284       4285       4296       4295  
      4164       4165       4176       4175       4285       4286       4297       4296  
      4165       4166       4177       4176       4286       4287       4298       4297  
      4166       4167       4178       4177       4287       4288       4299       4298  
      4167       4168       4179       4178       4288       4289       4300       4299  
      4168       4169       4180       4179       4289       4290       4301       4300  
      4170       4171       4182       4181       4291       4292       4303       4302  
      4171       4172       4183       4182       4292       4293       4304       4303  
      4172       4173       4184       4183       4293       4294       4305       4304  
      4173       4174       4185       4184       4294       4295       4306       4305  
      4174       4175       4186       4185       4295       4296       4307       4306  
      4175       4176       4187       4186       4296       4297       4308       4307  
      4176       4177       4188       4187       4297       4298       4309       4308  
      4177       4178       4189       4188       4298       4299       4310       4309  
      4178       4179       4190       4189       4299       4300       4311       4310  
      4179       4180       4191       4190       4300       4301       4312       4311  
      4181       4182       4193       4192       4302       4303       4314       4313  
      4182       4183       4194       4193       4303       4304       4315       4314  
      4183       4184       4195       4194       4304       4305       4316       4315  
      4184       4185       4196       4195       4305       4306       4317       4316  
      4185       4186       4197       4196       4306       4307       4318       4317  
      4186       4187       4198       4197       4307       4308       4319       4318  
      4187       4188       4199       4198       4308       4309       4320       4319  
      4188       4189       4200       4199       4309       4310       4321       4320  
      4189       4190       4201       4200       4310       4311       4322       4321  
      4190       4191       4202       4201       4311       4312       4323       4322  
      4192       4193       4204       4203       4313       4314       4325       4324  
      4193       4194       4205       4204       4314       4315       4326       4325  
      4194       4195       4206       4205       4315       4316       4327       4326  
      4195       4196       4207       4206       4316       4317       4328       4327  
      4196       4197       4208       4207       4317       4318       4329       4328  
      4197       4198       4209       4208       4318       4319       4330       4329  
      4198       4199       4210       4209       4319       4320       4331       4330  
      4199       4200       4211       4210       4320       4321       4332       4331  
      4200       4201       4212       4211       4321       4322       4333       4332  
      4201       4202       4213       4212       4322       4323       4334       4333  
      4203       4204       4215       4214       4324       4325       4336       4335  
      4204       4205       4216       4215       4325       4326       4337       4336  
      4205       4206       4217       4216       4326       4327       4338       4337  
      4206       4207       4218       4217       4327       4328       4339       4338  
      4207       4208       4219       4218       4328       4329       4340       4339  
      4208       4209       4220       4219       4329       4330       4341       4340  
      4209       4210       4221       4220       4330       4331       4342       4341  
      4210       4211       4222       4221       4331       4332       4343       4342  
      4211       4212       4223       4222       4332       4333       4344       4343  
      4212       4213       4224       4223       4333       4334       4345       4344  
      4214       4215       4226       4225       4335       4336       4347       4346  
      4215       4216       4227       4226       4336       4337       4348       4347  
      4216       4217       4228       4227       4337       4338       4349       4348  
      4217       4218       4229       4228       4338       4339       4350       4349  
      4218       4219       4230       4229       4339       4340       4351       4350  
      4219       4220       4231       4230       4340       4341       4352       4351  
      4220       4221       4232       4231       4341       4342       4353       4352  
      4221       4222       4233       4232       4342       4343       4354       4353  
      4222       4223       4234       4233       4343       4344       4355       4354  
      4223       4224       4235       4234       4344       4345       4356       4355  
      4236       4237       4248       4247       4357       4358       4369       4368  
      4237       4238       4249       4248       4358       4359       4370       4369  
      4238       4239       4250       4249       4359       4360       4371       4370  
      4239       4240       4251       4250       4360       4361       4372       4371  
      4240       4241       4252       4251       4361       4362       4373       4372  
      4241       4242       4253       4252       4362       4363       4374       4373  
      4242       4243       4254       4253       4363       4364       4375       4374  
      4243       4244       4255       4254       4364       4365       4376       4375  
      4244       4245       4256       4255       4365       4366       4377       4376  
      4245       4246       4257       4256       4366       4367       4378       4377  
      4247       4248       4259       4258       4368       4369       4380       4379  
      4248       4249       4260       4259       4369       4370       4381       4380  
      4249       4250       4261       4260       4370       4371       4382       4381  
      4250       4251       4262       4261       4371       4372       4383       4382  
      4251       4252       4263       4262       4372       4373       4384       4383  
      4252       4253       4264       4263       4373       4374       4385       4384  
      4253       4254       4265       4264       4374       4375       4386       4385  
      4254       4255       4266       4265       4375       4376       4387       4386  
      4255       4256       4267       4266       4376       4377       4388       4387  
      4256       4257       4268       4267       4377       4378       4389       4388  
      4258       4259       4270       4269       4379       4380       4391       4390  
      4259       4260       4271       4270       4380       4381       4392       4391  
      4260       4261       4272       4271       4381       4382       4393       4392  
      4261       4262       4273       4272       4382       4383       4394       4393  
      4262       4263       4274       4273       4383       4384       4395       4394  
      4263       4264       4275       4274       4384       4385       4396       4395  
      4264       4265       4276       4275       4385       4386       4397       4396  
      4265       4266       4277       4276       4386       4387       4398       4397  
      4266       4267       4278       4277       4387       4388       4399       4398  
      4267       4268       4279       4278       4388       4389       4400       4399  
      4269       4270       4281       4280       4390       4391       4402       4401  
      4270       4271       4282       4281       4391       4392       4403       4402  
      4271       4272       4283       4282       4392       4393       4404       4403  
      4272       4273       4284       4283       4393       4394       4405       4404  
      4273       4274       4285       4284       4394       4395       4406       4405  
      4274       4275       4286       4285       4395       4396       4407       4406  
      4275       4276       4287       4286       4396       4397       4408       4407  
      4276       4277       4288       4287       4397       4398       4409       4408  
      4277       4278       4289       4288       4398       4399       4410       4409  
      4278       4279       4290       4289       4399       4400       4411       4410  
      4280       4281       4292       4291       4401       4402       4413       4412  
      4281       4282       4293       4292       4402       4403       4414       4413  
      4282       4283       4294       4293       4403       4404       4415       4414  
      4283       4284       4295       4294       4404       4405       4416       4415  
      4284       4285       4296       4295       4405       4406       4417       4416  
      4285       4286       4297       4296       4406       4407       4418       4417  
      4286       4287       4298       4297       4407       4408       4419       4418  
      4287       4288       4299       4298       4408       4409       4420       4419  
      4288       4289       4300       4299       4409       4410       4421       4420  
      4289       4290       4301       4300       4410       4411       4422       4421  
      4291       4292       4303       4302       4412       4413       4424       4423  
      4292       4293       4304       4303       4413       4414       4425       4424  
      4293       4294       4305       4304       4414       4415       4426       4425  
      4294       4295       4306       4305       4415       4416       4427       4426  
      4295       4296       4307       4306       4416       4417       4428       4427  
      4296       4297       4308       4307       4417       4418       4429       4428  
      4297       4298       4309       4308       4418       4419       4430       4429  
      4298       4299       4310       4309       4419       4420       4431       4430  
      4299       4300       4311       4310       4420       4421       4432       4431  
      4300       4301       4312       4311       4421       4422       4433       4432  
      4302       4303       4314       4313       4423       4424       4435       4434  
      4303       4304       4315       4314       4424       4425       4436       4435  
      4304       4305       4316       4315       4425       4426       4437       4436  
      4305       4306       4317       4316       4426       4427       4438       4437  
      4306       4307       4318       4317       4427       4428       4439       4438  
      4307       4308       4319       4318       4428       4429       4440       4439  
      4308       4309       4320       4319       4429       4430       4441       4440  
      4309       4310       4321       4320       4430       4431       4442       4441  
      4310       4311       4322       4321       4431       4432       4443       4442  
      4311       4312       4323       4322       4432       4433       4444       4443  
      4313       4314       4325       4324       4434       4435       4446       4445  
      4314       4315       4326       4325       4435       4436       4447       4446  
      4315       4316       4327       4326       4436       4437       4448       4447  
      4316       4317       4328       4327       4437       4438       4449       4448  
      4317       4318       4329       4328       4438       4439       4450       4449  
      4318       4319       4330       4329       4439       4440       4451       4450  
      4319       4320       4331       4330       4440       4441       4452       4451  
      4320       4321       4332       4331       4441       4442       4453       4452  
      4321       4322       4333       4332       4442       4443       4454       4453  
      4322       4323       4334       4333       4443       4444       4455       4454  
      4324       4325       4336       4335       4445       4446       4457       4456  
      4325       4326       4337       4336       4446       4447       4458       4457  
      4326       4327       4338       4337       4447       4448       4459       4458  
      4327       4328       4339       4338       4448       4449       4460       4459  
      4328       4329       4340       4339       4449       4450       4461       4460  
      4329       4330       4341       4340       4450       4451       4462       4461  
      4330       4331       4342       4341       4451       4452       4463       4462  
      4331       4332       4343       4342       4452       4453       4464       4463  
      4332       4333       4344       4343       4453       4454       4465       4464  
      4333       4334       4345       4344       4454       4455       4466       4465  
      4335       4336       4347       4346       4456       4457       4468       4467  
      4336       4337       4348       4347       4457       4458       4469       4468  
      4337       4338       4349       4348       4458       4459       4470       4469  
      4338       4339       4350       4349       4459       4460       4471       4470  
      4339       4340       4351       4350       4460       4461       4472       4471  
      4340       4341       4352       4351       4461       4462       4473       4472  
      4341       4342       4353       4352       4462       4463       4474       4473  
      4342       4343       4354       4353       4463       4464       4475       4474  
      4343       4344       4355       4354       4464       4465       4476       4475  
      4344       4345       4356       4355       4465       4466       4477       4476  
      4357       4358       4369       4368       4478       4479       4490       4489  
      4358       4359       4370       4369       4479       4480       4491       4490  
      4359       4360       4371       4370       4480       4481       4492       4491  
      4360       4361       4372       4371       4481       4482       4493       4492  
      4361       4362       4373       4372       4482       4483       4494       4493  
      4362       4363       4374       4373       4483       4484       4495       4494  
      4363       4364       4375       4374       4484       4485       4496       4495  
      4364       4365       4376       4375       4485       4486       4497       4496  
      4365       4366       4377       4376       4486       4487       4498       4497  
      4366       4367       4378       4377       4487       4488       4499       4498  
      4368       4369       4380       4379       4489       4490       4501       4500  
      4369       4370       4381       4380       4490       4491       4502       4501  
      4370       4371       4382       4381       4491       4492       4503       4502  
      4371       4372       4383       4382       4492       4493       4504       4503  
      4372       4373       4384       4383       4493       4494       4505       4504  
      4373       4374       4385       4384       4494       4495       4506       4505  
      4374       4375       4386       4385       4495       4496       4507       4506  
      4375       4376       4387       4386       4496       4497       4508       4507  
      4376       4377       4388       4387       4497       4498       4509       4508  
      4377       4378       4389       4388       4498       4499       4510       4509  
      4379       4380       4391       4390       4500       4501       4512       4511  
      4380       4381       4392       4391       4501       4502       4513       4512  
      4381       4382       4393       4392       4502       4503       4514       4513  
      4382       4383       4394       4393       4503       4504       4515       4514  
      4383       4384       4395       4394       4504       4505       4516       4515  
      4384       4385       4396       4395       4505       4506       4517       4516  
      4385       4386       4397       4396       4506       4507       4518       4517  
      4386       4387       4398       4397       4507       4508       4519       4518  
      4387       4388       4399       4398       4508       4509       4520       4519  
      4388       4389       4400       4399       4509       4510       4521       4520  
      4390       4391       4402       4401       4511       4512       4523       4522  
      4391       4392       4403       4402       4512       4513       4524       4523  
      4392       4393       4404       4403       4513       4514       4525       4524  
      4393       4394       4405       4404       4514       4515       4526       4525  
      4394       4395       4406       4405       4515       4516       4527       4526  
      4395       4396       4407       4406       4516       4517       4528       4527  
      4396       4397       4408       4407       4517       4518       4529       4528  
      4397       4398       4409       4408       4518       4519       4530       4529  
      4398       4399       4410       4409       4519       4520       4531       4530  
      4399       4400       4411       4410       4520       4521       4532       4531  
      4401       4402       4413       4412       4522       4523       4534       4533  
      4402       4403       4414       4413       4523       4524       4535       4534  
      4403       4404       4415       4414       4524       4525       4536       4535  
      4404       4405       4416       4415       4525       4526       4537       4536  
      4405       4406       4417       4416       4526       4527       4538       4537  
      4406       4407       4418       4417       4527       4528       4539       4538  
      4407       4408       4419       4418       4528       4529       4540       4539  
      4408       4409       4420       4419       4529       4530       4541       4540  
      4409       4410       4421       4420       4530       4531       4542       4541  
      4410       4411       4422       4421       4531       4532       4543       4542  
      4412       4413       4424       4423       4533       4534       4545       4544  
      4413       4414       4425       4424       4534       4535       4546       4545  
      4414       4415       4426       4425       4535       4536       4547       4546  
      4415       4416       4427       4426       4536       4537       4548       4547  
      4416       4417       4428       4427       4537       4538       4549       4548  
      4417       4418       4429       4428       4538       4539       4550       4549  
      4418       4419       4430       4429       4539       4540       4551       4550  
      4419       4420       4431       4430       4540       4541       4552       4551  
      4420       4421       4432       4431       4541       4542       4553       4552  
      4421       4422       4433       4432       4542       4543       4554       4553  
      4423       4424       4435       4434       4544       4545       4556       4555  
      4424       4425       4436       4435       4545       4546       4557       4556  
      4425       4426       4437       4436       4546       4547       4558       4557  
      4426       4427       4438       4437       4547       4548       4559       4558  
      4427       4428       4439       4438       4548       4549       4560       4559  
      4428       4429       4440       4439       4549       4550       4561       4560  
      4429       4430       4441       4440       4550       4551       4562       4561  
      4430       4431       4442       4441       4551       4552       4563       4562  
      4431       4432       4443       4442       4552       4553       4564       4563  
      4432       4433       4444       4443       4553       4554       4565       4564  
      4434       4435       4446       4445       4555       4556       4567       4566  
      4435       4436       4447       4446       4556       4557       4568       4567  
      4436       4437       4448       4447       4557       4558       4569       4568  
      4437       4438       4449       4448       4558       4559       4570       4569  
      4438       4439       4450       4449       4559       4560       4571       4570  
      4439       4440       4451       4450       4560       4561       4572       4571  
      4440       4441       4452       4451       4561       4562       4573       4572  
      4441       4442       4453       4452       4562       4563       4574       4573  
      4442       4443       4454       4453       4563       4564       4575       4574  
      4443       4444       4455       4454       4564       4565       4576       4575  
      4445       4446       4457       4456       4566       4567       4578       4577  
      4446       4447       4458       4457       4567       4568       4579       4578  
      4447       4448       4459       4458       4568       4569       4580       4579  
      4448       4449       4460       4459       4569       4570       4581       4580  
      4449       4450       4461       4460       4570       4571       4582       4581  
      4450       4451       4462       4461       4571       4572       4583       4582  
      4451       4452       4463       4462       4572       4573       4584       4583  
      4452       4453       4464       4463       4573       4574       4585       4584  
      4453       4454       4465       4464       4574       4575       4586       4585  
      4454       4455       4466       4465       4575       4576       4587       4586  
      4456       4457       4468       4467       4577       4578       4589       4588  
      4457       4458       4469       4468       4578       4579       4590       4589  
      4458       4459       4470       4469       4579       4580       4591       4590  
      4459       4460       4471       4470       4580       4581       4592       4591  
      4460       4461       4472       4471       4581       4582       4593       4592  
      4461       4462       4473       4472       4582       4583       4594       4593  
      4462       4463       4474       4473       4583       4584       4595       4594  
      4463       4464       4475       4474       4584       4585       4596       4595  
      4464       4465       4476       4475       4585       4586       4597       4596  
      4465       4466       4477       4476       4586       4587       4598       4597  
      4478       4479       4490       4489       4599       4600       4611       4610  
      4479       4480       4491       4490       4600       4601       4612       4611  
      4480       4481       4492       4491       4601       4602       4613       4612  
      4481       4482       4493       4492       4602       4603       4614       4613  
      4482       4483       4494       4493       4603       4604       4615       4614  
      4483       4484       4495       4494       4604       4605       4616       4615  
      4484       4485       4496       4495       4605       4606       4617       4616  
      4485       4486       4497       4496       4606       4607       4618       4617  
      4486       4487       4498       4497       4607       4608       4619       4618  
      4487       4488       4499       4498       4608       4609       4620       4619  
      4489       4490       4501       4500       4610       4611       4622       4621  
      4490       4491       4502       4501       4611       4612       4623       4622  
      4491       4492       4503       4502       4612       4613       4624       4623  
      4492       4493       4504       4503       4613       4614       4625       4624  
      4493       4494       4505       4504       4614       4615       4626       4625  
      4494       4495       4506       4505       4615       4616       4627       4626  
      4495       4496       4507       4506       4616       4617       4628       4627  
      4496       4497       4508       4507       4617       4618       4629       4628  
      4497       4498       4509       4508       4618       4619       4630       4629  
      4498       4499       4510       4509       4619       4620       4631       4630  
      4500       4501       4512       4511       4621       4622       4633       4632  
      4501       4502       4513       4512       4622       4623       4634       4633  
      4502       4503       4514       4513       4623       4624       4635       4634  
      4503       4504       4515       4514       4624       4625       4636       4635  
      4504       4505       4516       4515       4625       4626       4637       4636  
      4505       4506       4517       4516       4626       4627       4638       4637  
      4506       4507       4518       4517       4627       4628       4639       4638  
      4507       4508       4519       4518       4628       4629       4640       4639  
      4508       4509       4520       4519       4629       4630       4641       4640  
      4509       4510       4521       4520       4630       4631       4642       4641  
      4511       4512       4523       4522       4632       4633       4644       4643  
      4512       4513       4524       4523       4633       4634       4645       4644  
      4513       4514       4525       4524       4634       4635       4646       4645  
      4514       4515       4526       4525       4635       4636       4647       4646  
      4515       4516       4527       4526       4636       4637       4648       4647  
      4516       4517       4528       4527       4637       4638       4649       4648  
      4517       4518       4529       4528       4638       4639       4650       4649  
      4518       4519       4530       4529       4639       4640       4651       4650  
      4519       4520       4531       4530       4640       4641       4652       4651  
      4520       4521       4532       4531       4641       4642       4653       4652  
      4522       4523       4534       4533       4643       4644       4655       4654  
      4523       4524       4535       4534       4644       4645       4656       4655  
      4524       4525       4536       4535       4645       4646       4657       4656  
      4525       4526       4537       4536       4646       4647       4658       4657  
      4526       4527       4538       4537       4647       4648       4659       4658  
      4527       4528       4539       4538       4648       4649       4660       4659  
      4528       4529       4540       4539       4649       4650       4661       4660  
      4529       4530       4541       4540       4650       4651       4662       4661  
      4530       4531       4542       4541       4651       4652       4663       4662  
      4531       4532       4543       4542       4652       4653       4664       4663  
      4533       4534       4545       4544       4654       4655       4666       4665  
      4534       4535       4546       4545       4655       4656       4667       4666  
      4535       4536       4547       4546       4656       4657       4668       4667  
      4536       4537       4548       4547       4657       4658       4669       4668  
      4537       4538       4549       4548       4658       4659       4670       4669  
      4538       4539       4550       4549       4659       4660       4671       4670  
      4539       4540       4551       4550       4660       4661       4672       4671  
      4540       4541       4552       4551       4661       4662       4673       4672  
      4541       4542       4553       4552       4662       4663       4674       4673  
      4542       4543       4554       4553       4663       4664       4675       4674  
      4544       4545       4556       4555       4665       4666       4677       4676  
      4545       4546       4557       4556       4666       4667       4678       4677  
      4546       4547       4558       4557       4667       4668       4679       4678  
      4547       4548       4559       4558       4668       4669       4680       4679  
      4548       4549       4560       4559       4669       4670       4681       4680  
      4549       4550       4561       4560       4670       4671       4682       4681  
      4550       4551       4562       4561       4671       4672       4683       4682  
      4551       4552       4563       4562       4672       4673       4684       4683  
      4552       4553       4564       4563       4673       4674       4685       4684  
      4553       4554       4565       4564       4674       4675       4686       4685  
      4555       4556       4567       4566       4676       4677       4688       4687  
      4556       4557       4568       4567       4677       4678       4689       4688  
      4557       4558       4569       4568       4678       4679       4690       4689  
      4558       4559       4570       4569       4679       4680       4691       4690  
      4559       4560       4571       4570       4680       4681       4692       4691  
      4560       4561       4572       4571       4681       4682       4693       4692  
      4561       4562       4573       4572       4682       4683       4694       4693  
      4562       4563       4574       4573       4683       4684       4695       4694  
      4563       4564       4575       4574       4684       4685       4696       4695  
      4564       4565       4576       4575       4685       4686       4697       4696  
      4566       4567       4578       4577       4687       4688       4699       4698  
      4567       4568       4579       4578       4688       4689       4700       4699  
      4568       4569       4580       4579       4689       4690       4701       4700  
      4569       4570       4581       4580       4690       4691       4702       4701  
      4570       4571       4582       4581       4691       4692       4703       4702  
      4571       4572       4583       4582       4692       4693       4704       4703  
      4572       4573       4584       4583       4693       4694       4705       4704  
      4573       4574       4585       4584       4694       4695       4706       4705  
      4574       4575       4586       4585       4695       4696       4707       4706  
      4575       4576       4587       4586       4696       4697       4708       4707  
      4577       4578       4589       4588       4698       4699       4710       4709  
      4578       4579       4590       4589       4699       4700       4711       4710  
      4579       4580       4591       4590       4700       4701       4712       4711  
      4580       4581       4592       4591       4701       4702       4713       4712  
      4581       4582       4593       4592       4702       4703       4714       4713  
      4582       4583       4594       4593       4703       4704       4715       4714  
      4583       4584       4595       4594       4704       4705       4716       4715  
      4584       4585       4596       4595       4705       4706       4717       4716  
      4585       4586       4597       4596       4706       4707       4718       4717  
      4586       4587       4598       4597       4707       4708       4719       4718  
      4599       4600       4611       4610       4720       4721       4732       4731  
      4600       4601       4612       4611       4721       4722       4733       4732  
      4601       4602       4613       4612       4722       4723       4734       4733  
      4602       4603       4614       4613       4723       4724       4735       4734  
      4603       4604       4615       4614       4724       4725       4736       4735  
      4604       4605       4616       4615       4725       4726       4737       4736  
      4605       4606       4617       4616       4726       4727       4738       4737  
      4606       4607       4618       4617       4727       4728       4739       4738  
      4607       4608       4619       4618       4728       4729       4740       4739  
      4608       4609       4620       4619       4729       4730       4741       4740  
      4610       4611       4622       4621       4731       4732       4743       4742  
      4611       4612       4623       4622       4732       4733       4744       4743  
      4612       4613       4624       4623       4733       4734       4745       4744  
      4613       4614       4625       4624       4734       4735       4746       4745  
      4614       4615       4626       4625       4735       4736       4747       4746  
      4615       4616       4627       4626       4736       4737       4748       4747  
      4616       4617       4628       4627       4737       4738       4749       4748  
      4617       4618       4629       4628       4738       4739       4750       4749  
      4618       4619       4630       4629       4739       4740       4751       4750  
      4619       4620       4631       4630       4740       4741       4752       4751  
      4621       4622       4633       4632       4742       4743       4754       4753  
      4622       4623       4634       4633       4743       4744       4755       4754  
      4623       4624       4635       4634       4744       4745       4756       4755  
      4624       4625       4636       4635       4745       4746       4757       4756  
      4625       4626       4637       4636       4746       4747       4758       4757  
      4626       4627       4638       4637       4747       4748       4759       4758  
      4627       4628       4639       4638       4748       4749       4760       4759  
      4628       4629       4640       4639       4749       4750       4761       4760  
      4629       4630       4641       4640       4750       4751       4762       4761  
      4630       4631       4642       4641       4751       4752       4763       4762  
      4632       4633       4644       4643       4753       4754       4765       4764  
      4633       4634       4645       4644       4754       4755       4766       4765  
      4634       4635       4646       4645       4755       4756       4767       4766  
      4635       4636       4647       4646       4756       4757       4768       4767  
      4636       4637       4648       4647       4757       4758       4769       4768  
      4637       4638       4649       4648       4758       4759       4770       4769  
      4638       4639       4650       4649       4759       4760       4771       4770  
      4639       4640       4651       4650       4760       4761       4772       4771  
      4640       4641       4652       4651       4761       4762       4773       4772  
      4641       4642       4653       4652       4762       4763       4774       4773  
      4643       4644       4655       4654       4764       4765       4776       4775  
      4644       4645       4656       4655       4765       4766       4777       4776  
      4645       4646       4657       4656       4766       4767       4778       4777  
      4646       4647       4658       4657       4767       4768       4779       4778  
      4647       4648       4659       4658       4768       4769       4780       4779  
      4648       4649       4660       4659       4769       4770       4781       4780  
      4649       4650       4661       4660       4770       4771       4782       4781  
      4650       4651       4662       4661       4771       4772       4783       4782  
      4651       4652       4663       4662       4772       4773       4784       4783  
      4652       4653       4664       4663       4773       4774       4785       4784  
      4654       4655       4666       4665       4775       4776       4787       4786  
      4655       4656       4667       4666       4776       4777       4788       4787  
      4656       4657       4668       4667       4777       4778       4789       4788  
      4657       4658       4669       4668       4778       4779       4790       4789  
      4658       4659       4670       4669       4779       4780       4791       4790  
      4659       4660       4671       4670       4780       4781       4792       4791  
      4660       4661       4672       4671       4781       4782       4793       4792  
      4661       4662       4673       4672       4782       4783       4794       4793  
      4662       4663       4674       4673       4783       4784       4795       4794  
      4663       4664       4675       4674       4784       4785       4796       4795  
      4665       4666       4677       4676       4786       4787       4798       4797  
      4666       4667       4678       4677       4787       4788       4799       4798  
      4667       4668       4679       4678       4788       4789       4800       4799  
      4668       4669       4680       4679       4789       4790       4801       4800  
      4669       4670       4681       4680       4790       4791       4802       4801  
      4670       4671       4682       4681       4791       4792       4803       4802  
      4671       4672       4683       4682       4792       4793       4804       4803  
      4672       4673       4684       4683       4793       4794       4805       4804  
      4673       4674       4685       4684       4794       4795       4806       4805  
      4674       4675       4686       4685       4795       4796       4807       4806  
      4676       4677       4688       4687       4797       4798       4809       4808  
      4677       4678       4689       4688       4798       4799       4810       4809  
      4678       4679       4690       4689       4799       4800       4811       4810  
      4679       4680       4691       4690       4800       4801       4812       4811  
      4680       4681       4692       4691       4801       4802       4813       4812  
      4681       4682       4693       4692       4802       4803       4814       4813  
      4682       4683       4694       4693       4803       4804       4815       4814  
      4683       4684       4695       4694       4804       4805       4816       4815  
      4684       4685       4696       4695       4805       4806       4817       4816  
      4685       4686       4697       4696       4806       4807       4818       4817  
      4687       4688       4699       4698       4808       4809       4820       4819  
      4688       4689       4700       4699       4809       4810       4821       4820  
      4689       4690       4701       4700       4810       4811       4822       4821  
      4690       4691       4702       4701       4811       4812       4823       4822  
      4691       4692       4703       4702       4812       4813       4824       4823  
      4692       4693       4704       4703       4813       4814       4825       4824  
      4693       4694       4705       4704       4814       4815       4826       4825  
      4694       4695       4706       4705       4815       4816       4827       4826  
      4695       4696       4707       4706       4816       4817       4828       4827  
      4696       4697       4708       4707       4817       4818       4829       4828  
      4698       4699       4710       4709       4819       4820       4831       4830  
      4699       4700       4711       4710       4820       4821       4832       4831  
      4700       4701       4712       4711       4821       4822       4833       4832  
      4701       4702       4713       4712       4822       4823       4834       4833  
      4702       4703       4714       4713       4823       4824       4835       4834  
      4703       4704       4715       4714       4824       4825       4836       4835  
      4704       4705       4716       4715       4825       4826       4837       4836  
      4705       4706       4717       4716       4826       4827       4838       4837  
      4706       4707       4718       4717       4827       4828       4839       4838  
      4707       4708       4719       4718       4828       4829       4840       4839  
      4720       4721       4732       4731       4841       4842       4853       4852  
      4721       4722       4733       4732       4842       4843       4854       4853  
      4722       4723       4734       4733       4843       4844       4855       4854  
      4723       4724       4735       4734       4844       4845       4856       4855  
      4724       4725       4736       4735       4845       4846       4857       4856  
      4725       4726       4737       4736       4846       4847       4858       4857  
      4726       4727       4738       4737       4847       4848       4859       4858  
      4727       4728       4739       4738       4848       4849       4860       4859  
      4728       4729       4740       4739       4849       4850       4861       4860  
      4729       4730       4741       4740       4850       4851       4862       4861  
      4731       4732       4743       4742       4852       4853       4864       4863  
      4732       4733       4744       4743       4853       4854       4865       4864  
      4733       4734       4745       4744       4854       4855       4866       4865  
      4734       4735       4746       4745       4855       4856       4867       4866  
      4735       4736       4747       4746       4856       4857       4868       4867  
      4736       4737       4748       4747       4857       4858       4869       4868  
      4737       4738       4749       4748       4858       4859       4870       4869  
      4738       4739       4750       4749       4859       4860       4871       4870  
      4739       4740       4751       4750       4860       4861       4872       4871  
      4740       4741       4752       4751       4861       4862       4873       4872  
      4742       4743       4754       4753       4863       4864       4875       4874  
      4743       4744       4755       4754       4864       4865       4876       4875  
      4744       4745       4756       4755       4865       4866       4877       4876  
      4745       4746       4757       4756       4866       4867       4878       4877  
      4746       4747       4758       4757       4867       4868       4879       4878  
      4747       4748       4759       4758       4868       4869       4880       4879  
      4748       4749       4760       4759       4869       4870       4881       4880  
      4749       4750       4761       4760       4870       4871       4882       4881  
      4750       4751       4762       4761       4871       4872       4883       4882  
      4751       4752       4763       4762       4872       4873       4884       4883  
      4753       4754       4765       4764       4874       4875       4886       4885  
      4754       4755       4766       4765       4875       4876       4887       4886  
      4755       4756       4767       4766       4876       4877       4888       4887  
      4756       4757       4768       4767       4877       4878       4889       4888  
      4757       4758       4769       4768       4878       4879       4890       4889  
      4758       4759       4770       4769       4879       4880       4891       4890  
      4759       4760       4771       4770       4880       4881       4892       4891  
      4760       4761       4772       4771       4881       4882       4893       4892  
      4761       4762       4773       4772       4882       4883       4894       4893  
      4762       4763       4774       4773       4883       4884       4895       4894  
      4764       4765       4776       4775       4885       4886       4897       4896  
      4765       4766       4777       4776       4886       4887       4898       4897  
      4766       4767       4778       4777       4887       4888       4899       4898  
      4767       4768       4779       4778       4888       4889       4900       4899  
      4768       4769       4780       4779       4889       4890       4901       4900  
      4769       4770       4781       4780       4890       4891       4902       4901  
      4770       4771       4782       4781       4891       4892       4903       4902  
      4771       4772       4783       4782       4892       4893       4904       4903  
      4772       4773       4784       4783       4893       4894       4905       4904  
      4773       4774       4785       4784       4894       4895       4906       4905  
      4775       4776       4787       4786       4896       4897       4908       4907  
      4776       4777       4788       4787       4897       4898       4909       4908  
      4777       4778       4789       4788       4898       4899       4910       4909  
      4778       4779       4790       4789       4899       4900       4911       4910  
      4779       4780       4791       4790       4900       4901       4912       4911  
      4780       4781       4792       4791       4901       4902       4913       4912  
      4781       4782       4793       4792       4902       4903       4914       4913  
      4782       4783       4794       4793       4903       4904       4915       4914  
      4783       4784       4795       4794       4904       4905       4916       4915  
      4784       4785       4796       4795       4905       4906       4917       4916  
      4786       4787       4798       4797       4907       4908       4919       4918  
      4787       4788       4799       4798       4908       4909       4920       4919  
      4788       4789       4800       4799       4909       4910       4921       4920  
      4789       4790       4801       4800       4910       4911       4922       4921  
      4790       4791       4802       4801       4911       4912       4923       4922  
      4791       4792       4803       4802       4912       4913       4924       4923  
      4792       4793       4804       4803       4913       4914       4925       4924  
      4793       4794       4805       4804       4914       4915       4926       4925  
      4794       4795       4806       4805       4915       4916       4927       4926  
      4795       4796       4807       4806       4916       4917       4928       4927  
      4797       4798       4809       4808       4918       4919       4930       4929  
      4798       4799       4810       4809       4919       4920       4931       4930  
      4799       4800       4811       4810       4920       4921       4932       4931  
      4800       4801       4812       4811       4921       4922       4933       4932  
      4801       4802       4813       4812       4922       4923       4934       4933  
      4802       4803       4814       4813       4923       4924       4935       4934  
      4803       4804       4815       4814       4924       4925       4936       4935  
      4804       4805       4816       4815       4925       4926       4937       4936  
      4805       4806       4817       4816       4926       4927       4938       4937  
      4806       4807       4818       4817       4927       4928       4939       4938  
      4808       4809       4820       4819       4929       4930       4941       4940  
      4809       4810       4821       4820       4930       4931       4942       4941  
      4810       4811       4822       4821       4931       4932       4943       4942  
      4811       4812       4823       4822       4932       4933       4944       4943  
      4812       4813       4824       4823       4933       4934       4945       4944  
      4813       4814       4825       4824       4934       4935       4946       4945  
      4814       4815       4826       4825       4935       4936       4947       4946  
      4815       4816       4827       4826       4936       4937       4948       4947  
      4816       4817       4828       4827       4937       4938       4949       4948  
      4817       4818       4829       4828       4938       4939       4950       4949  
      4819       4820       4831       4830       4940       4941       4952       4951  
      4820       4821       4832       4831       4941       4942       4953       4952  
      4821       4822       4833       4832       4942       4943       4954       4953  
      4822       4823       4834       4833       4943       4944       4955       4954  
      4823       4824       4835       4834       4944       4945       4956       4955  
      4824       4825       4836       4835       4945       4946       4957       4956  
      4825       4826       4837       4836       4946       4947       4958       4957  
      4826       4827       4838       4837       4947       4948       4959       4958  
      4827       4828       4839       4838       4948       4949       4960       4959  
      4828       4829       4840       4839       4949       4950       4961       4960  
      4841       4842       4853       4852       4962       4963       4974       4973  
      4842       4843       4854       4853       4963       4964       4975       4974  
      4843       4844       4855       4854       4964       4965       4976       4975  
      4844       4845       4856       4855       4965       4966       4977       4976  
      4845       4846       4857       4856       4966       4967       4978       4977  
      4846       4847       4858       4857       4967       4968       4979       4978  
      4847       4848       4859       4858       4968       4969       4980       4979  
      4848       4849       4860       4859       4969       4970       4981       4980  
      4849       4850       4861       4860       4970       4971       4982       4981  
      4850       4851       4862       4861       4971       4972       4983       4982  
      4852       4853       4864       4863       4973       4974       4985       4984  
      4853       4854       4865       4864       4974       4975       4986       4985  
      4854       4855       4866       4865       4975       4976       4987       4986  
      4855       4856       4867       4866       4976       4977       4988       4987  
      4856       4857       4868       4867       4977       4978       4989       4988  
      4857       4858       4869       4868       4978       4979       4990       4989  
      4858       4859       4870       4869       4979       4980       4991       4990  
      4859       4860       4871       4870       4980       4981       4992       4991  
      4860       4861       4872       4871       4981       4982       4993       4992  
      4861       4862       4873       4872       4982       4983       4994       4993  
      4863       4864       4875       4874       4984       4985       4996       4995  
      4864       4865       4876       4875       4985       4986       4997       4996  
      4865       4866       4877       4876       4986       4987       4998       4997  
      4866       4867       4878       4877       4987       4988       4999       4998  
      4867       4868       4879       4878       4988       4989       5000       4999  
      4868       4869       4880       4879       4989       4990       5001       5000  
      4869       4870       4881       4880       4990       4991       5002       5001  
      4870       4871       4882       4881       4991       4992       5003       5002  
      4871       4872       4883       4882       4992       4993       5004       5003  
      4872       4873       4884       4883       4993       4994       5005       5004  
      4874       4875       4886       4885       4995       4996       5007       5006  
      4875       4876       4887       4886       4996       4997       5008       5007  
      4876       4877       4888       4887       4997       4998       5009       5008  
      4877       4878       4889       4888       4998       4999       5010       5009  
      4878       4879       4890       4889       4999       5000       5011       5010  
      4879       4880       4891       4890       5000       5001       5012       5011  
      4880       4881       4892       4891       5001       5002       5013       5012  
      4881       4882       4893       4892       5002       5003       5014       5013  
      4882       4883       4894       4893       5003       5004       5015       5014  
      4883       4884       4895       4894       5004       5005       5016       5015  
      4885       4886       4897       4896       5006       5007       5018       5017  
      4886       4887       4898       4897       5007       5008       5019       5018  
      4887       4888       4899       4898       5008       5009       5020       5019  
      4888       4889       4900       4899       5009       5010       5021       5020  
      4889       4890       4901       4900       5010       5011       5022       5021  
      4890       4891       4902       4901       5011       5012       5023       5022  
      4891       4892       4903       4902       5012       5013       5024       5023  
      4892       4893       4904       4903       5013       5014       5025       5024  
      4893       4894       4905       4904       5014       5015       5026       5025  
      4894       4895       4906       4905       5015       5016       5027       5026  
      4896       4897       4908       4907       5017       5018       5029       5028  
      4897       4898       4909       4908       5018       5019       5030       5029  
      4898       4899       4910       4909       5019       5020       5031       5030  
      4899       4900       4911       4910       5020       5021       5032       5031  
      4900       4901       4912       4911       5021       5022       5033       5032  
      4901       4902       4913       4912       5022       5023       5034       5033  
      4902       4903       4914       4913       5023       5024       5035       5034  
      4903       4904       4915       4914       5024       5025       5036       5035  
      4904       4905       4916       4915       5025       5026       5037       5036  
      4905       4906       4917       4916       5026       5027       5038       5037  
      4907       4908       4919       4918       5028       5029       5040       5039  
      4908       4909       4920       4919       5029       5030       5041       5040  
      4909       4910       4921       4920       5030       5031       5042       5041  
      4910       4911       4922       4921       5031       5032       5043       5042  
      4911       4912       4923       4922       5032       5033       5044       5043  
      4912       4913       4924       4923       5033       5034       5045       5044  
      4913       4914       4925       4924       5034       5035       5046       5045  
      4914       4915       4926       4925       5035       5036       5047       5046  
      4915       4916       4927       4926       5036       5037       5048       5047  
      4916       4917       4928       4927       5037       5038       5049       5048  
      4918       4919       4930       4929       5039       5040       5051       5050  
      4919       4920       4931       4930       5040       5041       5052       5051  
      4920       4921       4932       4931       5041       5042       5053       5052  
      4921       4922       4933       4932       5042       5043       5054       5053  
      4922       4923       4934       4933       5043       5044       5055       5054  
      4923       4924       4935       4934       5044       5045       5056       5055  
      4924       4925       4936       4935       5045       5046       5057       5056  
      4925       4926       4937       4936       5046       5047       5058       5057  
      4926       4927       4938       4937       5047       5048       5059       5058  
      4927       4928       4939       4938       5048       5049       5060       5059  
      4929       4930       4941       4940       5050       5051       5062       5061  
      4930       4931       4942       4941       5051       5052       5063       5062  
      4931       4932       4943       4942       5052       5053       5064       5063  
      4932       4933       4944       4943       5053       5054       5065       5064  
      4933       4934       4945       4944       5054       5055       5066       5065  
      4934       4935       4946       4945       5055       5056       5067       5066  
      4935       4936       4947       4946       5056       5057       5068       5067  
      4936       4937       4948       4947       5057       5058       5069       5068  
      4937       4938       4949       4948       5058       5059       5070       5069  
      4938       4939       4950       4949       5059       5060       5071       5070  
      4940       4941       4952       4951       5061       5062       5073       5072  
      4941       4942       4953       4952       5062       5063       5074       5073  
      4942       4943       4954       4953       5063       5064       5075       5074  
      4943       4944       4955       4954       5064       5065       5076       5075  
      4944       4945       4956       4955       5065       5066       5077       5076  
      4945       4946       4957       4956       5066       5067       5078       5077  
      4946       4947       4958       4957       5067       5068       5079       5078  
      4947       4948       4959       4958       5068       5069       5080       5079  
      4948       4949       4960       4959       5069       5070       5081       5080  
      4949       4950       4961       4960       5070       5071       5082       5081  
      4962       4963       4974       4973       5083       5084       5095       5094  
      4963       4964       4975       4974       5084       5085       5096       5095  
      4964       4965       4976       4975       5085       5086       5097       5096  
      4965       4966       4977       4976       5086       5087       5098       5097  
      4966       4967       4978       4977       5087       5088       5099       5098  
      4967       4968       4979       4978       5088       5089       5100       5099  
      4968       4969       4980       4979       5089       5090       5101       5100  
      4969       4970       4981       4980       5090       5091       5102       5101  
      4970       4971       4982       4981       5091       5092       5103       5102  
      4971       4972       4983       4982       5092       5093       5104       5103  
      4973       4974       4985       4984       5094       5095       5106       5105  
      4974       4975       4986       4985       5095       5096       5107       5106  
      4975       4976       4987       4986       5096       5097       5108       5107  
      4976       4977       4988       4987       5097       5098       5109       5108  
      4977       4978       4989       4988       5098       5099       5110       5109  
      4978       4979       4990       4989       5099       5100       5111       5110  
      4979       4980       4991       4990       5100       5101       5112       5111  
      4980       4981       4992       4991       5101       5102       5113       5112  
      4981       4982       4993       4992       5102       5103       5114       5113  
      4982       4983       4994       4993       5103       5104       5115       5114  
      4984       4985       4996       4995       5105       5106       5117       5116  
      4985       4986       4997       4996       5106       5107       5118       5117  
      4986       4987       4998       4997       5107       5108       5119       5118  
      4987       4988       4999       4998       5108       5109       5120       5119  
      4988       4989       5000       4999       5109       5110       5121       5120  
      4989       4990       5001       5000       5110       5111       5122       5121  
      4990       4991       5002       5001       5111       5112       5123       5122  
      4991       4992       5003       5002       5112       5113       5124       5123  
      4992       4993       5004       5003       5113       5114       5125       5124  
      4993       4994       5005       5004       5114       5115       5126       5125  
      4995       4996       5007       5006       5116       5117       5128       5127  
      4996       4997       5008       5007       5117       5118       5129       5128  
      4997       4998       5009       5008       5118       5119       5130       5129  
      4998       4999       5010       5009       5119       5120       5131       5130  
      4999       5000       5011       5010       5120       5121       5132       5131  
      5000       5001       5012       5011       5121       5122       5133       5132  
      5001       5002       5013       5012       5122       5123       5134       5133  
      5002       5003       5014       5013       5123       5124       5135       5134  
      5003       5004       5015       5014       5124       5125       5136       5135  
      5004       5005       5016       5015       5125       5126       5137       5136  
      5006       5007       5018       5017       5127       5128       5139       5138  
      5007       5008       5019       5018       5128       5129       5140       5139  
      5008       5009       5020       5019       5129       5130       5141       5140  
      5009       5010       5021       5020       5130       5131       5142       5141  
      5010       5011       5022       5021       5131       5132       5143       5142  
      5011       5012       5023       5022       5132       5133       5144       5143  
      5012       5013       5024       5023       5133       5134       5145       5144  
      5013       5014       5025       5024       5134       5135       5146       5145  
      5014       5015       5026       5025       5135       5136       5147       5146  
      5015       5016       5027       5026       5136       5137       5148       5147  
      5017       5018       5029       5028       5138       5139       5150       5149  
      5018       5019       5030       5029       5139       5140       5151       5150  
      5019       5020       5031       5030       5140       5141       5152       5151  
      5020       5021       5032       5031       5141       5142       5153       5152  
      5021       5022       5033       5032       5142       5143       5154       5153  
      5022       5023       5034       5033       5143       5144       5155       5154  
      5023       5024       5035       5034       5144       5145       5156       5155  
      5024       5025       5036       5035       5145       5146       5157       5156  
      5025       5026       5037       5036       5146       5147       5158       5157  
      5026       5027       5038       5037       5147       5148       5159       5158  
      5028       5029       5040       5039       5149       5150       5161       5160  
      5029       5030       5041       5040       5150       5151       5162       5161  
      5030       5031       5042       5041       5151       5152       5163       5162  
      5031       5032       5043       5042       5152       5153       5164       5163  
      5032       5033       5044       5043       5153       5154       5165       5164  
      5033       5034       5045       5044       5154       5155       5166       5165  
      5034       5035       5046       5045       5155       5156       5167       5166  
      5035       5036       5047       5046       5156       5157       5168       5167  
      5036       5037       5048       5047       5157       5158       5169       5168  
      5037       5038       5049       5048       5158       5159       5170       5169  
      5039       5040       5051       5050       5160       5161       5172       5171  
      5040       5041       5052       5051       5161       5162       5173       5172  
      5041       5042       5053       5052       5162       5163       5174       5173  
      5042       5043       5054       5053       5163       5164       5175       5174  
      5043       5044       5055       5054       5164       5165       5176       5175  
      5044       5045       5056       5055       5165       5166       5177       5176  
      5045       5046       5057       5056       5166       5167       5178       5177  
      5046       5047       5058       5057       5167       5168       5179       5178  
      5047       5048       5059       5058       5168       5169       5180       5179  
      5048       5049       5060       5059       5169       5170       5181       5180  
      5050       5051       5062       5061       5171       5172       5183       5182  
      5051       5052       5063       5062       5172       5173       5184       5183  
      5052       5053       5064       5063       5173       5174       5185       5184  
      5053       5054       5065       5064       5174       5175       5186       5185  
      5054       5055       5066       5065       5175       5176       5187       5186  
      5055       5056       5067       5066       5176       5177       5188       5187  
      5056       5057       5068       5067       5177       5178       5189       5188  
      5057       5058       5069       5068       5178       5179       5190       5189  
      5058       5059       5070       5069       5179       5180       5191       5190  
      5059       5060       5071       5070       5180       5181       5192       5191  
      5061       5062       5073       5072       5182       5183       5194       5193  
      5062       5063       5074       5073       5183       5184       5195       5194  
      5063       5064       5075       5074       5184       5185       5196       5195  
      5064       5065       5076       5075       5185       5186       5197       5196  
      5065       5066       5077       5076       5186       5187       5198       5197  
      5066       5067       5078       5077       5187       5188       5199       5198  
      5067       5068       5079       5078       5188       5189       5200       5199  
      5068       5069       5080       5079       5189       5190       5201       5200  
      5069       5070       5081       5080       5190       5191       5202       5201  
      5070       5071       5082       5081       5191       5192       5203       5202  
      5083       5084       5095       5094       5204       5205       5216       5215  
      5084       5085       5096       5095       5205       5206       5217       5216  
      5085       5086       5097       5096       5206       5207       5218       5217  
      5086       5087       5098       5097       5207       5208       5219       5218  
      5087       5088       5099       5098       5208       5209       5220       5219  
      5088       5089       5100       5099       5209       5210       5221       5220  
      5089       5090       5101       5100       5210       5211       5222       5221  
      5090       5091       5102       5101       5211       5212       5223       5222  
      5091       5092       5103       5102       5212       5213       5224       5223  
      5092       5093       5104       5103       5213       5214       5225       5224  
      5094       5095       5106       5105       5215       5216       5227       5226  
      5095       5096       5107       5106       5216       5217       5228       5227  
      5096       5097       5108       5107       5217       5218       5229       5228  
      5097       5098       5109       5108       5218       5219       5230       5229  
      5098       5099       5110       5109       5219       5220       5231       5230  
      5099       5100       5111       5110       5220       5221       5232       5231  
      5100       5101       5112       5111       5221       5222       5233       5232  
      5101       5102       5113       5112       5222       5223       5234       5233  
      5102       5103       5114       5113       5223       5224       5235       5234  
      5103       5104       5115       5114       5224       5225       5236       5235  
      5105       5106       5117       5116       5226       5227       5238       5237  
      5106       5107       5118       5117       5227       5228       5239       5238  
      5107       5108       5119       5118       5228       5229       5240       5239  
      5108       5109       5120       5119       5229       5230       5241       5240  
      5109       5110       5121       5120       5230       5231       5242       5241  
      5110       5111       5122       5121       5231       5232       5243       5242  
      5111       5112       5123       5122       5232       5233       5244       5243  
      5112       5113       5124       5123       5233       5234       5245       5244  
      5113       5114       5125       5124       5234       5235       5246       5245  
      5114       5115       5126       5125       5235       5236       5247       5246  
      5116       5117       5128       5127       5237       5238       5249       5248  
      5117       5118       5129       5128       5238       5239       5250       5249  
      5118       5119       5130       5129       5239       5240       5251       5250  
      5119       5120       5131       5130       5240       5241       5252       5251  
      5120       5121       5132       5131       5241       5242       5253       5252  
      5121       5122       5133       5132       5242       5243       5254       5253  
      5122       5123       5134       5133       5243       5244       5255       5254  
      5123       5124       5135       5134       5244       5245       5256       5255  
      5124       5125       5136       5135       5245       5246       5257       5256  
      5125       5126       5137       5136       5246       5247       5258       5257  
      5127       5128       5139       5138       5248       5249       5260       5259  
      5128       5129       5140       5139       5249       5250       5261       5260  
      5129       5130       5141       5140       5250       5251       5262       5261  
      5130       5131       5142       5141       5251       5252       5263       5262  
      5131       5132       5143       5142       5252       5253       5264       5263  
      5132       5133       5144       5143       5253       5254       5265       5264  
      5133       5134       5145       5144       5254       5255       5266       5265  
      5134       5135       5146       5145       5255       5256       5267       5266  
      5135       5136       5147       5146       5256       5257       5268       5267  
      5136       5137       5148       5147       5257       5258       5269       5268  
      5138       5139       5150       5149       5259       5260       5271       5270  
      5139       5140       5151       5150       5260       5261       5272       5271  
      5140       5141       5152       5151       5261       5262       5273       5272  
      5141       5142       5153       5152       5262       5263       5274       5273  
      5142       5143       5154       5153       5263       5264       5275       5274  
      5143       5144       5155       5154       5264       5265       5276       5275  
      5144       5145       5156       5155       5265       5266       5277       5276  
      5145       5146       5157       5156       5266       5267       5278       5277  
      5146       5147       5158       5157       5267       5268       5279       5278  
      5147       5148       5159       5158       5268       5269       5280       5279  
      5149       5150       5161       5160       5270       5271       5282       5281  
      5150       5151       5162       5161       5271       5272       5283       5282  
      5151       5152       5163       5162       5272       5273       5284       5283  
      5152       5153       5164       5163       5273       5274       5285       5284  
      5153       5154       5165       5164       5274       5275       5286       5285  
      5154       5155       5166       5165       5275       5276       5287       5286  
      5155       5156       5167       5166       5276       5277       5288       5287  
      5156       5157       5168       5167       5277       5278       5289       5288  
      5157       5158       5169       5168       5278       5279       5290       5289  
      5158       5159       5170       5169       5279       5280       5291       5290  
      5160       5161       5172       5171       5281       5282       5293       5292  
      5161       5162       5173       5172       5282       5283       5294       5293  
      5162       5163       5174       5173       5283       5284       5295       5294  
      5163       5164       5175       5174       5284       5285       5296       5295  
      5164       5165       5176       5175       5285       5286       5297       5296  
      5165       5166       5177       5176       5286       5287       5298       5297  
      5166       5167       5178       5177       5287       5288       5299       5298  
      5167       5168       5179       5178       5288       5289       5300       5299  
      5168       5169       5180       5179       5289       5290       5301       5300  
      5169       5170       5181       5180       5290       5291       5302       5301  
      5171       5172       5183       5182       5292       5293       5304       5303  
      5172       5173       5184       5183       5293       5294       5305       5304  
      5173       5174       5185       5184       5294       5295       5306       5305  
      5174       5175       5186       5185       5295       5296       5307       5306  
      5175       5176       5187       5186       5296       5297       5308       5307  
      5176       5177       5188       5187       5297       5298       5309       5308  
      5177       5178       5189       5188       5298       5299       5310       5309  
      5178       5179       5190       5189       5299       5300       5311       5310  
      5179       5180       5191       5190       5300       5301       5312       5311  
      5180       5181       5192       5191       5301       5302       5313       5312  
      5182       5183       5194       5193       5303       5304       5315       5314  
      5183       5184       5195       5194       5304       5305       5316       5315  
      5184       5185       5196       5195       5305       5306       5317       5316  
      5185       5186       5197       5196       5306       5307       5318       5317  
      5186       5187       5198       5197       5307       5308       5319       5318  
      5187       5188       5199       5198       5308       5309       5320       5319  
      5188       5189       5200       5199       5309       5310       5321       5320  
      5189       5190       5201       5200       5310       5311       5322       5321  
      5190       5191       5202       5201       5311       5312       5323       5322  
      5191       5192       5203       5202       5312       5313       5324       5323  
      5204       5205       5216       5215       5325       5326       5337       5336  
      5205       5206       5217       5216       5326       5327       5338       5337  
      5206       5207       5218       5217       5327       5328       5339       5338  
      5207       5208       5219       5218       5328       5329       5340       5339  
      5208       5209       5220       5219       5329       5330       5341       5340  
      5209       5210       5221       5220       5330       5331       5342       5341  
      5210       5211       5222       5221       5331       5332       5343       5342  
      5211       5212       5223       5222       5332       5333       5344       5343  
      5212       5213       5224       5223       5333       5334       5345       5344  
      5213       5214       5225       5224       5334       5335       5346       5345  
      5215       5216       5227       5226       5336       5337       5348       5347  
      5216       5217       5228       5227       5337       5338       5349       5348  
      5217       5218       5229       5228       5338       5339       5350       5349  
      5218       5219       5230       5229       5339       5340       5351       5350  
      5219       5220       5231       5230       5340       5341       5352       5351  
      5220       5221       5232       5231       5341       5342       5353       5352  
      5221       5222       5233       5232       5342       5343       5354       5353  
      5222       5223       5234       5233       5343       5344       5355       5354  
      5223       5224       5235       5234       5344       5345       5356       5355  
      5224       5225       5236       5235       5345       5346       5357       5356  
      5226       5227       5238       5237       5347       5348       5359       5358  
      5227       5228       5239       5238       5348       5349       5360       5359  
      5228       5229       5240       5239       5349       5350       5361       5360  
      5229       5230       5241       5240       5350       5351       5362       5361  
      5230       5231       5242       5241       5351       5352       5363       5362  
      5231       5232       5243       5242       5352       5353       5364       5363  
      5232       5233       5244       5243       5353       5354       5365       5364  
      5233       5234       5245       5244       5354       5355       5366       5365  
      5234       5235       5246       5245       5355       5356       5367       5366  
      5235       5236       5247       5246       5356       5357       5368       5367  
      5237       5238       5249       5248       5358       5359       5370       5369  
      5238       5239       5250       5249       5359       5360       5371       5370  
      5239       5240       5251       5250       5360       5361       5372       5371  
      5240       5241       5252       5251       5361       5362       5373       5372  
      5241       5242       5253       5252       5362       5363       5374       5373  
      5242       5243       5254       5253       5363       5364       5375       5374  
      5243       5244       5255       5254       5364       5365       5376       5375  
      5244       5245       5256       5255       5365       5366       5377       5376  
      5245       5246       5257       5256       5366       5367       5378       5377  
      5246       5247       5258       5257       5367       5368       5379       5378  
      5248       5249       5260       5259       5369       5370       5381       5380  
      5249       5250       5261       5260       5370       5371       5382       5381  
      5250       5251       5262       5261       5371       5372       5383       5382  
      5251       5252       5263       5262       5372       5373       5384       5383  
      5252       5253       5264       5263       5373       5374       5385       5384  
      5253       5254       5265       5264       5374       5375       5386       5385  
      5254       5255       5266       5265       5375       5376       5387       5386  
      5255       5256       5267       5266       5376       5377       5388       5387  
      5256       5257       5268       5267       5377       5378       5389       5388  
      5257       5258       5269       5268       5378       5379       5390       5389  
      5259       5260       5271       5270       5380       5381       5392       5391  
      5260       5261       5272       5271       5381       5382       5393       5392  
      5261       5262       5273       5272       5382       5383       5394       5393  
      5262       5263       5274       5273       5383       5384       5395       5394  
      5263       5264       5275       5274       5384       5385       5396       5395  
      5264       5265       5276       5275       5385       5386       5397       5396  
      5265       5266       5277       5276       5386       5387       5398       5397  
      5266       5267       5278       5277       5387       5388       5399       5398  
      5267       5268       5279       5278       5388       5389       5400       5399  
      5268       5269       5280       5279       5389       5390       5401       5400  
      5270       5271       5282       5281       5391       5392       5403       5402  
      5271       5272       5283       5282       5392       5393       5404       5403  
      5272       5273       5284       5283       5393       5394       5405       5404  
      5273       5274       5285       5284       5394       5395       5406       5405  
      5274       5275       5286       5285       5395       5396       5407       5406  
      5275       5276       5287       5286       5396       5397       5408       5407  
      5276       5277       5288       5287       5397       5398       5409       5408  
      5277       5278       5289       5288       5398       5399       5410       5409  
      5278       5279       5290       5289       5399       5400       5411       5410  
      5279       5280       5291       5290       5400       5401       5412       5411  
      5281       5282       5293       5292       5402       5403       5414       5413  
      5282       5283       5294       5293       5403       5404       5415       5414  
      5283       5284       5295       5294       5404       5405       5416       5415  
      5284       5285       5296       5295       5405       5406       5417       5416  
      5285       5286       5297       5296       5406       5407       5418       5417  
      5286       5287       5298       5297       5407       5408       5419       5418  
      5287       5288       5299       5298       5408       5409       5420       5419  
      5288       5289       5300       5299       5409       5410       5421       5420  
      5289       5290       5301       5300       5410       5411       5422       5421  
      5290       5291       5302       5301       5411       5412       5423       5422  
      5292       5293       5304       5303       5413       5414       5425       5424  
      5293       5294       5305       5304       5414       5415       5426       5425  
      5294       5295       5306       5305       5415       5416       5427       5426  
      5295       5296       5307       5306       5416       5417       5428       5427  
      5296       5297       5308       5307       5417       5418       5429       5428  
      5297       5298       5309       5308       5418       5419       5430       5429  
      5298       5299       5310       5309       5419       5420       5431       5430  
      5299       5300       5311       5310       5420       5421       5432       5431  
      5300       5301       5312       5311       5421       5422       5433       5432  
      5301       5302       5313       5312       5422       5423       5434       5433  
      5303       5304       5315       5314       5424       5425       5436       5435  
      5304       5305       5316       5315       5425       5426       5437       5436  
      5305       5306       5317       5316       5426       5427       5438       5437  
      5306       5307       5318       5317       5427       5428       5439       5438  
      5307       5308       5319       5318       5428       5429       5440       5439  
      5308       5309       5320       5319       5429       5430       5441       5440  
      5309       5310       5321       5320       5430       5431       5442       5441  
      5310       5311       5322       5321       5431       5432       5443       5442  
      5311       5312       5323       5322       5432       5433       5444       5443  
      5312       5313       5324       5323       5433       5434       5445       5444  
      5325       5326       5337       5336       5446       5447       5458       5457  
      5326       5327       5338       5337       5447       5448       5459       5458  
      5327       5328       5339       5338       5448       5449       5460       5459  
      5328       5329       5340       5339       5449       5450       5461       5460  
      5329       5330       5341       5340       5450       5451       5462       5461  
      5330       5331       5342       5341       5451       5452       5463       5462  
      5331       5332       5343       5342       5452       5453       5464       5463  
      5332       5333       5344       5343       5453       5454       5465       5464  
      5333       5334       5345       5344       5454       5455       5466       5465  
      5334       5335       5346       5345       5455       5456       5467       5466  
      5336       5337       5348       5347       5457       5458       5469       5468  
      5337       5338       5349       5348       5458       5459       5470       5469  
      5338       5339       5350       5349       5459       5460       5471       5470  
      5339       5340       5351       5350       5460       5461       5472       5471  
      5340       5341       5352       5351       5461       5462       5473       5472  
      5341       5342       5353       5352       5462       5463       5474       5473  
      5342       5343       5354       5353       5463       5464       5475       5474  
      5343       5344       5355       5354       5464       5465       5476       5475  
      5344       5345       5356       5355       5465       5466       5477       5476  
      5345       5346       5357       5356       5466       5467       5478       5477  
      5347       5348       5359       5358       5468       5469       5480       5479  
      5348       5349       5360       5359       5469       5470       5481       5480  
      5349       5350       5361       5360       5470       5471       5482       5481  
      5350       5351       5362       5361       5471       5472       5483       5482  
      5351       5352       5363       5362       5472       5473       5484       5483  
      5352       5353       5364       5363       5473       5474       5485       5484  
      5353       5354       5365       5364       5474       5475       5486       5485  
      5354       5355       5366       5365       5475       5476       5487       5486  
      5355       5356       5367       5366       5476       5477       5488       5487  
      5356       5357       5368       5367       5477       5478       5489       5488  
      5358       5359       5370       5369       5479       5480       5491       5490  
      5359       5360       5371       5370       5480       5481       5492       5491  
      5360       5361       5372       5371       5481       5482       5493       5492  
      5361       5362       5373       5372       5482       5483       5494       5493  
      5362       5363       5374       5373       5483       5484       5495       5494  
      5363       5364       5375       5374       5484       5485       5496       5495  
      5364       5365       5376       5375       5485       5486       5497       5496  
      5365       5366       5377       5376       5486       5487       5498       5497  
      5366       5367       5378       5377       5487       5488       5499       5498  
      5367       5368       5379       5378       5488       5489       5500       5499  
      5369       5370       5381       5380       5490       5491       5502       5501  
      5370       5371       5382       5381       5491       5492       5503       5502  
      5371       5372       5383       5382       5492       5493       5504       5503  
      5372       5373       5384       5383       5493       5494       5505       5504  
      5373       5374       5385       5384       5494       5495       5506       5505  
      5374       5375       5386       5385       5495       5496       5507       5506  
      5375       5376       5387       5386       5496       5497       5508       5507  
      5376       5377       5388       5387       5497       5498       5509       5508  
      5377       5378       5389       5388       5498       5499       5510       5509  
      5378       5379       5390       5389       5499       5500       5511       5510  
      5380       5381       5392       5391       5501       5502       5513       5512  
      5381       5382       5393       5392       5502       5503       5514       5513  
      5382       5383       5394       5393       5503       5504       5515       5514  
      5383       5384       5395       5394       5504       5505       5516       5515  
      5384       5385       5396       5395       5505       5506       5517       5516  
      5385       5386       5397       5396       5506       5507       5518       5517  
      5386       5387       5398       5397       5507       5508       5519       5518  
      5387       5388       5399       5398       5508       5509       5520       5519  
      5388       5389       5400       5399       5509       5510       5521       5520  
      5389       5390       5401       5400       5510       5511       5522       5521  
      5391       5392       5403       5402       5512       5513       5524       5523  
      5392       5393       5404       5403       5513       5514       5525       5524  
      5393       5394       5405       5404       5514       5515       5526       5525  
      5394       5395       5406       5405       5515       5516       5527       5526  
      5395       5396       5407       5406       5516       5517       5528       5527  
      5396       5397       5408       5407       5517       5518       5529       5528  
      5397       5398       5409       5408       5518       5519       5530       5529  
      5398       5399       5410       5409       5519       5520       5531       5530  
      5399       5400       5411       5410       5520       5521       5532       5531  
      5400       5401       5412       5411       5521       5522       5533       5532  
      5402       5403       5414       5413       5523       5524       5535       5534  
      5403       5404       5415       5414       5524       5525       5536       5535  
      5404       5405       5416       5415       5525       5526       5537       5536  
      5405       5406       5417       5416       5526       5527       5538       5537  
      5406       5407       5418       5417       5527       5528       5539       5538  
      5407       5408       5419       5418       5528       5529       5540       5539  
      5408       5409       5420       5419       5529       5530       5541       5540  
      5409       5410       5421       5420       5530       5531       5542       5541  
      5410       5411       5422       5421       5531       5532       5543       5542  
      5411       5412       5423       5422       5532       5533       5544       5543  
      5413       5414       5425       5424       5534       5535       5546       5545  
      5414       5415       5426       5425       5535       5536       5547       5546  
      5415       5416       5427       5426       5536       5537       5548       5547  
      5416       5417       5428       5427       5537       5538       5549       5548  
      5417       5418       5429       5428       5538       5539       5550       5549  
      5418       5419       5430       5429       5539       5540       5551       5550  
      5419       5420       5431       5430       5540       5541       5552       5551  
      5420       5421       5432       5431       5541       5542       5553       5552  
      5421       5422       5433       5432       5542       5543       5554       5553  
      5422       5423       5434       5433       5543       5544       5555       5554  
      5424       5425       5436       5435       5545       5546       5557       5556  
      5425       5426       5437       5436       5546       5547       5558       5557  
      5426       5427       5438       5437       5547       5548       5559       5558  
      5427       5428       5439       5438       5548       5549       5560       5559  
      5428       5429       5440       5439       5549       5550       5561       5560  
      5429       5430       5441       5440       5550       5551       5562       5561  
      5430       5431       5442       5441       5551       5552       5563       5562  
      5431       5432       5443       5442       5552       5553       5564       5563  
      5432       5433       5444       5443       5553       5554       5565       5564  
      5433       5434       5445       5444       5554       5555       5566       5565  
      5446       5447       5458       5457       5567       5568       5579       5578  
      5447       5448       5459       5458       5568       5569       5580       5579  
      5448       5449       5460       5459       5569       5570       5581       5580  
      5449       5450       5461       5460       5570       5571       5582       5581  
      5450       5451       5462       5461       5571       5572       5583       5582  
      5451       5452       5463       5462       5572       5573       5584       5583  
      5452       5453       5464       5463       5573       5574       5585       5584  
      5453       5454       5465       5464       5574       5575       5586       5585  
      5454       5455       5466       5465       5575       5576       5587       5586  
      5455       5456       5467       5466       5576       5577       5588       5587  
      5457       5458       5469       5468       5578       5579       5590       5589  
      5458       5459       5470       5469       5579       5580       5591       5590  
      5459       5460       5471       5470       5580       5581       5592       5591  
      5460       5461       5472       5471       5581       5582       5593       5592  
      5461       5462       5473       5472       5582       5583       5594       5593  
      5462       5463       5474       5473       5583       5584       5595       5594  
      5463       5464       5475       5474       5584       5585       5596       5595  
      5464       5465       5476       5475       5585       5586       5597       5596  
      5465       5466       5477       5476       5586       5587       5598       5597  
      5466       5467       5478       5477       5587       5588       5599       5598  
      5468       5469       5480       5479       5589       5590       5601       5600  
      5469       5470       5481       5480       5590       5591       5602       5601  
      5470       5471       5482       5481       5591       5592       5603       5602  
      5471       5472       5483       5482       5592       5593       5604       5603  
      5472       5473       5484       5483       5593       5594       5605       5604  
      5473       5474       5485       5484       5594       5595       5606       5605  
      5474       5475       5486       5485       5595       5596       5607       5606  
      5475       5476       5487       5486       5596       5597       5608       5607  
      5476       5477       5488       5487       5597       5598       5609       5608  
      5477       5478       5489       5488       5598       5599       5610       5609  
      5479       5480       5491       5490       5600       5601       5612       5611  
      5480       5481       5492       5491       5601       5602       5613       5612  
      5481       5482       5493       5492       5602       5603       5614       5613  
      5482       5483       5494       5493       5603       5604       5615       5614  
      5483       5484       5495       5494       5604       5605       5616       5615  
      5484       5485       5496       5495       5605       5606       5617       5616  
      5485       5486       5497       5496       5606       5607       5618       5617  
      5486       5487       5498       5497       5607       5608       5619       5618  
      5487       5488       5499       5498       5608       5609       5620       5619  
      5488       5489       5500       5499       5609       5610       5621       5620  
      5490       5491       5502       5501       5611       5612       5623       5622  
      5491       5492       5503       5502       5612       5613       5624       5623  
      5492       5493       5504       5503       5613       5614       5625       5624  
      5493       5494       5505       5504       5614       5615       5626       5625  
      5494       5495       5506       5505       5615       5616       5627       5626  
      5495       5496       5507       5506       5616       5617       5628       5627  
      5496       5497       5508       5507       5617       5618       5629       5628  
      5497       5498       5509       5508       5618       5619       5630       5629  
      5498       5499       5510       5509       5619       5620       5631       5630  
      5499       5500       5511       5510       5620       5621       5632       5631  
      5501       5502       5513       5512       5622       5623       5634       5633  
      5502       5503       5514       5513       5623       5624       5635       5634  
      5503       5504       5515       5514       5624       5625       5636       5635  
      5504       5505       5516       5515       5625       5626       5637       5636  
      5505       5506       5517       5516       5626       5627       5638       5637  
      5506       5507       5518       5517       5627       5628       5639       5638  
      5507       5508       5519       5518       5628       5629       5640       5639  
      5508       5509       5520       5519       5629       5630       5641       5640  
      5509       5510       5521       5520       5630       5631       5642       5641  
      5510       5511       5522       5521       5631       5632       5643       5642  
      5512       5513       5524       5523       5633       5634       5645       5644  
      5513       5514       5525       5524       5634       5635       5646       5645  
      5514       5515       5526       5525       5635       5636       5647       5646  
      5515       5516       5527       5526       5636       5637       5648       5647  
      5516       5517       5528       5527       5637       5638       5649       5648  
      5517       5518       5529       5528       5638       5639       5650       5649  
      5518       5519       5530       5529       5639       5640       5651       5650  
      5519       5520       5531       5530       5640       5641       5652       5651  
      5520       5521       5532       5531       5641       5642       5653       5652  
      5521       5522       5533       5532       5642       5643       5654       5653  
      5523       5524       5535       5534       5644       5645       5656       5655  
      5524       5525       5536       5535       5645       5646       5657       5656  
      5525       5526       5537       5536       5646       5647       5658       5657  
      5526       5527       5538       5537       5647       5648       5659       5658  
      5527       5528       5539       5538       5648       5649       5660       5659  
      5528       5529       5540       5539       5649       5650       5661       5660  
      5529       5530       5541       5540       5650       5651       5662       5661  
      5530       5531       5542       5541       5651       5652       5663       5662  
      5531       5532       5543       5542       5652       5653       5664       5663  
      5532       5533       5544       5543       5653       5654       5665       5664  
      5534       5535       5546       5545       5655       5656       5667       5666  
      5535       5536       5547       5546       5656       5657       5668       5667  
      5536       5537       5548       5547       5657       5658       5669       5668  
      5537       5538       5549       5548       5658       5659       5670       5669  
      5538       5539       5550       5549       5659       5660       5671       5670  
      5539       5540       5551       5550       5660       5661       5672       5671  
      5540       5541       5552       5551       5661       5662       5673       5672  
      5541       5542       5553       5552       5662       5663       5674       5673  
      5542       5543       5554       5553       5663       5664       5675       5674  
      5543       5544       5555       5554       5664       5665       5676       5675  
      5545       5546       5557       5556       5666       5667       5678       5677  
      5546       5547       5558       5557       5667       5668       5679       5678  
      5547       5548       5559       5558       5668       5669       5680       5679  
      5548       5549       5560       5559       5669       5670       5681       5680  
      5549       5550       5561       5560       5670       5671       5682       5681  
      5550       5551       5562       5561       5671       5672       5683       5682  
      5551       5552       5563       5562       5672       5673       5684       5683  
      5552       5553       5564       5563       5673       5674       5685       5684  
      5553       5554       5565       5564       5674       5675       5686       5685  
      5554       5555       5566       5565       5675       5676       5687       5686  
      5567       5568       5579       5578       5688       5689       5700       5699  
      5568       5569       5580       5579       5689       5690       5701       5700  
      5569       5570       5581       5580       5690       5691       5702       5701  
      5570       5571       5582       5581       5691       5692       5703       5702  
      5571       5572       5583       5582       5692       5693       5704       5703  
      5572       5573       5584       5583       5693       5694       5705       5704  
      5573       5574       5585       5584       5694       5695       5706       5705  
      5574       5575       5586       5585       5695       5696       5707       5706  
      5575       5576       5587       5586       5696       5697       5708       5707  
      5576       5577       5588       5587       5697       5698       5709       5708  
      5578       5579       5590       5589       5699       5700       5711       5710  
      5579       5580       5591       5590       5700       5701       5712       5711  
      5580       5581       5592       5591       5701       5702       5713       5712  
      5581       5582       5593       5592       5702       5703       5714       5713  
      5582       5583       5594       5593       5703       5704       5715       5714  
      5583       5584       5595       5594       5704       5705       5716       5715  
      5584       5585       5596       5595       5705       5706       5717       5716  
      5585       5586       5597       5596       5706       5707       5718       5717  
      5586       5587       5598       5597       5707       5708       5719       5718  
      5587       5588       5599       5598       5708       5709       5720       5719  
      5589       5590       5601       5600       5710       5711       5722       5721  
      5590       5591       5602       5601       5711       5712       5723       5722  
      5591       5592       5603       5602       5712       5713       5724       5723  
      5592       5593       5604       5603       5713       5714       5725       5724  
      5593       5594       5605       5604       5714       5715       5726       5725  
      5594       5595       5606       5605       5715       5716       5727       5726  
      5595       5596       5607       5606       5716       5717       5728       5727  
      5596       5597       5608       5607       5717       5718       5729       5728  
      5597       5598       5609       5608       5718       5719       5730       5729  
      5598       5599       5610       5609       5719       5720       5731       5730  
      5600       5601       5612       5611       5721       5722       5733       5732  
      5601       5602       5613       5612       5722       5723       5734       5733  
      5602       5603       5614       5613       5723       5724       5735       5734  
      5603       5604       5615       5614       5724       5725       5736       5735  
      5604       5605       5616       5615       5725       5726       5737       5736  
      5605       5606       5617       5616       5726       5727       5738       5737  
      5606       5607       5618       5617       5727       5728       5739       5738  
      5607       5608       5619       5618       5728       5729       5740       5739  
      5608       5609       5620       5619       5729       5730       5741       5740  
      5609       5610       5621       5620       5730       5731       5742       5741  
      5611       5612       5623       5622       5732       5733       5744       5743  
      5612       5613       5624       5623       5733       5734       5745       5744  
      5613       5614       5625       5624       5734       5735       5746       5745  
      5614       5615       5626       5625       5735       5736       5747       5746  
      5615       5616       5627       5626       5736       5737       5748       5747  
      5616       5617       5628       5627       5737       5738       5749       5748  
      5617       5618       5629       5628       5738       5739       5750       5749  
      5618       5619       5630       5629       5739       5740       5751       5750  
      5619       5620       5631       5630       5740       5741       5752       5751  
      5620       5621       5632       5631       5741       5742       5753       5752  
      5622       5623       5634       5633       5743       5744       5755       5754  
      5623       5624       5635       5634       5744       5745       5756       5755  
      5624       5625       5636       5635       5745       5746       5757       5756  
      5625       5626       5637       5636       5746       5747       5758       5757  
      5626       5627       5638       5637       5747       5748       5759       5758  
      5627       5628       5639       5638       5748       5749       5760       5759  
      5628       5629       5640       5639       5749       5750       5761       5760  
      5629       5630       5641       5640       5750       5751       5762       5761  
      5630       5631       5642       5641       5751       5752       5763       5762  
      5631       5632       5643       5642       5752       5753       5764       5763  
      5633       5634       5645       5644       5754       5755       5766       5765  
      5634       5635       5646       5645       5755       5756       5767       5766  
      5635       5636       5647       5646       5756       5757       5768       5767  
      5636       5637       5648       5647       5757       5758       5769       5768  
      5637       5638       5649       5648       5758       5759       5770       5769  
      5638       5639       5650       5649       5759       5760       5771       5770  
      5639       5640       5651       5650       5760       5761       5772       5771  
      5640       5641       5652       5651       5761       5762       5773       5772  
      5641       5642       5653       5652       5762       5763       5774       5773  
      5642       5643       5654       5653       5763       5764       5775       5774  
      5644       5645       5656       5655       5765       5766       5777       5776  
      5645       5646       5657       5656       5766       5767       5778       5777  
      5646       5647       5658       5657       5767       5768       5779       5778  
      5647       5648       5659       5658       5768       5769       5780       5779  
      5648       5649       5660       5659       5769       5770       5781       5780  
      5649       5650       5661       5660       5770       5771       5782       5781  
      5650       5651       5662       5661       5771       5772       5783       5782  
      5651       5652       5663       5662       5772       5773       5784       5783  
      5652       5653       5664       5663       5773       5774       5785       5784  
      5653       5654       5665       5664       5774       5775       5786       5785  
      5655       5656       5667       5666       5776       5777       5788       5787  
      5656       5657       5668       5667       5777       5778       5789       5788  
      5657       5658       5669       5668       5778       5779       5790       5789  
      5658       5659       5670       5669       5779       5780       5791       5790  
      5659       5660       5671       5670       5780       5781       5792       5791  
      5660       5661       5672       5671       5781       5782       5793       5792  
      5661       5662       5673       5672       5782       5783       5794       5793  
      5662       5663       5674       5673       5783       5784       5795       5794  
      5663       5664       5675       5674       5784       5785       5796       5795  
      5664       5665       5676       5675       5785       5786       5797       5796  
      5666       5667       5678       5677       5787       5788       5799       5798  
      5667       5668       5679       5678       5788       5789       5800       5799  
      5668       5669       5680       5679       5789       5790       5801       5800  
      5669       5670       5681       5680       5790       5791       5802       5801  
      5670       5671       5682       5681       5791       5792       5803       5802  
      5671       5672       5683       5682       5792       5793       5804       5803  
      5672       5673       5684       5683       5793       5794       5805       5804  
      5673       5674       5685       5684       5794       5795       5806       5805  
      5674       5675       5686       5685       5795       5796       5807       5806  
      5675       5676       5687       5686       5796       5797       5808       5807  
      5688       5689       5700       5699       5809       5810       5821       5820  
      5689       5690       5701       5700       5810       5811       5822       5821  
      5690       5691       5702       5701       5811       5812       5823       5822  
      5691       5692       5703       5702       5812       5813       5824       5823  
      5692       5693       5704       5703       5813       5814       5825       5824  
      5693       5694       5705       5704       5814       5815       5826       5825  
      5694       5695       5706       5705       5815       5816       5827       5826  
      5695       5696       5707       5706       5816       5817       5828       5827  
      5696       5697       5708       5707       5817       5818       5829       5828  
      5697       5698       5709       5708       5818       5819       5830       5829  
      5699       5700       5711       5710       5820       5821       5832       5831  
      5700       5701       5712       5711       5821       5822       5833       5832  
      5701       5702       5713       5712       5822       5823       5834       5833  
      5702       5703       5714       5713       5823       5824       5835       5834  
      5703       5704       5715       5714       5824       5825       5836       5835  
      5704       5705       5716       5715       5825       5826       5837       5836  
      5705       5706       5717       5716       5826       5827       5838       5837  
      5706       5707       5718       5717       5827       5828       5839       5838  
      5707       5708       5719       5718       5828       5829       5840       5839  
      5708       5709       5720       5719       5829       5830       5841       5840  
      5710       5711       5722       5721       5831       5832       5843       5842  
      5711       5712       5723       5722       5832       5833       5844       5843  
      5712       5713       5724       5723       5833       5834       5845       5844  
      5713       5714       5725       5724       5834       5835       5846       5845  
      5714       5715       5726       5725       5835       5836       5847       5846  
      5715       5716       5727       5726       5836       5837       5848       5847  
      5716       5717       5728       5727       5837       5838       5849       5848  
      5717       5718       5729       5728       5838       5839       5850       5849  
      5718       5719       5730       5729       5839       5840       5851       5850  
      5719       5720       5731       5730       5840       5841       5852       5851  
      5721       5722       5733       5732       5842       5843       5854       5853  
      5722       5723       5734       5733       5843       5844       5855       5854  
      5723       5724       5735       5734       5844       5845       5856       5855  
      5724       5725       5736       5735       5845       5846       5857       5856  
      5725       5726       5737       5736       5846       5847       5858       5857  
      5726       5727       5738       5737       5847       5848       5859       5858  
      5727       5728       5739       5738       5848       5849       5860       5859  
      5728       5729       5740       5739       5849       5850       5861       5860  
      5729       5730       5741       5740       5850       5851       5862       5861  
      5730       5731       5742       5741       5851       5852       5863       5862  
      5732       5733       5744       5743       5853       5854       5865       5864  
      5733       5734       5745       5744       5854       5855       5866       5865  
      5734       5735       5746       5745       5855       5856       5867       5866  
      5735       5736       5747       5746       5856       5857       5868       5867  
      5736       5737       5748       5747       5857       5858       5869       5868  
      5737       5738       5749       5748       5858       5859       5870       5869  
      5738       5739       5750       5749       5859       5860       5871       5870  
      5739       5740       5751       5750       5860       5861       5872       5871  
      5740       5741       5752       5751       5861       5862       5873       5872  
      5741       5742       5753       5752       5862       5863       5874       5873  
      5743       5744       5755       5754       5864       5865       5876       5875  
      5744       5745       5756       5755       5865       5866       5877       5876  
      5745       5746       5757       5756       5866       5867       5878       5877  
      5746       5747       5758       5757       5867       5868       5879       5878  
      5747       5748       5759       5758       5868       5869       5880       5879  
      5748       5749       5760       5759       5869       5870       5881       5880  
      5749       5750       5761       5760       5870       5871       5882       5881  
      5750       5751       5762       5761       5871       5872       5883       5882  
      5751       5752       5763       5762       5872       5873       5884       5883  
      5752       5753       5764       5763       5873       5874       5885       5884  
      5754       5755       5766       5765       5875       5876       5887       5886  
      5755       5756       5767       5766       5876       5877       5888       5887  
      5756       5757       5768       5767       5877       5878       5889       5888  
      5757       5758       5769       5768       5878       5879       5890       5889  
      5758       5759       5770       5769       5879       5880       5891       5890  
      5759       5760       5771       5770       5880       5881       5892       5891  
      5760       5761       5772       5771       5881       5882       5893       5892  
      5761       5762       5773       5772       5882       5883       5894       5893  
      5762       5763       5774       5773       5883       5884       5895       5894  
      5763       5764       5775       5774       5884       5885       5896       5895  
      5765       5766       5777       5776       5886       5887       5898       5897  
      5766       5767       5778       5777       5887       5888       5899       5898  
      5767       5768       5779       5778       5888       5889       5900       5899  
      5768       5769       5780       5779       5889       5890       5901       5900  
      5769       5770       5781       5780       5890       5891       5902       5901  
      5770       5771       5782       5781       5891       5892       5903       5902  
      5771       5772       5783       5782       5892       5893       5904       5903  
      5772       5773       5784       5783       5893       5894       5905       5904  
      5773       5774       5785       5784       5894       5895       5906       5905  
      5774       5775       5786       5785       5895       5896       5907       5906  
      5776       5777       5788       5787       5897       5898       5909       5908  
      5777       5778       5789       5788       5898       5899       5910       5909  
      5778       5779       5790       5789       5899       5900       5911       5910  
      5779       5780       5791       5790       5900       5901       5912       5911  
      5780       5781       5792       5791       5901       5902       5913       5912  
      5781       5782       5793       5792       5902       5903       5914       5913  
      5782       5783       5794       5793       5903       5904       5915       5914  
      5783       5784       5795       5794       5904       5905       5916       5915  
      5784       5785       5796       5795       5905       5906       5917       5916  
      5785       5786       5797       5796       5906       5907       5918       5917  
      5787       5788       5799       5798       5908       5909       5920       5919  
      5788       5789       5800       5799       5909       5910       5921       5920  
      5789       5790       5801       5800       5910       5911       5922       5921  
      5790       5791       5802       5801       5911       5912       5923       5922  
      5791       5792       5803       5802       5912       5913       5924       5923  
      5792       5793       5804       5803       5913       5914       5925       5924  
      5793       5794       5805       5804       5914       5915       5926       5925  
      5794       5795       5806       5805       5915       5916       5927       5926  
      5795       5796       5807       5806       5916       5917       5928       5927  
      5796       5797       5808       5807       5917       5918       5929       5928  
      5809       5810       5821       5820       5930       5931       5942       5941  
      5810       5811       5822       5821       5931       5932       5943       5942  
      5811       5812       5823       5822       5932       5933       5944       5943  
      5812       5813       5824       5823       5933       5934       5945       5944  
      5813       5814       5825       5824       5934       5935       5946       5945  
      5814       5815       5826       5825       5935       5936       5947       5946  
      5815       5816       5827       5826       5936       5937       5948       5947  
      5816       5817       5828       5827       5937       5938       5949       5948  
      5817       5818       5829       5828       5938       5939       5950       5949  
      5818       5819       5830       5829       5939       5940       5951       5950  
      5820       5821       5832       5831       5941       5942       5953       5952  
      5821       5822       5833       5832       5942       5943       5954       5953  
      5822       5823       5834       5833       5943       5944       5955       5954  
      5823       5824       5835       5834       5944       5945       5956       5955  
      5824       5825       5836       5835       5945       5946       5957       5956  
      5825       5826       5837       5836       5946       5947       5958       5957  
      5826       5827       5838       5837       5947       5948       5959       5958  
      5827       5828       5839       5838       5948       5949       5960       5959  
      5828       5829       5840       5839       5949       5950       5961       5960  
      5829       5830       5841       5840       5950       5951       5962       5961  
      5831       5832       5843       5842       5952       5953       5964       5963  
      5832       5833       5844       5843       5953       5954       5965       5964  
      5833       5834       5845       5844       5954       5955       5966       5965  
      5834       5835       5846       5845       5955       5956       5967       5966  
      5835       5836       5847       5846       5956       5957       5968       5967  
      5836       5837       5848       5847       5957       5958       5969       5968  
      5837       5838       5849       5848       5958       5959       5970       5969  
      5838       5839       5850       5849       5959       5960       5971       5970  
      5839       5840       5851       5850       5960       5961       5972       5971  
      5840       5841       5852       5851       5961       5962       5973       5972  
      5842       5843       5854       5853       5963       5964       5975       5974  
      5843       5844       5855       5854       5964       5965       5976       5975  
      5844       5845       5856       5855       5965       5966       5977       5976  
      5845       5846       5857       5856       5966       5967       5978       5977  
      5846       5847       5858       5857       5967       5968       5979       5978  
      5847       5848       5859       5858       5968       5969       5980       5979  
      5848       5849       5860       5859       5969       5970       5981       5980  
      5849       5850       5861       5860       5970       5971       5982       5981  
      5850       5851       5862       5861       5971       5972       5983       5982  
      5851       5852       5863       5862       5972       5973       5984       5983  
      5853       5854       5865       5864       5974       5975       5986       5985  
      5854       5855       5866       5865       5975       5976       5987       5986  
      5855       5856       5867       5866       5976       5977       5988       5987  
      5856       5857       5868       5867       5977       5978       5989       5988  
      5857       5858       5869       5868       5978       5979       5990       5989  
      5858       5859       5870       5869       5979       5980       5991       5990  
      5859       5860       5871       5870       5980       5981       5992       5991  
      5860       5861       5872       5871       5981       5982       5993       5992  
      5861       5862       5873       5872       5982       5983       5994       5993  
      5862       5863       5874       5873       5983       5984       5995       5994  
      5864       5865       5876       5875       5985       5986       5997       5996  
      5865       5866       5877       5876       5986       5987       5998       5997  
      5866       5867       5878       5877       5987       5988       5999       5998  
      5867       5868       5879       5878       5988       5989       6000       5999  
      5868       5869       5880       5879       5989       5990       6001       6000  
      5869       5870       5881       5880       5990       5991       6002       6001  
      5870       5871       5882       5881       5991       5992       6003       6002  
      5871       5872       5883       5882       5992       5993       6004       6003  
      5872       5873       5884       5883       5993       5994       6005       6004  
      5873       5874       5885       5884       5994       5995       6006       6005  
      5875       5876       5887       5886       5996       5997       6008       6007  
      5876       5877       5888       5887       5997       5998       6009       6008  
      5877       5878       5889       5888       5998       5999       6010       6009  
      5878       5879       5890       5889       5999       6000       6011       6010  
      5879       5880       5891       5890       6000       6001       6012       6011  
      5880       5881       5892       5891       6001       6002       6013       6012  
      5881       5882       5893       5892       6002       6003       6014       6013  
      5882       5883       5894       5893       6003       6004       6015       6014  
      5883       5884       5895       5894       6004       6005       6016       6015  
      5884       5885       5896       5895       6005       6006       6017       6016  
      5886       5887       5898       5897       6007       6008       6019       6018  
      5887       5888       5899       5898       6008       6009       6020       6019  
      5888       5889       5900       5899       6009       6010       6021       6020  
      5889       5890       5901       5900       6010       6011       6022       6021  
      5890       5891       5902       5901       6011       6012       6023       6022  
      5891       5892       5903       5902       6012       6013       6024       6023  
      5892       5893       5904       5903       6013       6014       6025       6024  
      5893       5894       5905       5904       6014       6015       6026       6025  
      5894       5895       5906       5905       6015       6016       6027       6026  
      5895       5896       5907       5906       6016       6017       6028       6027  
      5897       5898       5909       5908       6018       6019       6030       6029  
      5898       5899       5910       5909       6019       6020       6031       6030  
      5899       5900       5911       5910       6020       6021       6032       6031  
      5900       5901       5912       5911       6021       6022       6033       6032  
      5901       5902       5913       5912       6022       6023       6034       6033  
      5902       5903       5914       5913       6023       6024       6035       6034  
      5903       5904       5915       5914       6024       6025       6036       6035  
      5904       5905       5916       5915       6025       6026       6037       6036  
      5905       5906       5917       5916       6026       6027       6038       6037  
      5906       5907       5918       5917       6027       6028       6039       6038  
      5908       5909       5920       5919       6029       6030       6041       6040  
      5909       5910       5921       5920       6030       6031       6042       6041  
      5910       5911       5922       5921       6031       6032       6043       6042  
      5911       5912       5923       5922       6032       6033       6044       6043  
      5912       5913       5924       5923       6033       6034       6045       6044  
      5913       5914       5925       5924       6034       6035       6046       6045  
      5914       5915       5926       5925       6035       6036       6047       6046  
      5915       5916       5927       5926       6036       6037       6048       6047  
      5916       5917       5928       5927       6037       6038       6049       6048  
      5917       5918       5929       5928       6038       6039       6050       6049  
      5930       5931       5942       5941       6051       6052       6063       6062  
      5931       5932       5943       5942       6052       6053       6064       6063  
      5932       5933       5944       5943       6053       6054       6065       6064  
      5933       5934       5945       5944       6054       6055       6066       6065  
      5934       5935       5946       5945       6055       6056       6067       6066  
      5935       5936       5947       5946       6056       6057       6068       6067  
      5936       5937       5948       5947       6057       6058       6069       6068  
      5937       5938       5949       5948       6058       6059       6070       6069  
      5938       5939       5950       5949       6059       6060       6071       6070  
      5939       5940       5951       5950       6060       6061       6072       6071  
      5941       5942       5953       5952       6062       6063       6074       6073  
      5942       5943       5954       5953       6063       6064       6075       6074  
      5943       5944       5955       5954       6064       6065       6076       6075  
      5944       5945       5956       5955       6065       6066       6077       6076  
      5945       5946       5957       5956       6066       6067       6078       6077  
      5946       5947       5958       5957       6067       6068       6079       6078  
      5947       5948       5959       5958       6068       6069       6080       6079  
      5948       5949       5960       5959       6069       6070       6081       6080  
      5949       5950       5961       5960       6070       6071       6082       6081  
      5950       5951       5962       5961       6071       6072       6083       6082  
      5952       5953       5964       5963       6073       6074       6085       6084  
      5953       5954       5965       5964       6074       6075       6086       6085  
      5954       5955       5966       5965       6075       6076       6087       6086  
      5955       5956       5967       5966       6076       6077       6088       6087  
      5956       5957       5968       5967       6077       6078       6089       6088  
      5957       5958       5969       5968       6078       6079       6090       6089  
      5958       5959       5970       5969       6079       6080       6091       6090  
      5959       5960       5971       5970       6080       6081       6092       6091  
      5960       5961       5972       5971       6081       6082       6093       6092  
      5961       5962       5973       5972       6082       6083       6094       6093  
      5963       5964       5975       5974       6084       6085       6096       6095  
      5964       5965       5976       5975       6085       6086       6097       6096  
      5965       5966       5977       5976       6086       6087       6098       6097  
      5966       5967       5978       5977       6087       6088       6099       6098  
      5967       5968       5979       5978       6088       6089       6100       6099  
      5968       5969       5980       5979       6089       6090       6101       6100  
      5969       5970       5981       5980       6090       6091       6102       6101  
      5970       5971       5982       5981       6091       6092       6103       6102  
      5971       5972       5983       5982       6092       6093       6104       6103  
      5972       5973       5984       5983       6093       6094       6105       6104  
      5974       5975       5986       5985       6095       6096       6107       6106  
      5975       5976       5987       5986       6096       6097       6108       6107  
      5976       5977       5988       5987       6097       6098       6109       6108  
      5977       5978       5989       5988       6098       6099       6110       6109  
      5978       5979       5990       5989       6099       6100       6111       6110  
      5979       5980       5991       5990       6100       6101       6112       6111  
      5980       5981       5992       5991       6101       6102       6113       6112  
      5981       5982       5993       5992       6102       6103       6114       6113  
      5982       5983       5994       5993       6103       6104       6115       6114  
      5983       5984       5995       5994       6104       6105       6116       6115  
      5985       5986       5997       5996       6106       6107       6118       6117  
      5986       5987       5998       5997       6107       6108       6119       6118  
      5987       5988       5999       5998       6108       6109       6120       6119  
      5988       5989       6000       5999       6109       6110       6121       6120  
      5989       5990       6001       6000       6110       6111       6122       6121  
      5990       5991       6002       6001       6111       6112       6123       6122  
      5991       5992       6003       6002       6112       6113       6124       6123  
      5992       5993       6004       6003       6113       6114       6125       6124  
      5993       5994       6005       6004       6114       6115       6126       6125  
      5994       5995       6006       6005       6115       6116       6127       6126  
      5996       5997       6008       6007       6117       6118       6129       6128  
      5997       5998       6009       6008       6118       6119       6130       6129  
      5998       5999       6010       6009       6119       6120       6131       6130  
      5999       6000       6011       6010       6120       6121       6132       6131  
      6000       6001       6012       6011       6121       6122       6133       6132  
      6001       6002       6013       6012       6122       6123       6134       6133  
      6002       6003       6014       6013       6123       6124       6135       6134  
      6003       6004       6015       6014       6124       6125       6136       6135  
      6004       6005       6016       6015       6125       6126       6137       6136  
      6005       6006       6017       6016       6126       6127       6138       6137  
      6007       6008       6019       6018       6128       6129       6140       6139  
      6008       6009       6020       6019       6129       6130       6141       6140  
      6009       6010       6021       6020       6130       6131       6142       6141  
      6010       6011       6022       6021       6131       6132       6143       6142  
      6011       6012       6023       6022       6132       6133       6144       6143  
      6012       6013       6024       6023       6133       6134       6145       6144  
      6013       6014       6025       6024       6134       6135       6146       6145  
      6014       6015       6026       6025       6135       6136       6147       6146  
      6015       6016       6027       6026       6136       6137       6148       6147  
      6016       6017       6028       6027       6137       6138       6149       6148  
      6018       6019       6030       6029       6139       6140       6151       6150  
      6019       6020       6031       6030       6140       6141       6152       6151  
      6020       6021       6032       6031       6141       6142       6153       6152  
      6021       6022       6033       6032       6142       6143       6154       6153  
      6022       6023       6034       6033       6143       6144       6155       6154  
      6023       6024       6035       6034       6144       6145       6156       6155  
      6024       6025       6036       6035       6145       6146       6157       6156  
      6025       6026       6037       6036       6146       6147       6158       6157  
      6026       6027       6038       6037       6147       6148       6159       6158  
      6027       6028       6039       6038       6148       6149       6160       6159  
      6029       6030       6041       6040       6150       6151       6162       6161  
      6030       6031       6042       6041       6151       6152       6163       6162  
      6031       6032       6043       6042       6152       6153       6164       6163  
      6032       6033       6044       6043       6153       6154       6165       6164  
      6033       6034       6045       6044       6154       6155       6166       6165  
      6034       6035       6046       6045       6155       6156       6167       6166  
      6035       6036       6047       6046       6156       6157       6168       6167  
      6036       6037       6048       6047       6157       6158       6169       6168  
      6037       6038       6049       6048       6158       6159       6170       6169  
      6038       6039       6050       6049       6159       6160       6171       6170  
      6051       6052       6063       6062       6172       6173       6184       6183  
      6052       6053       6064       6063       6173       6174       6185       6184  
      6053       6054       6065       6064       6174       6175       6186       6185  
      6054       6055       6066       6065       6175       6176       6187       6186  
      6055       6056       6067       6066       6176       6177       6188       6187  
      6056       6057       6068       6067       6177       6178       6189       6188  
      6057       6058       6069       6068       6178       6179       6190       6189  
      6058       6059       6070       6069       6179       6180       6191       6190  
      6059       6060       6071       6070       6180       6181       6192       6191  
      6060       6061       6072       6071       6181       6182       6193       6192  
      6062       6063       6074       6073       6183       6184       6195       6194  
      6063       6064       6075       6074       6184       6185       6196       6195  
      6064       6065       6076       6075       6185       6186       6197       6196  
      6065       6066       6077       6076       6186       6187       6198       6197  
      6066       6067       6078       6077       6187       6188       6199       6198  
      6067       6068       6079       6078       6188       6189       6200       6199  
      6068       6069       6080       6079       6189       6190       6201       6200  
      6069       6070       6081       6080       6190       6191       6202       6201  
      6070       6071       6082       6081       6191       6192       6203       6202  
      6071       6072       6083       6082       6192       6193       6204       6203  
      6073       6074       6085       6084       6194       6195       6206       6205  
      6074       6075       6086       6085       6195       6196       6207       6206  
      6075       6076       6087       6086       6196       6197       6208       6207  
      6076       6077       6088       6087       6197       6198       6209       6208  
      6077       6078       6089       6088       6198       6199       6210       6209  
      6078       6079       6090       6089       6199       6200       6211       6210  
      6079       6080       6091       6090       6200       6201       6212       6211  
      6080       6081       6092       6091       6201       6202       6213       6212  
      6081       6082       6093       6092       6202       6203       6214       6213  
      6082       6083       6094       6093       6203       6204       6215       6214  
      6084       6085       6096       6095       6205       6206       6217       6216  
      6085       6086       6097       6096       6206       6207       6218       6217  
      6086       6087       6098       6097       6207       6208       6219       6218  
      6087       6088       6099       6098       6208       6209       6220       6219  
      6088       6089       6100       6099       6209       6210       6221       6220  
      6089       6090       6101       6100       6210       6211       6222       6221  
      6090       6091       6102       6101       6211       6212       6223       6222  
      6091       6092       6103       6102       6212       6213       6224       6223  
      6092       6093       6104       6103       6213       6214       6225       6224  
      6093       6094       6105       6104       6214       6215       6226       6225  
      6095       6096       6107       6106       6216       6217       6228       6227  
      6096       6097       6108       6107       6217       6218       6229       6228  
      6097       6098       6109       6108       6218       6219       6230       6229  
      6098       6099       6110       6109       6219       6220       6231       6230  
      6099       6100       6111       6110       6220       6221       6232       6231  
      6100       6101       6112       6111       6221       6222       6233       6232  
      6101       6102       6113       6112       6222       6223       6234       6233  
      6102       6103       6114       6113       6223       6224       6235       6234  
      6103       6104       6115       6114       6224       6225       6236       6235  
      6104       6105       6116       6115       6225       6226       6237       6236  
      6106       6107       6118       6117       6227       6228       6239       6238  
      6107       6108       6119       6118       6228       6229       6240       6239  
      6108       6109       6120       6119       6229       6230       6241       6240  
      6109       6110       6121       6120       6230       6231       6242       6241  
      6110       6111       6122       6121       6231       6232       6243       6242  
      6111       6112       6123       6122       6232       6233       6244       6243  
      6112       6113       6124       6123       6233       6234       6245       6244  
      6113       6114       6125       6124       6234       6235       6246       6245  
      6114       6115       6126       6125       6235       6236       6247       6246  
      6115       6116       6127       6126       6236       6237       6248       6247  
      6117       6118       6129       6128       6238       6239       6250       6249  
      6118       6119       6130       6129       6239       6240       6251       6250  
      6119       6120       6131       6130       6240       6241       6252       6251  
      6120       6121       6132       6131       6241       6242       6253       6252  
      6121       6122       6133       6132       6242       6243       6254       6253  
      6122       6123       6134       6133       6243       6244       6255       6254  
      6123       6124       6135       6134       6244       6245       6256       6255  
      6124       6125       6136       6135       6245       6246       6257       6256  
      6125       6126       6137       6136       6246       6247       6258       6257  
      6126       6127       6138       6137       6247       6248       6259       6258  
      6128       6129       6140       6139       6249       6250       6261       6260  
      6129       6130       6141       6140       6250       6251       6262       6261  
      6130       6131       6142       6141       6251       6252       6263       6262  
      6131       6132       6143       6142       6252       6253       6264       6263  
      6132       6133       6144       6143       6253       6254       6265       6264  
      6133       6134       6145       6144       6254       6255       6266       6265  
      6134       6135       6146       6145       6255       6256       6267       6266  
      6135       6136       6147       6146       6256       6257       6268       6267  
      6136       6137       6148       6147       6257       6258       6269       6268  
      6137       6138       6149       6148       6258       6259       6270       6269  
      6139       6140       6151       6150       6260       6261       6272       6271  
      6140       6141       6152       6151       6261       6262       6273       6272  
      6141       6142       6153       6152       6262       6263       6274       6273  
      6142       6143       6154       6153       6263       6264       6275       6274  
      6143       6144       6155       6154       6264       6265       6276       6275  
      6144       6145       6156       6155       6265       6266       6277       6276  
      6145       6146       6157       6156       6266       6267       6278       6277  
      6146       6147       6158       6157       6267       6268       6279       6278  
      6147       6148       6159       6158       6268       6269       6280       6279  
      6148       6149       6160       6159       6269       6270       6281       6280  
      6150       6151       6162       6161       6271       6272       6283       6282  
      6151       6152       6163       6162       6272       6273       6284       6283  
      6152       6153       6164       6163       6273       6274       6285       6284  
      6153       6154       6165       6164       6274       6275       6286       6285  
      6154       6155       6166       6165       6275       6276       6287       6286  
      6155       6156       6167       6166       6276       6277       6288       6287  
      6156       6157       6168       6167       6277       6278       6289       6288  
      6157       6158       6169       6168       6278       6279       6290       6289  
      6158       6159       6170       6169       6279       6280       6291       6290  
      6159       6160       6171       6170       6280       6281       6292       6291  
      6172       6173       6184       6183       6293       6294       6305       6304  
      6173       6174       6185       6184       6294       6295       6306       6305  
      6174       6175       6186       6185       6295       6296       6307       6306  
      6175       6176       6187       6186       6296       6297       6308       6307  
      6176       6177       6188       6187       6297       6298       6309       6308  
      6177       6178       6189       6188       6298       6299       6310       6309  
      6178       6179       6190       6189       6299       6300       6311       6310  
      6179       6180       6191       6190       6300       6301       6312       6311  
      6180       6181       6192       6191       6301       6302       6313       6312  
      6181       6182       6193       6192       6302       6303       6314       6313  
      6183       6184       6195       6194       6304       6305       6316       6315  
      6184       6185       6196       6195       6305       6306       6317       6316  
      6185       6186       6197       6196       6306       6307       6318       6317  
      6186       6187       6198       6197       6307       6308       6319       6318  
      6187       6188       6199       6198       6308       6309       6320       6319  
      6188       6189       6200       6199       6309       6310       6321       6320  
      6189       6190       6201       6200       6310       6311       6322       6321  
      6190       6191       6202       6201       6311       6312       6323       6322  
      6191       6192       6203       6202       6312       6313       6324       6323  
      6192       6193       6204       6203       6313       6314       6325       6324  
      6194       6195       6206       6205       6315       6316       6327       6326  
      6195       6196       6207       6206       6316       6317       6328       6327  
      6196       6197       6208       6207       6317       6318       6329       6328  
      6197       6198       6209       6208       6318       6319       6330       6329  
      6198       6199       6210       6209       6319       6320       6331       6330  
      6199       6200       6211       6210       6320       6321       6332       6331  
      6200       6201       6212       6211       6321       6322       6333       6332  
      6201       6202       6213       6212       6322       6323       6334       6333  
      6202       6203       6214       6213       6323       6324       6335       6334  
      6203       6204       6215       6214       6324       6325       6336       6335  
      6205       6206       6217       6216       6326       6327       6338       6337  
      6206       6207       6218       6217       6327       6328       6339       6338  
      6207       6208       6219       6218       6328       6329       6340       6339  
      6208       6209       6220       6219       6329       6330       6341       6340  
      6209       6210       6221       6220       6330       6331       6342       6341  
      6210       6211       6222       6221       6331       6332       6343       6342  
      6211       6212       6223       6222       6332       6333       6344       6343  
      6212       6213       6224       6223       6333       6334       6345       6344  
      6213       6214       6225       6224       6334       6335       6346       6345  
      6214       6215       6226       6225       6335       6336       6347       6346  
      6216       6217       6228       6227       6337       6338       6349       6348  
      6217       6218       6229       6228       6338       6339       6350       6349  
      6218       6219       6230       6229       6339       6340       6351       6350  
      6219       6220       6231       6230       6340       6341       6352       6351  
      6220       6221       6232       6231       6341       6342       6353       6352  
      6221       6222       6233       6232       6342       6343       6354       6353  
      6222       6223       6234       6233       6343       6344       6355       6354  
      6223       6224       6235       6234       6344       6345       6356       6355  
      6224       6225       6236       6235       6345       6346       6357       6356  
      6225       6226       6237       6236       6346       6347       6358       6357  
      6227       6228       6239       6238       6348       6349       6360       6359  
      6228       6229       6240       6239       6349       6350       6361       6360  
      6229       6230       6241       6240       6350       6351       6362       6361  
      6230       6231       6242       6241       6351       6352       6363       6362  
      6231       6232       6243       6242       6352       6353       6364       6363  
      6232       6233       6244       6243       6353       6354       6365       6364  
      6233       6234       6245       6244       6354       6355       6366       6365  
      6234       6235       6246       6245       6355       6356       6367       6366  
      6235       6236       6247       6246       6356       6357       6368       6367  
      6236       6237       6248       6247       6357       6358       6369       6368  
      6238       6239       6250       6249       6359       6360       6371       6370  
      6239       6240       6251       6250       6360       6361       6372       6371  
      6240       6241       6252       6251       6361       6362       6373       6372  
      6241       6242       6253       6252       6362       6363       6374       6373  
      6242       6243       6254       6253       6363       6364       6375       6374  
      6243       6244       6255       6254       6364       6365       6376       6375  
      6244       6245       6256       6255       6365       6366       6377       6376  
      6245       6246       6257       6256       6366       6367       6378       6377  
      6246       6247       6258       6257       6367       6368       6379       6378  
      6247       6248       6259       6258       6368       6369       6380       6379  
      6249       6250       6261       6260       6370       6371       6382       6381  
      6250       6251       6262       6261       6371       6372       6383       6382  
      6251       6252       6263       6262       6372       6373       6384       6383  
      6252       6253       6264       6263       6373       6374       6385       6384  
      6253       6254       6265       6264       6374       6375       6386       6385  
      6254       6255       6266       6265       6375       6376       6387       6386  
      6255       6256       6267       6266       6376       6377       6388       6387  
      6256       6257       6268       6267       6377       6378       6389       6388  
      6257       6258       6269       6268       6378       6379       6390       6389  
      6258       6259       6270       6269       6379       6380       6391       6390  
      6260       6261       6272       6271       6381       6382       6393       6392  
      6261       6262       6273       6272       6382       6383       6394       6393  
      6262       6263       6274       6273       6383       6384       6395       6394  
      6263       6264       6275       6274       6384       6385       6396       6395  
      6264       6265       6276       6275       6385       6386       6397       6396  
      6265       6266       6277       6276       6386       6387       6398       6397  
      6266       6267       6278       6277       6387       6388       6399       6398  
      6267       6268       6279       6278       6388       6389       6400       6399  
      6268       6269       6280       6279       6389       6390       6401       6400  
      6269       6270       6281       6280       6390       6391       6402       6401  
      6271       6272       6283       6282       6392       6393       6404       6403  
      6272       6273       6284       6283       6393       6394       6405       6404  
      6273       6274       6285       6284       6394       6395       6406       6405  
      6274       6275       6286       6285       6395       6396       6407       6406  
      6275       6276       6287       6286       6396       6397       6408       6407  
      6276       6277       6288       6287       6397       6398       6409       6408  
      6277       6278       6289       6288       6398       6399       6410       6409  
      6278       6279       6290       6289       6399       6400       6411       6410  
      6279       6280       6291       6290       6400       6401       6412       6411  
      6280       6281       6292       6291       6401       6402       6413       6412  
      6293       6294       6305       6304       6414       6415       6426       6425  
      6294       6295       6306       6305       6415       6416       6427       6426  
      6295       6296       6307       6306       6416       6417       6428       6427  
      6296       6297       6308       6307       6417       6418       6429       6428  
      6297       6298       6309       6308       6418       6419       6430       6429  
      6298       6299       6310       6309       6419       6420       6431       6430  
      6299       6300       6311       6310       6420       6421       6432       6431  
      6300       6301       6312       6311       6421       6422       6433       6432  
      6301       6302       6313       6312       6422       6423       6434       6433  
      6302       6303       6314       6313       6423       6424       6435       6434  
      6304       6305       6316       6315       6425       6426       6437       6436  
      6305       6306       6317       6316       6426       6427       6438       6437  
      6306       6307       6318       6317       6427       6428       6439       6438  
      6307       6308       6319       6318       6428       6429       6440       6439  
      6308       6309       6320       6319       6429       6430       6441       6440  
      6309       6310       6321       6320       6430       6431       6442       6441  
      6310       6311       6322       6321       6431       6432       6443       6442  
      6311       6312       6323       6322       6432       6433       6444       6443  
      6312       6313       6324       6323       6433       6434       6445       6444  
      6313       6314       6325       6324       6434       6435       6446       6445  
      6315       6316       6327       6326       6436       6437       6448       6447  
      6316       6317       6328       6327       6437       6438       6449       6448  
      6317       6318       6329       6328       6438       6439       6450       6449  
      6318       6319       6330       6329       6439       6440       6451       6450  
      6319       6320       6331       6330       6440       6441       6452       6451  
      6320       6321       6332       6331       6441       6442       6453       6452  
      6321       6322       6333       6332       6442       6443       6454       6453  
      6322       6323       6334       6333       6443       6444       6455       6454  
      6323       6324       6335       6334       6444       6445       6456       6455  
      6324       6325       6336       6335       6445       6446       6457       6456  
      6326       6327       6338       6337       6447       6448       6459       6458  
      6327       6328       6339       6338       6448       6449       6460       6459  
      6328       6329       6340       6339       6449       6450       6461       6460  
      6329       6330       6341       6340       6450       6451       6462       6461  
      6330       6331       6342       6341       6451       6452       6463       6462  
      6331       6332       6343       6342       6452       6453       6464       6463  
      6332       6333       6344       6343       6453       6454       6465       6464  
      6333       6334       6345       6344       6454       6455       6466       6465  
      6334       6335       6346       6345       6455       6456       6467       6466  
      6335       6336       6347       6346       6456       6457       6468       6467  
      6337       6338       6349       6348       6458       6459       6470       6469  
      6338       6339       6350       6349       6459       6460       6471       6470  
      6339       6340       6351       6350       6460       6461       6472       6471  
      6340       6341       6352       6351       6461       6462       6473       6472  
      6341       6342       6353       6352       6462       6463       6474       6473  
      6342       6343       6354       6353       6463       6464       6475       6474  
      6343       6344       6355       6354       6464       6465       6476       6475  
      6344       6345       6356       6355       6465       6466       6477       6476  
      6345       6346       6357       6356       6466       6467       6478       6477  
      6346       6347       6358       6357       6467       6468       6479       6478  
      6348       6349       6360       6359       6469       6470       6481       6480  
      6349       6350       6361       6360       6470       6471       6482       6481  
      6350       6351       6362       6361       6471       6472       6483       6482  
      6351       6352       6363       6362       6472       6473       6484       6483  
      6352       6353       6364       6363       6473       6474       6485       6484  
      6353       6354       6365       6364       6474       6475       6486       6485  
      6354       6355       6366       6365       6475       6476       6487       6486  
      6355       6356       6367       6366       6476       6477       6488       6487  
      6356       6357       6368       6367       6477       6478       6489       6488  
      6357       6358       6369       6368       6478       6479       6490       6489  
      6359       6360       6371       6370       6480       6481       6492       6491  
      6360       6361       6372       6371       6481       6482       6493       6492  
      6361       6362       6373       6372       6482       6483       6494       6493  
      6362       6363       6374       6373       6483       6484       6495       6494  
      6363       6364       6375       6374       6484       6485       6496       6495  
      6364       6365       6376       6375       6485       6486       6497       6496  
      6365       6366       6377       6376       6486       6487       6498       6497  
      6366       6367       6378       6377       6487       6488       6499       6498  
      6367       6368       6379       6378       6488       6489       6500       6499  
      6368       6369       6380       6379       6489       6490       6501       6500  
      6370       6371       6382       6381       6491       6492       6503       6502  
      6371       6372       6383       6382       6492       6493       6504       6503  
      6372       6373       6384       6383       6493       6494       6505       6504  
      6373       6374       6385       6384       6494       6495       6506       6505  
      6374       6375       6386       6385       6495       6496       6507       6506  
      6375       6376       6387       6386       6496       6497       6508       6507  
      6376       6377       6388       6387       6497       6498       6509       6508  
      6377       6378       6389       6388       6498       6499       6510       6509  
      6378       6379       6390       6389       6499       6500       6511       6510  
      6379       6380       6391       6390       6500       6501       6512       6511  
      6381       6382       6393       6392       6502       6503       6514       6513  
      6382       6383       6394       6393       6503       6504       6515       6514  
      6383       6384       6395       6394       6504       6505       6516       6515  
      6384       6385       6396       6395       6505       6506       6517       6516  
      6385       6386       6397       6396       6506       6507       6518       6517  
      6386       6387       6398       6397       6507       6508       6519       6518  
      6387       6388       6399       6398       6508       6509       6520       6519  
      6388       6389       6400       6399       6509       6510       6521       6520  
      6389       6390       6401       6400       6510       6511       6522       6521  
      6390       6391       6402       6401       6511       6512       6523       6522  
      6392       6393       6404       6403       6513       6514       6525       6524  
      6393       6394       6405       6404       6514       6515       6526       6525  
      6394       6395       6406       6405       6515       6516       6527       6526  
      6395       6396       6407       6406       6516       6517       6528       6527  
      6396       6397       6408       6407       6517       6518       6529       6528  
      6397       6398       6409       6408       6518       6519       6530       6529  
      6398       6399       6410       6409       6519       6520       6531       6530  
      6399       6400       6411       6410       6520       6521       6532       6531  
      6400       6401       6412       6411       6521       6522       6533       6532  
      6401       6402       6413       6412       6522       6523       6534       6533  
      6414       6415       6426       6425       6535       6536       6547       6546  
      6415       6416       6427       6426       6536       6537       6548       6547  
      6416       6417       6428       6427       6537       6538       6549       6548  
      6417       6418       6429       6428       6538       6539       6550       6549  
      6418       6419       6430       6429       6539       6540       6551       6550  
      6419       6420       6431       6430       6540       6541       6552       6551  
      6420       6421       6432       6431       6541       6542       6553       6552  
      6421       6422       6433       6432       6542       6543       6554       6553  
      6422       6423       6434       6433       6543       6544       6555       6554  
      6423       6424       6435       6434       6544       6545       6556       6555  
      6425       6426       6437       6436       6546       6547       6558       6557  
      6426       6427       6438       6437       6547       6548       6559       6558  
      6427       6428       6439       6438       6548       6549       6560       6559  
      6428       6429       6440       6439       6549       6550       6561       6560  
      6429       6430       6441       6440       6550       6551       6562       6561  
      6430       6431       6442       6441       6551       6552       6563       6562  
      6431       6432       6443       6442       6552       6553       6564       6563  
      6432       6433       6444       6443       6553       6554       6565       6564  
      6433       6434       6445       6444       6554       6555       6566       6565  
      6434       6435       6446       6445       6555       6556       6567       6566  
      6436       6437       6448       6447       6557       6558       6569       6568  
      6437       6438       6449       6448       6558       6559       6570       6569  
      6438       6439       6450       6449       6559       6560       6571       6570  
      6439       6440       6451       6450       6560       6561       6572       6571  
      6440       6441       6452       6451       6561       6562       6573       6572  
      6441       6442       6453       6452       6562       6563       6574       6573  
      6442       6443       6454       6453       6563       6564       6575       6574  
      6443       6444       6455       6454       6564       6565       6576       6575  
      6444       6445       6456       6455       6565       6566       6577       6576  
      6445       6446       6457       6456       6566       6567       6578       6577  
      6447       6448       6459       6458       6568       6569       6580       6579  
      6448       6449       6460       6459       6569       6570       6581       6580  
      6449       6450       6461       6460       6570       6571       6582       6581  
      6450       6451       6462       6461       6571       6572       6583       6582  
      6451       6452       6463       6462       6572       6573       6584       6583  
      6452       6453       6464       6463       6573       6574       6585       6584  
      6453       6454       6465       6464       6574       6575       6586       6585  
      6454       6455       6466       6465       6575       6576       6587       6586  
      6455       6456       6467       6466       6576       6577       6588       6587  
      6456       6457       6468       6467       6577       6578       6589       6588  
      6458       6459       6470       6469       6579       6580       6591       6590  
      6459       6460       6471       6470       6580       6581       6592       6591  
      6460       6461       6472       6471       6581       6582       6593       6592  
      6461       6462       6473       6472       6582       6583       6594       6593  
      6462       6463       6474       6473       6583       6584       6595       6594  
      6463       6464       6475       6474       6584       6585       6596       6595  
      6464       6465       6476       6475       6585       6586       6597       6596  
      6465       6466       6477       6476       6586       6587       6598       6597  
      6466       6467       6478       6477       6587       6588       6599       6598  
      6467       6468       6479       6478       6588       6589       6600       6599  
      6469       6470       6481       6480       6590       6591       6602       6601  
      6470       6471       6482       6481       6591       6592       6603       6602  
      6471       6472       6483       6482       6592       6593       6604       6603  
      6472       6473       6484       6483       6593       6594       6605       6604  
      6473       6474       6485       6484       6594       6595       6606       6605  
      6474       6475       6486       6485       6595       6596       6607       6606  
      6475       6476       6487       6486       6596       6597       6608       6607  
      6476       6477       6488       6487       6597       6598       6609       6608  
      6477       6478       6489       6488       6598       6599       6610       6609  
      6478       6479       6490       6489       6599       6600       6611       6610  
      6480       6481       6492       6491       6601       6602       6613       6612  
      6481       6482       6493       6492       6602       6603       6614       6613  
      6482       6483       6494       6493       6603       6604       6615       6614  
      6483       6484       6495       6494       6604       6605       6616       6615  
      6484       6485       6496       6495       6605       6606       6617       6616  
      6485       6486       6497       6496       6606       6607       6618       6617  
      6486       6487       6498       6497       6607       6608       6619       6618  
      6487       6488       6499       6498       6608       6609       6620       6619  
      6488       6489       6500       6499       6609       6610       6621       6620  
      6489       6490       6501       6500       6610       6611       6622       6621  
      6491       6492       6503       6502       6612       6613       6624       6623  
      6492       6493       6504       6503       6613       6614       6625       6624  
      6493       6494       6505       6504       6614       6615       6626       6625  
      6494       6495       6506       6505       6615       6616       6627       6626  
      6495       6496       6507       6506       6616       6617       6628       6627  
      6496       6497       6508       6507       6617       6618       6629       6628  
      6497       6498       6509       6508       6618       6619       6630       6629  
      6498       6499       6510       6509       6619       6620       6631       6630  
      6499       6500       6511       6510       6620       6621       6632       6631  
      6500       6501       6512       6511       6621       6622       6633       6632  
      6502       6503       6514       6513       6623       6624       6635       6634  
      6503       6504       6515       6514       6624       6625       6636       6635  
      6504       6505       6516       6515       6625       6626       6637       6636  
      6505       6506       6517       6516       6626       6627       6638       6637  
      6506       6507       6518       6517       6627       6628       6639       6638  
      6507       6508       6519       6518       6628       6629       6640       6639  
      6508       6509       6520       6519       6629       6630       6641       6640  
      6509       6510       6521       6520       6630       6631       6642       6641  
      6510       6511       6522       6521       6631       6632       6643       6642  
      6511       6512       6523       6522       6632       6633       6644       6643  
      6513       6514       6525       6524       6634       6635       6646       6645  
      6514       6515       6526       6525       6635       6636       6647       6646  
      6515       6516       6527       6526       6636       6637       6648       6647  
      6516       6517       6528       6527       6637       6638       6649       6648  
      6517       6518       6529       6528       6638       6639       6650       6649  
      6518       6519       6530       6529       6639       6640       6651       6650  
      6519       6520       6531       6530       6640       6641       6652       6651  
      6520       6521       6532       6531       6641       6642       6653       6652  
      6521       6522       6533       6532       6642       6643       6654       6653  
      6522       6523       6534       6533       6643       6644       6655       6654  
      6535       6536       6547       6546       6656       6657       6668       6667  
      6536       6537       6548       6547       6657       6658       6669       6668  
      6537       6538       6549       6548       6658       6659       6670       6669  
      6538       6539       6550       6549       6659       6660       6671       6670  
      6539       6540       6551       6550       6660       6661       6672       6671  
      6540       6541       6552       6551       6661       6662       6673       6672  
      6541       6542       6553       6552       6662       6663       6674       6673  
      6542       6543       6554       6553       6663       6664       6675       6674  
      6543       6544       6555       6554       6664       6665       6676       6675  
      6544       6545       6556       6555       6665       6666       6677       6676  
      6546       6547       6558       6557       6667       6668       6679       6678  
      6547       6548       6559       6558       6668       6669       6680       6679  
      6548       6549       6560       6559       6669       6670       6681       6680  
      6549       6550       6561       6560       6670       6671       6682       6681  
      6550       6551       6562       6561       6671       6672       6683       6682  
      6551       6552       6563       6562       6672       6673       6684       6683  
      6552       6553       6564       6563       6673       6674       6685       6684  
      6553       6554       6565       6564       6674       6675       6686       6685  
      6554       6555       6566       6565       6675       6676       6687       6686  
      6555       6556       6567       6566       6676       6677       6688       6687  
      6557       6558       6569       6568       6678       6679       6690       6689  
      6558       6559       6570       6569       6679       6680       6691       6690  
      6559       6560       6571       6570       6680       6681       6692       6691  
      6560       6561       6572       6571       6681       6682       6693       6692  
      6561       6562       6573       6572       6682       6683       6694       6693  
      6562       6563       6574       6573       6683       6684       6695       6694  
      6563       6564       6575       6574       6684       6685       6696       6695  
      6564       6565       6576       6575       6685       6686       6697       6696  
      6565       6566       6577       6576       6686       6687       6698       6697  
      6566       6567       6578       6577       6687       6688       6699       6698  
      6568       6569       6580       6579       6689       6690       6701       6700  
      6569       6570       6581       6580       6690       6691       6702       6701  
      6570       6571       6582       6581       6691       6692       6703       6702  
      6571       6572       6583       6582       6692       6693       6704       6703  
      6572       6573       6584       6583       6693       6694       6705       6704  
      6573       6574       6585       6584       6694       6695       6706       6705  
      6574       6575       6586       6585       6695       6696       6707       6706  
      6575       6576       6587       6586       6696       6697       6708       6707  
      6576       6577       6588       6587       6697       6698       6709       6708  
      6577       6578       6589       6588       6698       6699       6710       6709  
      6579       6580       6591       6590       6700       6701       6712       6711  
      6580       6581       6592       6591       6701       6702       6713       6712  
      6581       6582       6593       6592       6702       6703       6714       6713  
      6582       6583       6594       6593       6703       6704       6715       6714  
      6583       6584       6595       6594       6704       6705       6716       6715  
      6584       6585       6596       6595       6705       6706       6717       6716  
      6585       6586       6597       6596       6706       6707       6718       6717  
      6586       6587       6598       6597       6707       6708       6719       6718  
      6587       6588       6599       6598       6708       6709       6720       6719  
      6588       6589       6600       6599       6709       6710       6721       6720  
      6590       6591       6602       6601       6711       6712       6723       6722  
      6591       6592       6603       6602       6712       6713       6724       6723  
      6592       6593       6604       6603       6713       6714       6725       6724  
      6593       6594       6605       6604       6714       6715       6726       6725  
      6594       6595       6606       6605       6715       6716       6727       6726  
      6595       6596       6607       6606       6716       6717       6728       6727  
      6596       6597       6608       6607       6717       6718       6729       6728  
      6597       6598       6609       6608       6718       6719       6730       6729  
      6598       6599       6610       6609       6719       6720       6731       6730  
      6599       6600       6611       6610       6720       6721       6732       6731  
      6601       6602       6613       6612       6722       6723       6734       6733  
      6602       6603       6614       6613       6723       6724       6735       6734  
      6603       6604       6615       6614       6724       6725       6736       6735  
      6604       6605       6616       6615       6725       6726       6737       6736  
      6605       6606       6617       6616       6726       6727       6738       6737  
      6606       6607       6618       6617       6727       6728       6739       6738  
      6607       6608       6619       6618       6728       6729       6740       6739  
      6608       6609       6620       6619       6729       6730       6741       6740  
      6609       6610       6621       6620       6730       6731       6742       6741  
      6610       6611       6622       6621       6731       6732       6743       6742  
      6612       6613       6624       6623       6733       6734       6745       6744  
      6613       6614       6625       6624       6734       6735       6746       6745  
      6614       6615       6626       6625       6735       6736       6747       6746  
      6615       6616       6627       6626       6736       6737       6748       6747  
      6616       6617       6628       6627       6737       6738       6749       6748  
      6617       6618       6629       6628       6738       6739       6750       6749  
      6618       6619       6630       6629       6739       6740       6751       6750  
      6619       6620       6631       6630       6740       6741       6752       6751  
      6620       6621       6632       6631       6741       6742       6753       6752  
      6621       6622       6633       6632       6742       6743       6754       6753  
      6623       6624       6635       6634       6744       6745       6756       6755  
      6624       6625       6636       6635       6745       6746       6757       6756  
      6625       6626       6637       6636       6746       6747       6758       6757  
      6626       6627       6638       6637       6747       6748       6759       6758  
      6627       6628       6639       6638       6748       6749       6760       6759  
      6628       6629       6640       6639       6749       6750       6761       6760  
      6629       6630       6641       6640       6750       6751       6762       6761  
      6630       6631       6642       6641       6751       6752       6763       6762  
      6631       6632       6643       6642       6752       6753       6764       6763  
      6632       6633       6644       6643       6753       6754       6765       6764  
      6634       6635       6646       6645       6755       6756       6767       6766  
      6635       6636       6647       6646       6756       6757       6768       6767  
      6636       6637       6648       6647       6757       6758       6769       6768  
      6637       6638       6649       6648       6758       6759       6770       6769  
      6638       6639       6650       6649       6759       6760       6771       6770  
      6639       6640       6651       6650       6760       6761       6772       6771  
      6640       6641       6652       6651       6761       6762       6773       6772  
      6641       6642       6653       6652       6762       6763       6774       6773  
      6642       6643       6654       6653       6763       6764       6775       6774  
      6643       6644       6655       6654       6764       6765       6776       6775  
      6656       6657       6668       6667       6777       6778       6789       6788  
      6657       6658       6669       6668       6778       6779       6790       6789  
      6658       6659       6670       6669       6779       6780       6791       6790  
      6659       6660       6671       6670       6780       6781       6792       6791  
      6660       6661       6672       6671       6781       6782       6793       6792  
      6661       6662       6673       6672       6782       6783       6794       6793  
      6662       6663       6674       6673       6783       6784       6795       6794  
      6663       6664       6675       6674       6784       6785       6796       6795  
      6664       6665       6676       6675       6785       6786       6797       6796  
      6665       6666       6677       6676       6786       6787       6798       6797  
      6667       6668       6679       6678       6788       6789       6800       6799  
      6668       6669       6680       6679       6789       6790       6801       6800  
      6669       6670       6681       6680       6790       6791       6802       6801  
      6670       6671       6682       6681       6791       6792       6803       6802  
      6671       6672       6683       6682       6792       6793       6804       6803  
      6672       6673       6684       6683       6793       6794       6805       6804  
      6673       6674       6685       6684       6794       6795       6806       6805  
      6674       6675       6686       6685       6795       6796       6807       6806  
      6675       6676       6687       6686       6796       6797       6808       6807  
      6676       6677       6688       6687       6797       6798       6809       6808  
      6678       6679       6690       6689       6799       6800       6811       6810  
      6679       6680       6691       6690       6800       6801       6812       6811  
      6680       6681       6692       6691       6801       6802       6813       6812  
      6681       6682       6693       6692       6802       6803       6814       6813  
      6682       6683       6694       6693       6803       6804       6815       6814  
      6683       6684       6695       6694       6804       6805       6816       6815  
      6684       6685       6696       6695       6805       6806       6817       6816  
      6685       6686       6697       6696       6806       6807       6818       6817  
      6686       6687       6698       6697       6807       6808       6819       6818  
      6687       6688       6699       6698       6808       6809       6820       6819  
      6689       6690       6701       6700       6810       6811       6822       6821  
      6690       6691       6702       6701       6811       6812       6823       6822  
      6691       6692       6703       6702       6812       6813       6824       6823  
      6692       6693       6704       6703       6813       6814       6825       6824  
      6693       6694       6705       6704       6814       6815       6826       6825  
      6694       6695       6706       6705       6815       6816       6827       6826  
      6695       6696       6707       6706       6816       6817       6828       6827  
      6696       6697       6708       6707       6817       6818       6829       6828  
      6697       6698       6709       6708       6818       6819       6830       6829  
      6698       6699       6710       6709       6819       6820       6831       6830  
      6700       6701       6712       6711       6821       6822       6833       6832  
      6701       6702       6713       6712       6822       6823       6834       6833  
      6702       6703       6714       6713       6823       6824       6835       6834  
      6703       6704       6715       6714       6824       6825       6836       6835  
      6704       6705       6716       6715       6825       6826       6837       6836  
      6705       6706       6717       6716       6826       6827       6838       6837  
      6706       6707       6718       6717       6827       6828       6839       6838  
      6707       6708       6719       6718       6828       6829       6840       6839  
      6708       6709       6720       6719       6829       6830       6841       6840  
      6709       6710       6721       6720       6830       6831       6842       6841  
      6711       6712       6723       6722       6832       6833       6844       6843  
      6712       6713       6724       6723       6833       6834       6845       6844  
      6713       6714       6725       6724       6834       6835       6846       6845  
      6714       6715       6726       6725       6835       6836       6847       6846  
      6715       6716       6727       6726       6836       6837       6848       6847  
      6716       6717       6728       6727       6837       6838       6849       6848  
      6717       6718       6729       6728       6838       6839       6850       6849  
      6718       6719       6730       6729       6839       6840       6851       6850  
      6719       6720       6731       6730       6840       6841       6852       6851  
      6720       6721       6732       6731       6841       6842       6853       6852  
      6722       6723       6734       6733       6843       6844       6855       6854  
      6723       6724       6735       6734       6844       6845       6856       6855  
      6724       6725       6736       6735       6845       6846       6857       6856  
      6725       6726       6737       6736       6846       6847       6858       6857  
      6726       6727       6738       6737       6847       6848       6859       6858  
      6727       6728       6739       6738       6848       6849       6860       6859  
      6728       6729       6740       6739       6849       6850       6861       6860  
      6729       6730       6741       6740       6850       6851       6862       6861  
      6730       6731       6742       6741       6851       6852       6863       6862  
      6731       6732       6743       6742       6852       6853       6864       6863  
      6733       6734       6745       6744       6854       6855       6866       6865  
      6734       6735       6746       6745       6855       6856       6867       6866  
      6735       6736       6747       6746       6856       6857       6868       6867  
      6736       6737       6748       6747       6857       6858       6869       6868  
      6737       6738       6749       6748       6858       6859       6870       6869  
      6738       6739       6750       6749       6859       6860       6871       6870  
      6739       6740       6751       6750       6860       6861       6872       6871  
      6740       6741       6752       6751       6861       6862       6873       6872  
      6741       6742       6753       6752       6862       6863       6874       6873  
      6742       6743       6754       6753       6863       6864       6875       6874  
      6744       6745       6756       6755       6865       6866       6877       6876  
      6745       6746       6757       6756       6866       6867       6878       6877  
      6746       6747       6758       6757       6867       6868       6879       6878  
      6747       6748       6759       6758       6868       6869       6880       6879  
      6748       6749       6760       6759       6869       6870       6881       6880  
      6749       6750       6761       6760       6870       6871       6882       6881  
      6750       6751       6762       6761       6871       6872       6883       6882  
      6751       6752       6763       6762       6872       6873       6884       6883  
      6752       6753       6764       6763       6873       6874       6885       6884  
      6753       6754       6765       6764       6874       6875       6886       6885  
      6755       6756       6767       6766       6876       6877       6888       6887  
      6756       6757       6768       6767       6877       6878       6889       6888  
      6757       6758       6769       6768       6878       6879       6890       6889  
      6758       6759       6770       6769       6879       6880       6891       6890  
      6759       6760       6771       6770       6880       6881       6892       6891  
      6760       6761       6772       6771       6881       6882       6893       6892  
      6761       6762       6773       6772       6882       6883       6894       6893  
      6762       6763       6774       6773       6883       6884       6895       6894  
      6763       6764       6775       6774       6884       6885       6896       6895  
      6764       6765       6776       6775       6885       6886       6897       6896  
      6777       6778       6789       6788       6898       6899       6910       6909  
      6778       6779       6790       6789       6899       6900       6911       6910  
      6779       6780       6791       6790       6900       6901       6912       6911  
      6780       6781       6792       6791       6901       6902       6913       6912  
      6781       6782       6793       6792       6902       6903       6914       6913  
      6782       6783       6794       6793       6903       6904       6915       6914  
      6783       6784       6795       6794       6904       6905       6916       6915  
      6784       6785       6796       6795       6905       6906       6917       6916  
      6785       6786       6797       6796       6906       6907       6918       6917  
      6786       6787       6798       6797       6907       6908       6919       6918  
      6788       6789       6800       6799       6909       6910       6921       6920  
      6789       6790       6801       6800       6910       6911       6922       6921  
      6790       6791       6802       6801       6911       6912       6923       6922  
      6791       6792       6803       6802       6912       6913       6924       6923  
      6792       6793       6804       6803       6913       6914       6925       6924  
      6793       6794       6805       6804       6914       6915       6926       6925  
      6794       6795       6806       6805       6915       6916       6927       6926  
      6795       6796       6807       6806       6916       6917       6928       6927  
      6796       6797       6808       6807       6917       6918       6929       6928  
      6797       6798       6809       6808       6918       6919       6930       6929  
      6799       6800       6811       6810       6920       6921       6932       6931  
      6800       6801       6812       6811       6921       6922       6933       6932  
      6801       6802       6813       6812       6922       6923       6934       6933  
      6802       6803       6814       6813       6923       6924       6935       6934  
      6803       6804       6815       6814       6924       6925       6936       6935  
      6804       6805       6816       6815       6925       6926       6937       6936  
      6805       6806       6817       6816       6926       6927       6938       6937  
      6806       6807       6818       6817       6927       6928       6939       6938  
      6807       6808       6819       6818       6928       6929       6940       6939  
      6808       6809       6820       6819       6929       6930       6941       6940  
      6810       6811       6822       6821       6931       6932       6943       6942  
      6811       6812       6823       6822       6932       6933       6944       6943  
      6812       6813       6824       6823       6933       6934       6945       6944  
      6813       6814       6825       6824       6934       6935       6946       6945  
      6814       6815       6826       6825       6935       6936       6947       6946  
      6815       6816       6827       6826       6936       6937       6948       6947  
      6816       6817       6828       6827       6937       6938       6949       6948  
      6817       6818       6829       6828       6938       6939       6950       6949  
      6818       6819       6830       6829       6939       6940       6951       6950  
      6819       6820       6831       6830       6940       6941       6952       6951  
      6821       6822       6833       6832       6942       6943       6954       6953  
      6822       6823       6834       6833       6943       6944       6955       6954  
      6823       6824       6835       6834       6944       6945       6956       6955  
      6824       6825       6836       6835       6945       6946       6957       6956  
      6825       6826       6837       6836       6946       6947       6958       6957  
      6826       6827       6838       6837       6947       6948       6959       6958  
      6827       6828       6839       6838       6948       6949       6960       6959  
      6828       6829       6840       6839       6949       6950       6961       6960  
      6829       6830       6841       6840       6950       6951       6962       6961  
      6830       6831       6842       6841       6951       6952       6963       6962  
      6832       6833       6844       6843       6953       6954       6965       6964  
      6833       6834       6845       6844       6954       6955       6966       6965  
      6834       6835       6846       6845       6955       6956       6967       6966  
      6835       6836       6847       6846       6956       6957       6968       6967  
      6836       6837       6848       6847       6957       6958       6969       6968  
      6837       6838       6849       6848       6958       6959       6970       6969  
      6838       6839       6850       6849       6959       6960       6971       6970  
      6839       6840       6851       6850       6960       6961       6972       6971  
      6840       6841       6852       6851       6961       6962       6973       6972  
      6841       6842       6853       6852       6962       6963       6974       6973  
      6843       6844       6855       6854       6964       6965       6976       6975  
      6844       6845       6856       6855       6965       6966       6977       6976  
      6845       6846       6857       6856       6966       6967       6978       6977  
      6846       6847       6858       6857       6967       6968       6979       6978  
      6847       6848       6859       6858       6968       6969       6980       6979  
      6848       6849       6860       6859       6969       6970       6981       6980  
      6849       6850       6861       6860       6970       6971       6982       6981  
      6850       6851       6862       6861       6971       6972       6983       6982  
      6851       6852       6863       6862       6972       6973       6984       6983  
      6852       6853       6864       6863       6973       6974       6985       6984  
      6854       6855       6866       6865       6975       6976       6987       6986  
      6855       6856       6867       6866       6976       6977       6988       6987  
      6856       6857       6868       6867       6977       6978       6989       6988  
      6857       6858       6869       6868       6978       6979       6990       6989  
      6858       6859       6870       6869       6979       6980       6991       6990  
      6859       6860       6871       6870       6980       6981       6992       6991  
      6860       6861       6872       6871       6981       6982       6993       6992  
      6861       6862       6873       6872       6982       6983       6994       6993  
      6862       6863       6874       6873       6983       6984       6995       6994  
      6863       6864       6875       6874       6984       6985       6996       6995  
      6865       6866       6877       6876       6986       6987       6998       6997  
      6866       6867       6878       6877       6987       6988       6999       6998  
      6867       6868       6879       6878       6988       6989       7000       6999  
      6868       6869       6880       6879       6989       6990       7001       7000  
      6869       6870       6881       6880       6990       6991       7002       7001  
      6870       6871       6882       6881       6991       6992       7003       7002  
      6871       6872       6883       6882       6992       6993       7004       7003  
      6872       6873       6884       6883       6993       6994       7005       7004  
      6873       6874       6885       6884       6994       6995       7006       7005  
      6874       6875       6886       6885       6995       6996       7007       7006  
      6876       6877       6888       6887       6997       6998       7009       7008  
      6877       6878       6889       6888       6998       6999       7010       7009  
      6878       6879       6890       6889       6999       7000       7011       7010  
      6879       6880       6891       6890       7000       7001       7012       7011  
      6880       6881       6892       6891       7001       7002       7013       7012  
      6881       6882       6893       6892       7002       7003       7014       7013  
      6882       6883       6894       6893       7003       7004       7015       7014  
      6883       6884       6895       6894       7004       7005       7016       7015  
      6884       6885       6896       6895       7005       7006       7017       7016  
      6885       6886       6897       6896       7006       7007       7018       7017  
      6898       6899       6910       6909       7019       7020       7031       7030  
      6899       6900       6911       6910       7020       7021       7032       7031  
      6900       6901       6912       6911       7021       7022       7033       7032  
      6901       6902       6913       6912       7022       7023       7034       7033  
      6902       6903       6914       6913       7023       7024       7035       7034  
      6903       6904       6915       6914       7024       7025       7036       7035  
      6904       6905       6916       6915       7025       7026       7037       7036  
      6905       6906       6917       6916       7026       7027       7038       7037  
      6906       6907       6918       6917       7027       7028       7039       7038  
      6907       6908       6919       6918       7028       7029       7040       7039  
      6909       6910       6921       6920       7030       7031       7042       7041  
      6910       6911       6922       6921       7031       7032       7043       7042  
      6911       6912       6923       6922       7032       7033       7044       7043  
      6912       6913       6924       6923       7033       7034       7045       7044  
      6913       6914       6925       6924       7034       7035       7046       7045  
      6914       6915       6926       6925       7035       7036       7047       7046  
      6915       6916       6927       6926       7036       7037       7048       7047  
      6916       6917       6928       6927       7037       7038       7049       7048  
      6917       6918       6929       6928       7038       7039       7050       7049  
      6918       6919       6930       6929       7039       7040       7051       7050  
      6920       6921       6932       6931       7041       7042       7053       7052  
      6921       6922       6933       6932       7042       7043       7054       7053  
      6922       6923       6934       6933       7043       7044       7055       7054  
      6923       6924       6935       6934       7044       7045       7056       7055  
      6924       6925       6936       6935       7045       7046       7057       7056  
      6925       6926       6937       6936       7046       7047       7058       7057  
      6926       6927       6938       6937       7047       7048       7059       7058  
      6927       6928       6939       6938       7048       7049       7060       7059  
      6928       6929       6940       6939       7049       7050       7061       7060  
      6929       6930       6941       6940       7050       7051       7062       7061  
      6931       6932       6943       6942       7052       7053       7064       7063  
      6932       6933       6944       6943       7053       7054       7065       7064  
      6933       6934       6945       6944       7054       7055       7066       7065  
      6934       6935       6946       6945       7055       7056       7067       7066  
      6935       6936       6947       6946       7056       7057       7068       7067  
      6936       6937       6948       6947       7057       7058       7069       7068  
      6937       6938       6949       6948       7058       7059       7070       7069  
      6938       6939       6950       6949       7059       7060       7071       7070  
      6939       6940       6951       6950       7060       7061       7072       7071  
      6940       6941       6952       6951       7061       7062       7073       7072  
      6942       6943       6954       6953       7063       7064       7075       7074  
      6943       6944       6955       6954       7064       7065       7076       7075  
      6944       6945       6956       6955       7065       7066       7077       7076  
      6945       6946       6957       6956       7066       7067       7078       7077  
      6946       6947       6958       6957       7067       7068       7079       7078  
      6947       6948       6959       6958       7068       7069       7080       7079  
      6948       6949       6960       6959       7069       7070       7081       7080  
      6949       6950       6961       6960       7070       7071       7082       7081  
      6950       6951       6962       6961       7071       7072       7083       7082  
      6951       6952       6963       6962       7072       7073       7084       7083  
      6953       6954       6965       6964       7074       7075       7086       7085  
      6954       6955       6966       6965       7075       7076       7087       7086  
      6955       6956       6967       6966       7076       7077       7088       7087  
      6956       6957       6968       6967       7077       7078       7089       7088  
      6957       6958       6969       6968       7078       7079       7090       7089  
      6958       6959       6970       6969       7079       7080       7091       7090  
      6959       6960       6971       6970       7080       7081       7092       7091  
      6960       6961       6972       6971       7081       7082       7093       7092  
      6961       6962       6973       6972       7082       7083       7094       7093  
      6962       6963       6974       6973       7083       7084       7095       7094  
      6964       6965       6976       6975       7085       7086       7097       7096  
      6965       6966       6977       6976       7086       7087       7098       7097  
      6966       6967       6978       6977       7087       7088       7099       7098  
      6967       6968       6979       6978       7088       7089       7100       7099  
      6968       6969       6980       6979       7089       7090       7101       7100  
      6969       6970       6981       6980       7090       7091       7102       7101  
      6970       6971       6982       6981       7091       7092       7103       7102  
      6971       6972       6983       6982       7092       7093       7104       7103  
      6972       6973       6984       6983       7093       7094       7105       7104  
      6973       6974       6985       6984       7094       7095       7106       7105  
      6975       6976       6987       6986       7096       7097       7108       7107  
      6976       6977       6988       6987       7097       7098       7109       7108  
      6977       6978       6989       6988       7098       7099       7110       7109  
      6978       6979       6990       6989       7099       7100       7111       7110  
      6979       6980       6991       6990       7100       7101       7112       7111  
      6980       6981       6992       6991       7101       7102       7113       7112  
      6981       6982       6993       6992       7102       7103       7114       7113  
      6982       6983       6994       6993       7103       7104       7115       7114  
      6983       6984       6995       6994       7104       7105       7116       7115  
      6984       6985       6996       6995       7105       7106       7117       7116  
      6986       6987       6998       6997       7107       7108       7119       7118  
      6987       6988       6999       6998       7108       7109       7120       7119  
      6988       6989       7000       6999       7109       7110       7121       7120  
      6989       6990       7001       7000       7110       7111       7122       7121  
      6990       6991       7002       7001       7111       7112       7123       7122  
      6991       6992       7003       7002       7112       7113       7124       7123  
      6992       6993       7004       7003       7113       7114       7125       7124  
      6993       6994       7005       7004       7114       7115       7126       7125  
      6994       6995       7006       7005       7115       7116       7127       7126  
      6995       6996       7007       7006       7116       7117       7128       7127  
      6997       6998       7009       7008       7118       7119       7130       7129  
      6998       6999       7010       7009       7119       7120       7131       7130  
      6999       7000       7011       7010       7120       7121       7132       7131  
      7000       7001       7012       7011       7121       7122       7133       7132  
      7001       7002       7013       7012       7122       7123       7134       7133  
      7002       7003       7014       7013       7123       7124       7135       7134  
      7003       7004       7015       7014       7124       7125       7136       7135  
      7004       7005       7016       7015       7125       7126       7137       7136  
      7005       7006       7017       7016       7126       7127       7138       7137  
      7006       7007       7018       7017       7127       7128       7139       7138  
      7019       7020       7031       7030       7140       7141       7152       7151  
      7020       7021       7032       7031       7141       7142       7153       7152  
      7021       7022       7033       7032       7142       7143       7154       7153  
      7022       7023       7034       7033       7143       7144       7155       7154  
      7023       7024       7035       7034       7144       7145       7156       7155  
      7024       7025       7036       7035       7145       7146       7157       7156  
      7025       7026       7037       7036       7146       7147       7158       7157  
      7026       7027       7038       7037       7147       7148       7159       7158  
      7027       7028       7039       7038       7148       7149       7160       7159  
      7028       7029       7040       7039       7149       7150       7161       7160  
      7030       7031       7042       7041       7151       7152       7163       7162  
      7031       7032       7043       7042       7152       7153       7164       7163  
      7032       7033       7044       7043       7153       7154       7165       7164  
      7033       7034       7045       7044       7154       7155       7166       7165  
      7034       7035       7046       7045       7155       7156       7167       7166  
      7035       7036       7047       7046       7156       7157       7168       7167  
      7036       7037       7048       7047       7157       7158       7169       7168  
      7037       7038       7049       7048       7158       7159       7170       7169  
      7038       7039       7050       7049       7159       7160       7171       7170  
      7039       7040       7051       7050       7160       7161       7172       7171  
      7041       7042       7053       7052       7162       7163       7174       7173  
      7042       7043       7054       7053       7163       7164       7175       7174  
      7043       7044       7055       7054       7164       7165       7176       7175  
      7044       7045       7056       7055       7165       7166       7177       7176  
      7045       7046       7057       7056       7166       7167       7178       7177  
      7046       7047       7058       7057       7167       7168       7179       7178  
      7047       7048       7059       7058       7168       7169       7180       7179  
      7048       7049       7060       7059       7169       7170       7181       7180  
      7049       7050       7061       7060       7170       7171       7182       7181  
      7050       7051       7062       7061       7171       7172       7183       7182  
      7052       7053       7064       7063       7173       7174       7185       7184  
      7053       7054       7065       7064       7174       7175       7186       7185  
      7054       7055       7066       7065       7175       7176       7187       7186  
      7055       7056       7067       7066       7176       7177       7188       7187  
      7056       7057       7068       7067       7177       7178       7189       7188  
      7057       7058       7069       7068       7178       7179       7190       7189  
      7058       7059       7070       7069       7179       7180       7191       7190  
      7059       7060       7071       7070       7180       7181       7192       7191  
      7060       7061       7072       7071       7181       7182       7193       7192  
      7061       7062       7073       7072       7182       7183       7194       7193  
      7063       7064       7075       7074       7184       7185       7196       7195  
      7064       7065       7076       7075       7185       7186       7197       7196  
      7065       7066       7077       7076       7186       7187       7198       7197  
      7066       7067       7078       7077       7187       7188       7199       7198  
      7067       7068       7079       7078       7188       7189       7200       7199  
      7068       7069       7080       7079       7189       7190       7201       7200  
      7069       7070       7081       7080       7190       7191       7202       7201  
      7070       7071       7082       7081       7191       7192       7203       7202  
      7071       7072       7083       7082       7192       7193       7204       7203  
      7072       7073       7084       7083       7193       7194       7205       7204  
      7074       7075       7086       7085       7195       7196       7207       7206  
      7075       7076       7087       7086       7196       7197       7208       7207  
      7076       7077       7088       7087       7197       7198       7209       7208  
      7077       7078       7089       7088       7198       7199       7210       7209  
      7078       7079       7090       7089       7199       7200       7211       7210  
      7079       7080       7091       7090       7200       7201       7212       7211  
      7080       7081       7092       7091       7201       7202       7213       7212  
      7081       7082       7093       7092       7202       7203       7214       7213  
      7082       7083       7094       7093       7203       7204       7215       7214  
      7083       7084       7095       7094       7204       7205       7216       7215  
      7085       7086       7097       7096       7206       7207       7218       7217  
      7086       7087       7098       7097       7207       7208       7219       7218  
      7087       7088       7099       7098       7208       7209       7220       7219  
      7088       7089       7100       7099       7209       7210       7221       7220  
      7089       7090       7101       7100       7210       7211       7222       7221  
      7090       7091       7102       7101       7211       7212       7223       7222  
      7091       7092       7103       7102       7212       7213       7224       7223  
      7092       7093       7104       7103       7213       7214       7225       7224  
      7093       7094       7105       7104       7214       7215       7226       7225  
      7094       7095       7106       7105       7215       7216       7227       7226  
      7096       7097       7108       7107       7217       7218       7229       7228  
      7097       7098       7109       7108       7218       7219       7230       7229  
      7098       7099       7110       7109       7219       7220       7231       7230  
      7099       7100       7111       7110       7220       7221       7232       7231  
      7100       7101       7112       7111       7221       7222       7233       7232  
      7101       7102       7113       7112       7222       7223       7234       7233  
      7102       7103       7114       7113       7223       7224       7235       7234  
      7103       7104       7115       7114       7224       7225       7236       7235  
      7104       7105       7116       7115       7225       7226       7237       7236  
      7105       7106       7117       7116       7226       7227       7238       7237  
      7107       7108       7119       7118       7228       7229       7240       7239  
      7108       7109       7120       7119       7229       7230       7241       7240  
      7109       7110       7121       7120       7230       7231       7242       7241  
      7110       7111       7122       7121       7231       7232       7243       7242  
      7111       7112       7123       7122       7232       7233       7244       7243  
      7112       7113       7124       7123       7233       7234       7245       7244  
      7113       7114       7125       7124       7234       7235       7246       7245  
      7114       7115       7126       7125       7235       7236       7247       7246  
      7115       7116       7127       7126       7236       7237       7248       7247  
      7116       7117       7128       7127       7237       7238       7249       7248  
      7118       7119       7130       7129       7239       7240       7251       7250  
      7119       7120       7131       7130       7240       7241       7252       7251  
      7120       7121       7132       7131       7241       7242       7253       7252  
      7121       7122       7133       7132       7242       7243       7254       7253  
      7122       7123       7134       7133       7243       7244       7255       7254  
      7123       7124       7135       7134       7244       7245       7256       7255  
      7124       7125       7136       7135       7245       7246       7257       7256  
      7125       7126       7137       7136       7246       7247       7258       7257  
      7126       7127       7138       7137       7247       7248       7259       7258  
      7127       7128       7139       7138       7248       7249       7260       7259  
      7140       7141       7152       7151       7261       7262       7273       7272  
      7141       7142       7153       7152       7262       7263       7274       7273  
      7142       7143       7154       7153       7263       7264       7275       7274  
      7143       7144       7155       7154       7264       7265       7276       7275  
      7144       7145       7156       7155       7265       7266       7277       7276  
      7145       7146       7157       7156       7266       7267       7278       7277  
      7146       7147       7158       7157       7267       7268       7279       7278  
      7147       7148       7159       7158       7268       7269       7280       7279  
      7148       7149       7160       7159       7269       7270       7281       7280  
      7149       7150       7161       7160       7270       7271       7282       7281  
      7151       7152       7163       7162       7272       7273       7284       7283  
      7152       7153       7164       7163       7273       7274       7285       7284  
      7153       7154       7165       7164       7274       7275       7286       7285  
      7154       7155       7166       7165       7275       7276       7287       7286  
      7155       7156       7167       7166       7276       7277       7288       7287  
      7156       7157       7168       7167       7277       7278       7289       7288  
      7157       7158       7169       7168       7278       7279       7290       7289  
      7158       7159       7170       7169       7279       7280       7291       7290  
      7159       7160       7171       7170       7280       7281       7292       7291  
      7160       7161       7172       7171       7281       7282       7293       7292  
      7162       7163       7174       7173       7283       7284       7295       7294  
      7163       7164       7175       7174       7284       7285       7296       7295  
      7164       7165       7176       7175       7285       7286       7297       7296  
      7165       7166       7177       7176       7286       7287       7298       7297  
      7166       7167       7178       7177       7287       7288       7299       7298  
      7167       7168       7179       7178       7288       7289       7300       7299  
      7168       7169       7180       7179       7289       7290       7301       7300  
      7169       7170       7181       7180       7290       7291       7302       7301  
      7170       7171       7182       7181       7291       7292       7303       7302  
      7171       7172       7183       7182       7292       7293       7304       7303  
      7173       7174       7185       7184       7294       7295       7306       7305  
      7174       7175       7186       7185       7295       7296       7307       7306  
      7175       7176       7187       7186       7296       7297       7308       7307  
      7176       7177       7188       7187       7297       7298       7309       7308  
      7177       7178       7189       7188       7298       7299       7310       7309  
      7178       7179       7190       7189       7299       7300       7311       7310  
      7179       7180       7191       7190       7300       7301       7312       7311  
      7180       7181       7192       7191       7301       7302       7313       7312  
      7181       7182       7193       7192       7302       7303       7314       7313  
      7182       7183       7194       7193       7303       7304       7315       7314  
      7184       7185       7196       7195       7305       7306       7317       7316  
      7185       7186       7197       7196       7306       7307       7318       7317  
      7186       7187       7198       7197       7307       7308       7319       7318  
      7187       7188       7199       7198       7308       7309       7320       7319  
      7188       7189       7200       7199       7309       7310       7321       7320  
      7189       7190       7201       7200       7310       7311       7322       7321  
      7190       7191       7202       7201       7311       7312       7323       7322  
      7191       7192       7203       7202       7312       7313       7324       7323  
      7192       7193       7204       7203       7313       7314       7325       7324  
      7193       7194       7205       7204       7314       7315       7326       7325  
      7195       7196       7207       7206       7316       7317       7328       7327  
      7196       7197       7208       7207       7317       7318       7329       7328  
      7197       7198       7209       7208       7318       7319       7330       7329  
      7198       7199       7210       7209       7319       7320       7331       7330  
      7199       7200       7211       7210       7320       7321       7332       7331  
      7200       7201       7212       7211       7321       7322       7333       7332  
      7201       7202       7213       7212       7322       7323       7334       7333  
      7202       7203       7214       7213       7323       7324       7335       7334  
      7203       7204       7215       7214       7324       7325       7336       7335  
      7204       7205       7216       7215       7325       7326       7337       7336  
      7206       7207       7218       7217       7327       7328       7339       7338  
      7207       7208       7219       7218       7328       7329       7340       7339  
      7208       7209       7220       7219       7329       7330       7341       7340  
      7209       7210       7221       7220       7330       7331       7342       7341  
      7210       7211       7222       7221       7331       7332       7343       7342  
      7211       7212       7223       7222       7332       7333       7344       7343  
      7212       7213       7224       7223       7333       7334       7345       7344  
      7213       7214       7225       7224       7334       7335       7346       7345  
      7214       7215       7226       7225       7335       7336       7347       7346  
      7215       7216       7227       7226       7336       7337       7348       7347  
      7217       7218       7229       7228       7338       7339       7350       7349  
      7218       7219       7230       7229       7339       7340       7351       7350  
      7219       7220       7231       7230       7340       7341       7352       7351  
      7220       7221       7232       7231       7341       7342       7353       7352  
      7221       7222       7233       7232       7342       7343       7354       7353  
      7222       7223       7234       7233       7343       7344       7355       7354  
      7223       7224       7235       7234       7344       7345       7356       7355  
      7224       7225       7236       7235       7345       7346       7357       7356  
      7225       7226       7237       7236       7346       7347       7358       7357  
      7226       7227       7238       7237       7347       7348       7359       7358  
      7228       7229       7240       7239       7349       7350       7361       7360  
      7229       7230       7241       7240       7350       7351       7362       7361  
      7230       7231       7242       7241       7351       7352       7363       7362  
      7231       7232       7243       7242       7352       7353       7364       7363  
      7232       7233       7244       7243       7353       7354       7365       7364  
      7233       7234       7245       7244       7354       7355       7366       7365  
      7234       7235       7246       7245       7355       7356       7367       7366  
      7235       7236       7247       7246       7356       7357       7368       7367  
      7236       7237       7248       7247       7357       7358       7369       7368  
      7237       7238       7249       7248       7358       7359       7370       7369  
      7239       7240       7251       7250       7360       7361       7372       7371  
      7240       7241       7252       7251       7361       7362       7373       7372  
      7241       7242       7253       7252       7362       7363       7374       7373  
      7242       7243       7254       7253       7363       7364       7375       7374  
      7243       7244       7255       7254       7364       7365       7376       7375  
      7244       7245       7256       7255       7365       7366       7377       7376  
      7245       7246       7257       7256       7366       7367       7378       7377  
      7246       7247       7258       7257       7367       7368       7379       7378  
      7247       7248       7259       7258       7368       7369       7380       7379  
      7248       7249       7260       7259       7369       7370       7381       7380  
      7261       7262       7273       7272       7382       7383       7394       7393  
      7262       7263       7274       7273       7383       7384       7395       7394  
      7263       7264       7275       7274       7384       7385       7396       7395  
      7264       7265       7276       7275       7385       7386       7397       7396  
      7265       7266       7277       7276       7386       7387       7398       7397  
      7266       7267       7278       7277       7387       7388       7399       7398  
      7267       7268       7279       7278       7388       7389       7400       7399  
      7268       7269       7280       7279       7389       7390       7401       7400  
      7269       7270       7281       7280       7390       7391       7402       7401  
      7270       7271       7282       7281       7391       7392       7403       7402  
      7272       7273       7284       7283       7393       7394       7405       7404  
      7273       7274       7285       7284       7394       7395       7406       7405  
      7274       7275       7286       7285       7395       7396       7407       7406  
      7275       7276       7287       7286       7396       7397       7408       7407  
      7276       7277       7288       7287       7397       7398       7409       7408  
      7277       7278       7289       7288       7398       7399       7410       7409  
      7278       7279       7290       7289       7399       7400       7411       7410  
      7279       7280       7291       7290       7400       7401       7412       7411  
      7280       7281       7292       7291       7401       7402       7413       7412  
      7281       7282       7293       7292       7402       7403       7414       7413  
      7283       7284       7295       7294       7404       7405       7416       7415  
      7284       7285       7296       7295       7405       7406       7417       7416  
      7285       7286       7297       7296       7406       7407       7418       7417  
      7286       7287       7298       7297       7407       7408       7419       7418  
      7287       7288       7299       7298       7408       7409       7420       7419  
      7288       7289       7300       7299       7409       7410       7421       7420  
      7289       7290       7301       7300       7410       7411       7422       7421  
      7290       7291       7302       7301       7411       7412       7423       7422  
      7291       7292       7303       7302       7412       7413       7424       7423  
      7292       7293       7304       7303       7413       7414       7425       7424  
      7294       7295       7306       7305       7415       7416       7427       7426  
      7295       7296       7307       7306       7416       7417       7428       7427  
      7296       7297       7308       7307       7417       7418       7429       7428  
      7297       7298       7309       7308       7418       7419       7430       7429  
      7298       7299       7310       7309       7419       7420       7431       7430  
      7299       7300       7311       7310       7420       7421       7432       7431  
      7300       7301       7312       7311       7421       7422       7433       7432  
      7301       7302       7313       7312       7422       7423       7434       7433  
      7302       7303       7314       7313       7423       7424       7435       7434  
      7303       7304       7315       7314       7424       7425       7436       7435  
      7305       7306       7317       7316       7426       7427       7438       7437  
      7306       7307       7318       7317       7427       7428       7439       7438  
      7307       7308       7319       7318       7428       7429       7440       7439  
      7308       7309       7320       7319       7429       7430       7441       7440  
      7309       7310       7321       7320       7430       7431       7442       7441  
      7310       7311       7322       7321       7431       7432       7443       7442  
      7311       7312       7323       7322       7432       7433       7444       7443  
      7312       7313       7324       7323       7433       7434       7445       7444  
      7313       7314       7325       7324       7434       7435       7446       7445  
      7314       7315       7326       7325       7435       7436       7447       7446  
      7316       7317       7328       7327       7437       7438       7449       7448  
      7317       7318       7329       7328       7438       7439       7450       7449  
      7318       7319       7330       7329       7439       7440       7451       7450  
      7319       7320       7331       7330       7440       7441       7452       7451  
      7320       7321       7332       7331       7441       7442       7453       7452  
      7321       7322       7333       7332       7442       7443       7454       7453  
      7322       7323       7334       7333       7443       7444       7455       7454  
      7323       7324       7335       7334       7444       7445       7456       7455  
      7324       7325       7336       7335       7445       7446       7457       7456  
      7325       7326       7337       7336       7446       7447       7458       7457  
      7327       7328       7339       7338       7448       7449       7460       7459  
      7328       7329       7340       7339       7449       7450       7461       7460  
      7329       7330       7341       7340       7450       7451       7462       7461  
      7330       7331       7342       7341       7451       7452       7463       7462  
      7331       7332       7343       7342       7452       7453       7464       7463  
      7332       7333       7344       7343       7453       7454       7465       7464  
      7333       7334       7345       7344       7454       7455       7466       7465  
      7334       7335       7346       7345       7455       7456       7467       7466  
      7335       7336       7347       7346       7456       7457       7468       7467  
      7336       7337       7348       7347       7457       7458       7469       7468  
      7338       7339       7350       7349       7459       7460       7471       7470  
      7339       7340       7351       7350       7460       7461       7472       7471  
      7340       7341       7352       7351       7461       7462       7473       7472  
      7341       7342       7353       7352       7462       7463       7474       7473  
      7342       7343       7354       7353       7463       7464       7475       7474  
      7343       7344       7355       7354       7464       7465       7476       7475  
      7344       7345       7356       7355       7465       7466       7477       7476  
      7345       7346       7357       7356       7466       7467       7478       7477  
      7346       7347       7358       7357       7467       7468       7479       7478  
      7347       7348       7359       7358       7468       7469       7480       7479  
      7349       7350       7361       7360       7470       7471       7482       7481  
      7350       7351       7362       7361       7471       7472       7483       7482  
      7351       7352       7363       7362       7472       7473       7484       7483  
      7352       7353       7364       7363       7473       7474       7485       7484  
      7353       7354       7365       7364       7474       7475       7486       7485  
      7354       7355       7366       7365       7475       7476       7487       7486  
      7355       7356       7367       7366       7476       7477       7488       7487  
      7356       7357       7368       7367       7477       7478       7489       7488  
      7357       7358       7369       7368       7478       7479       7490       7489  
      7358       7359       7370       7369       7479       7480       7491       7490  
      7360       7361       7372       7371       7481       7482       7493       7492  
      7361       7362       7373       7372       7482       7483       7494       7493  
      7362       7363       7374       7373       7483       7484       7495       7494  
      7363       7364       7375       7374       7484       7485       7496       7495  
      7364       7365       7376       7375       7485       7486       7497       7496  
      7365       7366       7377       7376       7486       7487       7498       7497  
      7366       7367       7378       7377       7487       7488       7499       7498  
      7367       7368       7379       7378       7488       7489       7500       7499  
      7368       7369       7380       7379       7489       7490       7501       7500  
      7369       7370       7381       7380       7490       7491       7502       7501  
      7382       7383       7394       7393       7503       7504       7515       7514  
      7383       7384       7395       7394       7504       7505       7516       7515  
      7384       7385       7396       7395       7505       7506       7517       7516  
      7385       7386       7397       7396       7506       7507       7518       7517  
      7386       7387       7398       7397       7507       7508       7519       7518  
      7387       7388       7399       7398       7508       7509       7520       7519  
      7388       7389       7400       7399       7509       7510       7521       7520  
      7389       7390       7401       7400       7510       7511       7522       7521  
      7390       7391       7402       7401       7511       7512       7523       7522  
      7391       7392       7403       7402       7512       7513       7524       7523  
      7393       7394       7405       7404       7514       7515       7526       7525  
      7394       7395       7406       7405       7515       7516       7527       7526  
      7395       7396       7407       7406       7516       7517       7528       7527  
      7396       7397       7408       7407       7517       7518       7529       7528  
      7397       7398       7409       7408       7518       7519       7530       7529  
      7398       7399       7410       7409       7519       7520       7531       7530  
      7399       7400       7411       7410       7520       7521       7532       7531  
      7400       7401       7412       7411       7521       7522       7533       7532  
      7401       7402       7413       7412       7522       7523       7534       7533  
      7402       7403       7414       7413       7523       7524       7535       7534  
      7404       7405       7416       7415       7525       7526       7537       7536  
      7405       7406       7417       7416       7526       7527       7538       7537  
      7406       7407       7418       7417       7527       7528       7539       7538  
      7407       7408       7419       7418       7528       7529       7540       7539  
      7408       7409       7420       7419       7529       7530       7541       7540  
      7409       7410       7421       7420       7530       7531       7542       7541  
      7410       7411       7422       7421       7531       7532       7543       7542  
      7411       7412       7423       7422       7532       7533       7544       7543  
      7412       7413       7424       7423       7533       7534       7545       7544  
      7413       7414       7425       7424       7534       7535       7546       7545  
      7415       7416       7427       7426       7536       7537       7548       7547  
      7416       7417       7428       7427       7537       7538       7549       7548  
      7417       7418       7429       7428       7538       7539       7550       7549  
      7418       7419       7430       7429       7539       7540       7551       7550  
      7419       7420       7431       7430       7540       7541       7552       7551  
      7420       7421       7432       7431       7541       7542       7553       7552  
      7421       7422       7433       7432       7542       7543       7554       7553  
      7422       7423       7434       7433       7543       7544       7555       7554  
      7423       7424       7435       7434       7544       7545       7556       7555  
      7424       7425       7436       7435       7545       7546       7557       7556  
      7426       7427       7438       7437       7547       7548       7559       7558  
      7427       7428       7439       7438       7548       7549       7560       7559  
      7428       7429       7440       7439       7549       7550       7561       7560  
      7429       7430       7441       7440       7550       7551       7562       7561  
      7430       7431       7442       7441       7551       7552       7563       7562  
      7431       7432       7443       7442       7552       7553       7564       7563  
      7432       7433       7444       7443       7553       7554       7565       7564  
      7433       7434       7445       7444       7554       7555       7566       7565  
      7434       7435       7446       7445       7555       7556       7567       7566  
      7435       7436       7447       7446       7556       7557       7568       7567  
      7437       7438       7449       7448       7558       7559       7570       7569  
      7438       7439       7450       7449       7559       7560       7571       7570  
      7439       7440       7451       7450       7560       7561       7572       7571  
      7440       7441       7452       7451       7561       7562       7573       7572  
      7441       7442       7453       7452       7562       7563       7574       7573  
      7442       7443       7454       7453       7563       7564       7575       7574  
      7443       7444       7455       7454       7564       7565       7576       7575  
      7444       7445       7456       7455       7565       7566       7577       7576  
      7445       7446       7457       7456       7566       7567       7578       7577  
      7446       7447       7458       7457       7567       7568       7579       7578  
      7448       7449       7460       7459       7569       7570       7581       7580  
      7449       7450       7461       7460       7570       7571       7582       7581  
      7450       7451       7462       7461       7571       7572       7583       7582  
      7451       7452       7463       7462       7572       7573       7584       7583  
      7452       7453       7464       7463       7573       7574       7585       7584  
      7453       7454       7465       7464       7574       7575       7586       7585  
      7454       7455       7466       7465       7575       7576       7587       7586  
      7455       7456       7467       7466       7576       7577       7588       7587  
      7456       7457       7468       7467       7577       7578       7589       7588  
      7457       7458       7469       7468       7578       7579       7590       7589  
      7459       7460       7471       7470       7580       7581       7592       7591  
      7460       7461       7472       7471       7581       7582       7593       7592  
      7461       7462       7473       7472       7582       7583       7594       7593  
      7462       7463       7474       7473       7583       7584       7595       7594  
      7463       7464       7475       7474       7584       7585       7596       7595  
      7464       7465       7476       7475       7585       7586       7597       7596  
      7465       7466       7477       7476       7586       7587       7598       7597  
      7466       7467       7478       7477       7587       7588       7599       7598  
      7467       7468       7479       7478       7588       7589       7600       7599  
      7468       7469       7480       7479       7589       7590       7601       7600  
      7470       7471       7482       7481       7591       7592       7603       7602  
      7471       7472       7483       7482       7592       7593       7604       7603  
      7472       7473       7484       7483       7593       7594       7605       7604  
      7473       7474       7485       7484       7594       7595       7606       7605  
      7474       7475       7486       7485       7595       7596       7607       7606  
      7475       7476       7487       7486       7596       7597       7608       7607  
      7476       7477       7488       7487       7597       7598       7609       7608  
      7477       7478       7489       7488       7598       7599       7610       7609  
      7478       7479       7490       7489       7599       7600       7611       7610  
      7479       7480       7491       7490       7600       7601       7612       7611  
      7481       7482       7493       7492       7602       7603       7614       7613  
      7482       7483       7494       7493       7603       7604       7615       7614  
      7483       7484       7495       7494       7604       7605       7616       7615  
      7484       7485       7496       7495       7605       7606       7617       7616  
      7485       7486       7497       7496       7606       7607       7618       7617  
      7486       7487       7498       7497       7607       7608       7619       7618  
      7487       7488       7499       7498       7608       7609       7620       7619  
      7488       7489       7500       7499       7609       7610       7621       7620  
      7489       7490       7501       7500       7610       7611       7622       7621  
      7490       7491       7502       7501       7611       7612       7623       7622  
      7503       7504       7515       7514       7624       7625       7636       7635  
      7504       7505       7516       7515       7625       7626       7637       7636  
      7505       7506       7517       7516       7626       7627       7638       7637  
      7506       7507       7518       7517       7627       7628       7639       7638  
      7507       7508       7519       7518       7628       7629       7640       7639  
      7508       7509       7520       7519       7629       7630       7641       7640  
      7509       7510       7521       7520       7630       7631       7642       7641  
      7510       7511       7522       7521       7631       7632       7643       7642  
      7511       7512       7523       7522       7632       7633       7644       7643  
      7512       7513       7524       7523       7633       7634       7645       7644  
      7514       7515       7526       7525       7635       7636       7647       7646  
      7515       7516       7527       7526       7636       7637       7648       7647  
      7516       7517       7528       7527       7637       7638       7649       7648  
      7517       7518       7529       7528       7638       7639       7650       7649  
      7518       7519       7530       7529       7639       7640       7651       7650  
      7519       7520       7531       7530       7640       7641       7652       7651  
      7520       7521       7532       7531       7641       7642       7653       7652  
      7521       7522       7533       7532       7642       7643       7654       7653  
      7522       7523       7534       7533       7643       7644       7655       7654  
      7523       7524       7535       7534       7644       7645       7656       7655  
      7525       7526       7537       7536       7646       7647       7658       7657  
      7526       7527       7538       7537       7647       7648       7659       7658  
      7527       7528       7539       7538       7648       7649       7660       7659  
      7528       7529       7540       7539       7649       7650       7661       7660  
      7529       7530       7541       7540       7650       7651       7662       7661  
      7530       7531       7542       7541       7651       7652       7663       7662  
      7531       7532       7543       7542       7652       7653       7664       7663  
      7532       7533       7544       7543       7653       7654       7665       7664  
      7533       7534       7545       7544       7654       7655       7666       7665  
      7534       7535       7546       7545       7655       7656       7667       7666  
      7536       7537       7548       7547       7657       7658       7669       7668  
      7537       7538       7549       7548       7658       7659       7670       7669  
      7538       7539       7550       7549       7659       7660       7671       7670  
      7539       7540       7551       7550       7660       7661       7672       7671  
      7540       7541       7552       7551       7661       7662       7673       7672  
      7541       7542       7553       7552       7662       7663       7674       7673  
      7542       7543       7554       7553       7663       7664       7675       7674  
      7543       7544       7555       7554       7664       7665       7676       7675  
      7544       7545       7556       7555       7665       7666       7677       7676  
      7545       7546       7557       7556       7666       7667       7678       7677  
      7547       7548       7559       7558       7668       7669       7680       7679  
      7548       7549       7560       7559       7669       7670       7681       7680  
      7549       7550       7561       7560       7670       7671       7682       7681  
      7550       7551       7562       7561       7671       7672       7683       7682  
      7551       7552       7563       7562       7672       7673       7684       7683  
      7552       7553       7564       7563       7673       7674       7685       7684  
      7553       7554       7565       7564       7674       7675       7686       7685  
      7554       7555       7566       7565       7675       7676       7687       7686  
      7555       7556       7567       7566       7676       7677       7688       7687  
      7556       7557       7568       7567       7677       7678       7689       7688  
      7558       7559       7570       7569       7679       7680       7691       7690  
      7559       7560       7571       7570       7680       7681       7692       7691  
      7560       7561       7572       7571       7681       7682       7693       7692  
      7561       7562       7573       7572       7682       7683       7694       7693  
      7562       7563       7574       7573       7683       7684       7695       7694  
      7563       7564       7575       7574       7684       7685       7696       7695  
      7564       7565       7576       7575       7685       7686       7697       7696  
      7565       7566       7577       7576       7686       7687       7698       7697  
      7566       7567       7578       7577       7687       7688       7699       7698  
      7567       7568       7579       7578       7688       7689       7700       7699  
      7569       7570       7581       7580       7690       7691       7702       7701  
      7570       7571       7582       7581       7691       7692       7703       7702  
      7571       7572       7583       7582       7692       7693       7704       7703  
      7572       7573       7584       7583       7693       7694       7705       7704  
      7573       7574       7585       7584       7694       7695       7706       7705  
      7574       7575       7586       7585       7695       7696       7707       7706  
      7575       7576       7587       7586       7696       7697       7708       7707  
      7576       7577       7588       7587       7697       7698       7709       7708  
      7577       7578       7589       7588       7698       7699       7710       7709  
      7578       7579       7590       7589       7699       7700       7711       7710  
      7580       7581       7592       7591       7701       7702       7713       7712  
      7581       7582       7593       7592       7702       7703       7714       7713  
      7582       7583       7594       7593       7703       7704       7715       7714  
      7583       7584       7595       7594       7704       7705       7716       7715  
      7584       7585       7596       7595       7705       7706       7717       7716  
      7585       7586       7597       7596       7706       7707       7718       7717  
      7586       7587       7598       7597       7707       7708       7719       7718  
      7587       7588       7599       7598       7708       7709       7720       7719  
      7588       7589       7600       7599       7709       7710       7721       7720  
      7589       7590       7601       7600       7710       7711       7722       7721  
      7591       7592       7603       7602       7712       7713       7724       7723  
      7592       7593       7604       7603       7713       7714       7725       7724  
      7593       7594       7605       7604       7714       7715       7726       7725  
      7594       7595       7606       7605       7715       7716       7727       7726  
      7595       7596       7607       7606       7716       7717       7728       7727  
      7596       7597       7608       7607       7717       7718       7729       7728  
      7597       7598       7609       7608       7718       7719       7730       7729  
      7598       7599       7610       7609       7719       7720       7731       7730  
      7599       7600       7611       7610       7720       7721       7732       7731  
      7600       7601       7612       7611       7721       7722       7733       7732  
      7602       7603       7614       7613       7723       7724       7735       7734  
      7603       7604       7615       7614       7724       7725       7736       7735  
      7604       7605       7616       7615       7725       7726       7737       7736  
      7605       7606       7617       7616       7726       7727       7738       7737  
      7606       7607       7618       7617       7727       7728       7739       7738  
      7607       7608       7619       7618       7728       7729       7740       7739  
      7608       7609       7620       7619       7729       7730       7741       7740  
      7609       7610       7621       7620       7730       7731       7742       7741  
      7610       7611       7622       7621       7731       7732       7743       7742  
      7611       7612       7623       7622       7732       7733       7744       7743  
      7624       7625       7636       7635       7745       7746       7757       7756  
      7625       7626       7637       7636       7746       7747       7758       7757  
      7626       7627       7638       7637       7747       7748       7759       7758  
      7627       7628       7639       7638       7748       7749       7760       7759  
      7628       7629       7640       7639       7749       7750       7761       7760  
      7629       7630       7641       7640       7750       7751       7762       7761  
      7630       7631       7642       7641       7751       7752       7763       7762  
      7631       7632       7643       7642       7752       7753       7764       7763  
      7632       7633       7644       7643       7753       7754       7765       7764  
      7633       7634       7645       7644       7754       7755       7766       7765  
      7635       7636       7647       7646       7756       7757       7768       7767  
      7636       7637       7648       7647       7757       7758       7769       7768  
      7637       7638       7649       7648       7758       7759       7770       7769  
      7638       7639       7650       7649       7759       7760       7771       7770  
      7639       7640       7651       7650       7760       7761       7772       7771  
      7640       7641       7652       7651       7761       7762       7773       7772  
      7641       7642       7653       7652       7762       7763       7774       7773  
      7642       7643       7654       7653       7763       7764       7775       7774  
      7643       7644       7655       7654       7764       7765       7776       7775  
      7644       7645       7656       7655       7765       7766       7777       7776  
      7646       7647       7658       7657       7767       7768       7779       7778  
      7647       7648       7659       7658       7768       7769       7780       7779  
      7648       7649       7660       7659       7769       7770       7781       7780  
      7649       7650       7661       7660       7770       7771       7782       7781  
      7650       7651       7662       7661       7771       7772       7783       7782  
      7651       7652       7663       7662       7772       7773       7784       7783  
      7652       7653       7664       7663       7773       7774       7785       7784  
      7653       7654       7665       7664       7774       7775       7786       7785  
      7654       7655       7666       7665       7775       7776       7787       7786  
      7655       7656       7667       7666       7776       7777       7788       7787  
      7657       7658       7669       7668       7778       7779       7790       7789  
      7658       7659       7670       7669       7779       7780       7791       7790  
      7659       7660       7671       7670       7780       7781       7792       7791  
      7660       7661       7672       7671       7781       7782       7793       7792  
      7661       7662       7673       7672       7782       7783       7794       7793  
      7662       7663       7674       7673       7783       7784       7795       7794  
      7663       7664       7675       7674       7784       7785       7796       7795  
      7664       7665       7676       7675       7785       7786       7797       7796  
      7665       7666       7677       7676       7786       7787       7798       7797  
      7666       7667       7678       7677       7787       7788       7799       7798  
      7668       7669       7680       7679       7789       7790       7801       7800  
      7669       7670       7681       7680       7790       7791       7802       7801  
      7670       7671       7682       7681       7791       7792       7803       7802  
      7671       7672       7683       7682       7792       7793       7804       7803  
      7672       7673       7684       7683       7793       7794       7805       7804  
      7673       7674       7685       7684       7794       7795       7806       7805  
      7674       7675       7686       7685       7795       7796       7807       7806  
      7675       7676       7687       7686       7796       7797       7808       7807  
      7676       7677       7688       7687       7797       7798       7809       7808  
      7677       7678       7689       7688       7798       7799       7810       7809  
      7679       7680       7691       7690       7800       7801       7812       7811  
      7680       7681       7692       7691       7801       7802       7813       7812  
      7681       7682       7693       7692       7802       7803       7814       7813  
      7682       7683       7694       7693       7803       7804       7815       7814  
      7683       7684       7695       7694       7804       7805       7816       7815  
      7684       7685       7696       7695       7805       7806       7817       7816  
      7685       7686       7697       7696       7806       7807       7818       7817  
      7686       7687       7698       7697       7807       7808       7819       7818  
      7687       7688       7699       7698       7808       7809       7820       7819  
      7688       7689       7700       7699       7809       7810       7821       7820  
      7690       7691       7702       7701       7811       7812       7823       7822  
      7691       7692       7703       7702       7812       7813       7824       7823  
      7692       7693       7704       7703       7813       7814       7825       7824  
      7693       7694       7705       7704       7814       7815       7826       7825  
      7694       7695       7706       7705       7815       7816       7827       7826  
      7695       7696       7707       7706       7816       7817       7828       7827  
      7696       7697       7708       7707       7817       7818       7829       7828  
      7697       7698       7709       7708       7818       7819       7830       7829  
      7698       7699       7710       7709       7819       7820       7831       7830  
      7699       7700       7711       7710       7820       7821       7832       7831  
      7701       7702       7713       7712       7822       7823       7834       7833  
      7702       7703       7714       7713       7823       7824       7835       7834  
      7703       7704       7715       7714       7824       7825       7836       7835  
      7704       7705       7716       7715       7825       7826       7837       7836  
      7705       7706       7717       7716       7826       7827       7838       7837  
      7706       7707       7718       7717       7827       7828       7839       7838  
      7707       7708       7719       7718       7828       7829       7840       7839  
      7708       7709       7720       7719       7829       7830       7841       7840  
      7709       7710       7721       7720       7830       7831       7842       7841  
      7710       7711       7722       7721       7831       7832       7843       7842  
      7712       7713       7724       7723       7833       7834       7845       7844  
      7713       7714       7725       7724       7834       7835       7846       7845  
      7714       7715       7726       7725       7835       7836       7847       7846  
      7715       7716       7727       7726       7836       7837       7848       7847  
      7716       7717       7728       7727       7837       7838       7849       7848  
      7717       7718       7729       7728       7838       7839       7850       7849  
      7718       7719       7730       7729       7839       7840       7851       7850  
      7719       7720       7731       7730       7840       7841       7852       7851  
      7720       7721       7732       7731       7841       7842       7853       7852  
      7721       7722       7733       7732       7842       7843       7854       7853  
      7723       7724       7735       7734       7844       7845       7856       7855  
      7724       7725       7736       7735       7845       7846       7857       7856  
      7725       7726       7737       7736       7846       7847       7858       7857  
      7726       7727       7738       7737       7847       7848       7859       7858  
      7727       7728       7739       7738       7848       7849       7860       7859  
      7728       7729       7740       7739       7849       7850       7861       7860  
      7729       7730       7741       7740       7850       7851       7862       7861  
      7730       7731       7742       7741       7851       7852       7863       7862  
      7731       7732       7743       7742       7852       7853       7864       7863  
      7732       7733       7744       7743       7853       7854       7865       7864  
      7745       7746       7757       7756       7866       7867       7878       7877  
      7746       7747       7758       7757       7867       7868       7879       7878  
      7747       7748       7759       7758       7868       7869       7880       7879  
      7748       7749       7760       7759       7869       7870       7881       7880  
      7749       7750       7761       7760       7870       7871       7882       7881  
      7750       7751       7762       7761       7871       7872       7883       7882  
      7751       7752       7763       7762       7872       7873       7884       7883  
      7752       7753       7764       7763       7873       7874       7885       7884  
      7753       7754       7765       7764       7874       7875       7886       7885  
      7754       7755       7766       7765       7875       7876       7887       7886  
      7756       7757       7768       7767       7877       7878       7889       7888  
      7757       7758       7769       7768       7878       7879       7890       7889  
      7758       7759       7770       7769       7879       7880       7891       7890  
      7759       7760       7771       7770       7880       7881       7892       7891  
      7760       7761       7772       7771       7881       7882       7893       7892  
      7761       7762       7773       7772       7882       7883       7894       7893  
      7762       7763       7774       7773       7883       7884       7895       7894  
      7763       7764       7775       7774       7884       7885       7896       7895  
      7764       7765       7776       7775       7885       7886       7897       7896  
      7765       7766       7777       7776       7886       7887       7898       7897  
      7767       7768       7779       7778       7888       7889       7900       7899  
      7768       7769       7780       7779       7889       7890       7901       7900  
      7769       7770       7781       7780       7890       7891       7902       7901  
      7770       7771       7782       7781       7891       7892       7903       7902  
      7771       7772       7783       7782       7892       7893       7904       7903  
      7772       7773       7784       7783       7893       7894       7905       7904  
      7773       7774       7785       7784       7894       7895       7906       7905  
      7774       7775       7786       7785       7895       7896       7907       7906  
      7775       7776       7787       7786       7896       7897       7908       7907  
      7776       7777       7788       7787       7897       7898       7909       7908  
      7778       7779       7790       7789       7899       7900       7911       7910  
      7779       7780       7791       7790       7900       7901       7912       7911  
      7780       7781       7792       7791       7901       7902       7913       7912  
      7781       7782       7793       7792       7902       7903       7914       7913  
      7782       7783       7794       7793       7903       7904       7915       7914  
      7783       7784       7795       7794       7904       7905       7916       7915  
      7784       7785       7796       7795       7905       7906       7917       7916  
      7785       7786       7797       7796       7906       7907       7918       7917  
      7786       7787       7798       7797       7907       7908       7919       7918  
      7787       7788       7799       7798       7908       7909       7920       7919  
      7789       7790       7801       7800       7910       7911       7922       7921  
      7790       7791       7802       7801       7911       7912       7923       7922  
      7791       7792       7803       7802       7912       7913       7924       7923  
      7792       7793       7804       7803       7913       7914       7925       7924  
      7793       7794       7805       7804       7914       7915       7926       7925  
      7794       7795       7806       7805       7915       7916       7927       7926  
      7795       7796       7807       7806       7916       7917       7928       7927  
      7796       7797       7808       7807       7917       7918       7929       7928  
      7797       7798       7809       7808       7918       7919       7930       7929  
      7798       7799       7810       7809       7919       7920       7931       7930  
      7800       7801       7812       7811       7921       7922       7933       7932  
      7801       7802       7813       7812       7922       7923       7934       7933  
      7802       7803       7814       7813       7923       7924       7935       7934  
      7803       7804       7815       7814       7924       7925       7936       7935  
      7804       7805       7816       7815       7925       7926       7937       7936  
      7805       7806       7817       7816       7926       7927       7938       7937  
      7806       7807       7818       7817       7927       7928       7939       7938  
      7807       7808       7819       7818       7928       7929       7940       7939  
      7808       7809       7820       7819       7929       7930       7941       7940  
      7809       7810       7821       7820       7930       7931       7942       7941  
      7811       7812       7823       7822       7932       7933       7944       7943  
      7812       7813       7824       7823       7933       7934       7945       7944  
      7813       7814       7825       7824       7934       7935       7946       7945  
      7814       7815       7826       7825       7935       7936       7947       7946  
      7815       7816       7827       7826       7936       7937       7948       7947  
      7816       7817       7828       7827       7937       7938       7949       7948  
      7817       7818       7829       7828       7938       7939       7950       7949  
      7818       7819       7830       7829       7939       7940       7951       7950  
      7819       7820       7831       7830       7940       7941       7952       7951  
      7820       7821       7832       7831       7941       7942       7953       7952  
      7822       7823       7834       7833       7943       7944       7955       7954  
      7823       7824       7835       7834       7944       7945       7956       7955  
      7824       7825       7836       7835       7945       7946       7957       7956  
      7825       7826       7837       7836       7946       7947       7958       7957  
      7826       7827       7838       7837       7947       7948       7959       7958  
      7827       7828       7839       7838       7948       7949       7960       7959  
      7828       7829       7840       7839       7949       7950       7961       7960  
      7829       7830       7841       7840       7950       7951       7962       7961  
      7830       7831       7842       7841       7951       7952       7963       7962  
      7831       7832       7843       7842       7952       7953       7964       7963  
      7833       7834       7845       7844       7954       7955       7966       7965  
      7834       7835       7846       7845       7955       7956       7967       7966  
      7835       7836       7847       7846       7956       7957       7968       7967  
      7836       7837       7848       7847       7957       7958       7969       7968  
      7837       7838       7849       7848       7958       7959       7970       7969  
      7838       7839       7850       7849       7959       7960       7971       7970  
      7839       7840       7851       7850       7960       7961       7972       7971  
      7840       7841       7852       7851       7961       7962       7973       7972  
      7841       7842       7853       7852       7962       7963       7974       7973  
      7842       7843       7854       7853       7963       7964       7975       7974  
      7844       7845       7856       7855       7965       7966       7977       7976  
      7845       7846       7857       7856       7966       7967       7978       7977  
      7846       7847       7858       7857       7967       7968       7979       7978  
      7847       7848       7859       7858       7968       7969       7980       7979  
      7848       7849       7860       7859       7969       7970       7981       7980  
      7849       7850       7861       7860       7970       7971       7982       7981  
      7850       7851       7862       7861       7971       7972       7983       7982  
      7851       7852       7863       7862       7972       7973       7984       7983  
      7852       7853       7864       7863       7973       7974       7985       7984  
      7853       7854       7865       7864       7974       7975       7986       7985  
      7866       7867       7878       7877       7987       7988       7999       7998  
      7867       7868       7879       7878       7988       7989       8000       7999  
      7868       7869       7880       7879       7989       7990       8001       8000  
      7869       7870       7881       7880       7990       7991       8002       8001  
      7870       7871       7882       7881       7991       7992       8003       8002  
      7871       7872       7883       7882       7992       7993       8004       8003  
      7872       7873       7884       7883       7993       7994       8005       8004  
      7873       7874       7885       7884       7994       7995       8006       8005  
      7874       7875       7886       7885       7995       7996       8007       8006  
      7875       7876       7887       7886       7996       7997       8008       8007  
      7877       7878       7889       7888       7998       7999       8010       8009  
      7878       7879       7890       7889       7999       8000       8011       8010  
      7879       7880       7891       7890       8000       8001       8012       8011  
      7880       7881       7892       7891       8001       8002       8013       8012  
      7881       7882       7893       7892       8002       8003       8014       8013  
      7882       7883       7894       7893       8003       8004       8015       8014  
      7883       7884       7895       7894       8004       8005       8016       8015  
      7884       7885       7896       7895       8005       8006       8017       8016  
      7885       7886       7897       7896       8006       8007       8018       8017  
      7886       7887       7898       7897       8007       8008       8019       8018  
      7888       7889       7900       7899       8009       8010       8021       8020  
      7889       7890       7901       7900       8010       8011       8022       8021  
      7890       7891       7902       7901       8011       8012       8023       8022  
      7891       7892       7903       7902       8012       8013       8024       8023  
      7892       7893       7904       7903       8013       8014       8025       8024  
      7893       7894       7905       7904       8014       8015       8026       8025  
      7894       7895       7906       7905       8015       8016       8027       8026  
      7895       7896       7907       7906       8016       8017       8028       8027  
      7896       7897       7908       7907       8017       8018       8029       8028  
      7897       7898       7909       7908       8018       8019       8030       8029  
      7899       7900       7911       7910       8020       8021       8032       8031  
      7900       7901       7912       7911       8021       8022       8033       8032  
      7901       7902       7913       7912       8022       8023       8034       8033  
      7902       7903       7914       7913       8023       8024       8035       8034  
      7903       7904       7915       7914       8024       8025       8036       8035  
      7904       7905       7916       7915       8025       8026       8037       8036  
      7905       7906       7917       7916       8026       8027       8038       8037  
      7906       7907       7918       7917       8027       8028       8039       8038  
      7907       7908       7919       7918       8028       8029       8040       8039  
      7908       7909       7920       7919       8029       8030       8041       8040  
      7910       7911       7922       7921       8031       8032       8043       8042  
      7911       7912       7923       7922       8032       8033       8044       8043  
      7912       7913       7924       7923       8033       8034       8045       8044  
      7913       7914       7925       7924       8034       8035       8046       8045  
      7914       7915       7926       7925       8035       8036       8047       8046  
      7915       7916       7927       7926       8036       8037       8048       8047  
      7916       7917       7928       7927       8037       8038       8049       8048  
      7917       7918       7929       7928       8038       8039       8050       8049  
      7918       7919       7930       7929       8039       8040       8051       8050  
      7919       7920       7931       7930       8040       8041       8052       8051  
      7921       7922       7933       7932       8042       8043       8054       8053  
      7922       7923       7934       7933       8043       8044       8055       8054  
      7923       7924       7935       7934       8044       8045       8056       8055  
      7924       7925       7936       7935       8045       8046       8057       8056  
      7925       7926       7937       7936       8046       8047       8058       8057  
      7926       7927       7938       7937       8047       8048       8059       8058  
      7927       7928       7939       7938       8048       8049       8060       8059  
      7928       7929       7940       7939       8049       8050       8061       8060  
      7929       7930       7941       7940       8050       8051       8062       8061  
      7930       7931       7942       7941       8051       8052       8063       8062  
      7932       7933       7944       7943       8053       8054       8065       8064  
      7933       7934       7945       7944       8054       8055       8066       8065  
      7934       7935       7946       7945       8055       8056       8067       8066  
      7935       7936       7947       7946       8056       8057       8068       8067  
      7936       7937       7948       7947       8057       8058       8069       8068  
      7937       7938       7949       7948       8058       8059       8070       8069  
      7938       7939       7950       7949       8059       8060       8071       8070  
      7939       7940       7951       7950       8060       8061       8072       8071  
      7940       7941       7952       7951       8061       8062       8073       8072  
      7941       7942       7953       7952       8062       8063       8074       8073  
      7943       7944       7955       7954       8064       8065       8076       8075  
      7944       7945       7956       7955       8065       8066       8077       8076  
      7945       7946       7957       7956       8066       8067       8078       8077  
      7946       7947       7958       7957       8067       8068       8079       8078  
      7947       7948       7959       7958       8068       8069       8080       8079  
      7948       7949       7960       7959       8069       8070       8081       8080  
      7949       7950       7961       7960       8070       8071       8082       8081  
      7950       7951       7962       7961       8071       8072       8083       8082  
      7951       7952       7963       7962       8072       8073       8084       8083  
      7952       7953       7964       7963       8073       8074       8085       8084  
      7954       7955       7966       7965       8075       8076       8087       8086  
      7955       7956       7967       7966       8076       8077       8088       8087  
      7956       7957       7968       7967       8077       8078       8089       8088  
      7957       7958       7969       7968       8078       8079       8090       8089  
      7958       7959       7970       7969       8079       8080       8091       8090  
      7959       7960       7971       7970       8080       8081       8092       8091  
      7960       7961       7972       7971       8081       8082       8093       8092  
      7961       7962       7973       7972       8082       8083       8094       8093  
      7962       7963       7974       7973       8083       8084       8095       8094  
      7963       7964       7975       7974       8084       8085       8096       8095  
      7965       7966       7977       7976       8086       8087       8098       8097  
      7966       7967       7978       7977       8087       8088       8099       8098  
      7967       7968       7979       7978       8088       8089       8100       8099  
      7968       7969       7980       7979       8089       8090       8101       8100  
      7969       7970       7981       7980       8090       8091       8102       8101  
      7970       7971       7982       7981       8091       8092       8103       8102  
      7971       7972       7983       7982       8092       8093       8104       8103  
      7972       7973       7984       7983       8093       8094       8105       8104  
      7973       7974       7985       7984       8094       8095       8106       8105  
      7974       7975       7986       7985       8095       8096       8107       8106  
      7987       7988       7999       7998       8108       8109       8120       8119  
      7988       7989       8000       7999       8109       8110       8121       8120  
      7989       7990       8001       8000       8110       8111       8122       8121  
      7990       7991       8002       8001       8111       8112       8123       8122  
      7991       7992       8003       8002       8112       8113       8124       8123  
      7992       7993       8004       8003       8113       8114       8125       8124  
      7993       7994       8005       8004       8114       8115       8126       8125  
      7994       7995       8006       8005       8115       8116       8127       8126  
      7995       7996       8007       8006       8116       8117       8128       8127  
      7996       7997       8008       8007       8117       8118       8129       8128  
      7998       7999       8010       8009       8119       8120       8131       8130  
      7999       8000       8011       8010       8120       8121       8132       8131  
      8000       8001       8012       8011       8121       8122       8133       8132  
      8001       8002       8013       8012       8122       8123       8134       8133  
      8002       8003       8014       8013       8123       8124       8135       8134  
      8003       8004       8015       8014       8124       8125       8136       8135  
      8004       8005       8016       8015       8125       8126       8137       8136  
      8005       8006       8017       8016       8126       8127       8138       8137  
      8006       8007       8018       8017       8127       8128       8139       8138  
      8007       8008       8019       8018       8128       8129       8140       8139  
      8009       8010       8021       8020       8130       8131       8142       8141  
      8010       8011       8022       8021       8131       8132       8143       8142  
      8011       8012       8023       8022       8132       8133       8144       8143  
      8012       8013       8024       8023       8133       8134       8145       8144  
      8013       8014       8025       8024       8134       8135       8146       8145  
      8014       8015       8026       8025       8135       8136       8147       8146  
      8015       8016       8027       8026       8136       8137       8148       8147  
      8016       8017       8028       8027       8137       8138       8149       8148  
      8017       8018       8029       8028       8138       8139       8150       8149  
      8018       8019       8030       8029       8139       8140       8151       8150  
      8020       8021       8032       8031       8141       8142       8153       8152  
      8021       8022       8033       8032       8142       8143       8154       8153  
      8022       8023       8034       8033       8143       8144       8155       8154  
      8023       8024       8035       8034       8144       8145       8156       8155  
      8024       8025       8036       8035       8145       8146       8157       8156  
      8025       8026       8037       8036       8146       8147       8158       8157  
      8026       8027       8038       8037       8147       8148       8159       8158  
      8027       8028       8039       8038       8148       8149       8160       8159  
      8028       8029       8040       8039       8149       8150       8161       8160  
      8029       8030       8041       8040       8150       8151       8162       8161  
      8031       8032       8043       8042       8152       8153       8164       8163  
      8032       8033       8044       8043       8153       8154       8165       8164  
      8033       8034       8045       8044       8154       8155       8166       8165  
      8034       8035       8046       8045       8155       8156       8167       8166  
      8035       8036       8047       8046       8156       8157       8168       8167  
      8036       8037       8048       8047       8157       8158       8169       8168  
      8037       8038       8049       8048       8158       8159       8170       8169  
      8038       8039       8050       8049       8159       8160       8171       8170  
      8039       8040       8051       8050       8160       8161       8172       8171  
      8040       8041       8052       8051       8161       8162       8173       8172  
      8042       8043       8054       8053       8163       8164       8175       8174  
      8043       8044       8055       8054       8164       8165       8176       8175  
      8044       8045       8056       8055       8165       8166       8177       8176  
      8045       8046       8057       8056       8166       8167       8178       8177  
      8046       8047       8058       8057       8167       8168       8179       8178  
      8047       8048       8059       8058       8168       8169       8180       8179  
      8048       8049       8060       8059       8169       8170       8181       8180  
      8049       8050       8061       8060       8170       8171       8182       8181  
      8050       8051       8062       8061       8171       8172       8183       8182  
      8051       8052       8063       8062       8172       8173       8184       8183  
      8053       8054       8065       8064       8174       8175       8186       8185  
      8054       8055       8066       8065       8175       8176       8187       8186  
      8055       8056       8067       8066       8176       8177       8188       8187  
      8056       8057       8068       8067       8177       8178       8189       8188  
      8057       8058       8069       8068       8178       8179       8190       8189  
      8058       8059       8070       8069       8179       8180       8191       8190  
      8059       8060       8071       8070       8180       8181       8192       8191  
      8060       8061       8072       8071       8181       8182       8193       8192  
      8061       8062       8073       8072       8182       8183       8194       8193  
      8062       8063       8074       8073       8183       8184       8195       8194  
      8064       8065       8076       8075       8185       8186       8197       8196  
      8065       8066       8077       8076       8186       8187       8198       8197  
      8066       8067       8078       8077       8187       8188       8199       8198  
      8067       8068       8079       8078       8188       8189       8200       8199  
      8068       8069       8080       8079       8189       8190       8201       8200  
      8069       8070       8081       8080       8190       8191       8202       8201  
      8070       8071       8082       8081       8191       8192       8203       8202  
      8071       8072       8083       8082       8192       8193       8204       8203  
      8072       8073       8084       8083       8193       8194       8205       8204  
      8073       8074       8085       8084       8194       8195       8206       8205  
      8075       8076       8087       8086       8196       8197       8208       8207  
      8076       8077       8088       8087       8197       8198       8209       8208  
      8077       8078       8089       8088       8198       8199       8210       8209  
      8078       8079       8090       8089       8199       8200       8211       8210  
      8079       8080       8091       8090       8200       8201       8212       8211  
      8080       8081       8092       8091       8201       8202       8213       8212  
      8081       8082       8093       8092       8202       8203       8214       8213  
      8082       8083       8094       8093       8203       8204       8215       8214  
      8083       8084       8095       8094       8204       8205       8216       8215  
      8084       8085       8096       8095       8205       8206       8217       8216  
      8086       8087       8098       8097       8207       8208       8219       8218  
      8087       8088       8099       8098       8208       8209       8220       8219  
      8088       8089       8100       8099       8209       8210       8221       8220  
      8089       8090       8101       8100       8210       8211       8222       8221  
      8090       8091       8102       8101       8211       8212       8223       8222  
      8091       8092       8103       8102       8212       8213       8224       8223  
      8092       8093       8104       8103       8213       8214       8225       8224  
      8093       8094       8105       8104       8214       8215       8226       8225  
      8094       8095       8106       8105       8215       8216       8227       8226  
      8095       8096       8107       8106       8216       8217       8228       8227  
      8108       8109       8120       8119       8229       8230       8241       8240  
      8109       8110       8121       8120       8230       8231       8242       8241  
      8110       8111       8122       8121       8231       8232       8243       8242  
      8111       8112       8123       8122       8232       8233       8244       8243  
      8112       8113       8124       8123       8233       8234       8245       8244  
      8113       8114       8125       8124       8234       8235       8246       8245  
      8114       8115       8126       8125       8235       8236       8247       8246  
      8115       8116       8127       8126       8236       8237       8248       8247  
      8116       8117       8128       8127       8237       8238       8249       8248  
      8117       8118       8129       8128       8238       8239       8250       8249  
      8119       8120       8131       8130       8240       8241       8252       8251  
      8120       8121       8132       8131       8241       8242       8253       8252  
      8121       8122       8133       8132       8242       8243       8254       8253  
      8122       8123       8134       8133       8243       8244       8255       8254  
      8123       8124       8135       8134       8244       8245       8256       8255  
      8124       8125       8136       8135       8245       8246       8257       8256  
      8125       8126       8137       8136       8246       8247       8258       8257  
      8126       8127       8138       8137       8247       8248       8259       8258  
      8127       8128       8139       8138       8248       8249       8260       8259  
      8128       8129       8140       8139       8249       8250       8261       8260  
      8130       8131       8142       8141       8251       8252       8263       8262  
      8131       8132       8143       8142       8252       8253       8264       8263  
      8132       8133       8144       8143       8253       8254       8265       8264  
      8133       8134       8145       8144       8254       8255       8266       8265  
      8134       8135       8146       8145       8255       8256       8267       8266  
      8135       8136       8147       8146       8256       8257       8268       8267  
      8136       8137       8148       8147       8257       8258       8269       8268  
      8137       8138       8149       8148       8258       8259       8270       8269  
      8138       8139       8150       8149       8259       8260       8271       8270  
      8139       8140       8151       8150       8260       8261       8272       8271  
      8141       8142       8153       8152       8262       8263       8274       8273  
      8142       8143       8154       8153       8263       8264       8275       8274  
      8143       8144       8155       8154       8264       8265       8276       8275  
      8144       8145       8156       8155       8265       8266       8277       8276  
      8145       8146       8157       8156       8266       8267       8278       8277  
      8146       8147       8158       8157       8267       8268       8279       8278  
      8147       8148       8159       8158       8268       8269       8280       8279  
      8148       8149       8160       8159       8269       8270       8281       8280  
      8149       8150       8161       8160       8270       8271       8282       8281  
      8150       8151       8162       8161       8271       8272       8283       8282  
      8152       8153       8164       8163       8273       8274       8285       8284  
      8153       8154       8165       8164       8274       8275       8286       8285  
      8154       8155       8166       8165       8275       8276       8287       8286  
      8155       8156       8167       8166       8276       8277       8288       8287  
      8156       8157       8168       8167       8277       8278       8289       8288  
      8157       8158       8169       8168       8278       8279       8290       8289  
      8158       8159       8170       8169       8279       8280       8291       8290  
      8159       8160       8171       8170       8280       8281       8292       8291  
      8160       8161       8172       8171       8281       8282       8293       8292  
      8161       8162       8173       8172       8282       8283       8294       8293  
      8163       8164       8175       8174       8284       8285       8296       8295  
      8164       8165       8176       8175       8285       8286       8297       8296  
      8165       8166       8177       8176       8286       8287       8298       8297  
      8166       8167       8178       8177       8287       8288       8299       8298  
      8167       8168       8179       8178       8288       8289       8300       8299  
      8168       8169       8180       8179       8289       8290       8301       8300  
      8169       8170       8181       8180       8290       8291       8302       8301  
      8170       8171       8182       8181       8291       8292       8303       8302  
      8171       8172       8183       8182       8292       8293       8304       8303  
      8172       8173       8184       8183       8293       8294       8305       8304  
      8174       8175       8186       8185       8295       8296       8307       8306  
      8175       8176       8187       8186       8296       8297       8308       8307  
      8176       8177       8188       8187       8297       8298       8309       8308  
      8177       8178       8189       8188       8298       8299       8310       8309  
      8178       8179       8190       8189       8299       8300       8311       8310  
      8179       8180       8191       8190       8300       8301       8312       8311  
      8180       8181       8192       8191       8301       8302       8313       8312  
      8181       8182       8193       8192       8302       8303       8314       8313  
      8182       8183       8194       8193       8303       8304       8315       8314  
      8183       8184       8195       8194       8304       8305       8316       8315  
      8185       8186       8197       8196       8306       8307       8318       8317  
      8186       8187       8198       8197       8307       8308       8319       8318  
      8187       8188       8199       8198       8308       8309       8320       8319  
      8188       8189       8200       8199       8309       8310       8321       8320  
      8189       8190       8201       8200       8310       8311       8322       8321  
      8190       8191       8202       8201       8311       8312       8323       8322  
      8191       8192       8203       8202       8312       8313       8324       8323  
      8192       8193       8204       8203       8313       8314       8325       8324  
      8193       8194       8205       8204       8314       8315       8326       8325  
      8194       8195       8206       8205       8315       8316       8327       8326  
      8196       8197       8208       8207       8317       8318       8329       8328  
      8197       8198       8209       8208       8318       8319       8330       8329  
      8198       8199       8210       8209       8319       8320       8331       8330  
      8199       8200       8211       8210       8320       8321       8332       8331  
      8200       8201       8212       8211       8321       8322       8333       8332  
      8201       8202       8213       8212       8322       8323       8334       8333  
      8202       8203       8214       8213       8323       8324       8335       8334  
      8203       8204       8215       8214       8324       8325       8336       8335  
      8204       8205       8216       8215       8325       8326       8337       8336  
      8205       8206       8217       8216       8326       8327       8338       8337  
      8207       8208       8219       8218       8328       8329       8340       8339  
      8208       8209       8220       8219       8329       8330       8341       8340  
      8209       8210       8221       8220       8330       8331       8342       8341  
      8210       8211       8222       8221       8331       8332       8343       8342  
      8211       8212       8223       8222       8332       8333       8344       8343  
      8212       8213       8224       8223       8333       8334       8345       8344  
      8213       8214       8225       8224       8334       8335       8346       8345  
      8214       8215       8226       8225       8335       8336       8347       8346  
      8215       8216       8227       8226       8336       8337       8348       8347  
      8216       8217       8228       8227       8337       8338       8349       8348  
      8229       8230       8241       8240       8350       8351       8362       8361  
      8230       8231       8242       8241       8351       8352       8363       8362  
      8231       8232       8243       8242       8352       8353       8364       8363  
      8232       8233       8244       8243       8353       8354       8365       8364  
      8233       8234       8245       8244       8354       8355       8366       8365  
      8234       8235       8246       8245       8355       8356       8367       8366  
      8235       8236       8247       8246       8356       8357       8368       8367  
      8236       8237       8248       8247       8357       8358       8369       8368  
      8237       8238       8249       8248       8358       8359       8370       8369  
      8238       8239       8250       8249       8359       8360       8371       8370  
      8240       8241       8252       8251       8361       8362       8373       8372  
      8241       8242       8253       8252       8362       8363       8374       8373  
      8242       8243       8254       8253       8363       8364       8375       8374  
      8243       8244       8255       8254       8364       8365       8376       8375  
      8244       8245       8256       8255       8365       8366       8377       8376  
      8245       8246       8257       8256       8366       8367       8378       8377  
      8246       8247       8258       8257       8367       8368       8379       8378  
      8247       8248       8259       8258       8368       8369       8380       8379  
      8248       8249       8260       8259       8369       8370       8381       8380  
      8249       8250       8261       8260       8370       8371       8382       8381  
      8251       8252       8263       8262       8372       8373       8384       8383  
      8252       8253       8264       8263       8373       8374       8385       8384  
      8253       8254       8265       8264       8374       8375       8386       8385  
      8254       8255       8266       8265       8375       8376       8387       8386  
      8255       8256       8267       8266       8376       8377       8388       8387  
      8256       8257       8268       8267       8377       8378       8389       8388  
      8257       8258       8269       8268       8378       8379       8390       8389  
      8258       8259       8270       8269       8379       8380       8391       8390  
      8259       8260       8271       8270       8380       8381       8392       8391  
      8260       8261       8272       8271       8381       8382       8393       8392  
      8262       8263       8274       8273       8383       8384       8395       8394  
      8263       8264       8275       8274       8384       8385       8396       8395  
      8264       8265       8276       8275       8385       8386       8397       8396  
      8265       8266       8277       8276       8386       8387       8398       8397  
      8266       8267       8278       8277       8387       8388       8399       8398  
      8267       8268       8279       8278       8388       8389       8400       8399  
      8268       8269       8280       8279       8389       8390       8401       8400  
      8269       8270       8281       8280       8390       8391       8402       8401  
      8270       8271       8282       8281       8391       8392       8403       8402  
      8271       8272       8283       8282       8392       8393       8404       8403  
      8273       8274       8285       8284       8394       8395       8406       8405  
      8274       8275       8286       8285       8395       8396       8407       8406  
      8275       8276       8287       8286       8396       8397       8408       8407  
      8276       8277       8288       8287       8397       8398       8409       8408  
      8277       8278       8289       8288       8398       8399       8410       8409  
      8278       8279       8290       8289       8399       8400       8411       8410  
      8279       8280       8291       8290       8400       8401       8412       8411  
      8280       8281       8292       8291       8401       8402       8413       8412  
      8281       8282       8293       8292       8402       8403       8414       8413  
      8282       8283       8294       8293       8403       8404       8415       8414  
      8284       8285       8296       8295       8405       8406       8417       8416  
      8285       8286       8297       8296       8406       8407       8418       8417  
      8286       8287       8298       8297       8407       8408       8419       8418  
      8287       8288       8299       8298       8408       8409       8420       8419  
      8288       8289       8300       8299       8409       8410       8421       8420  
      8289       8290       8301       8300       8410       8411       8422       8421  
      8290       8291       8302       8301       8411       8412       8423       8422  
      8291       8292       8303       8302       8412       8413       8424       8423  
      8292       8293       8304       8303       8413       8414       8425       8424  
      8293       8294       8305       8304       8414       8415       8426       8425  
      8295       8296       8307       8306       8416       8417       8428       8427  
      8296       8297       8308       8307       8417       8418       8429       8428  
      8297       8298       8309       8308       8418       8419       8430       8429  
      8298       8299       8310       8309       8419       8420       8431       8430  
      8299       8300       8311       8310       8420       8421       8432       8431  
      8300       8301       8312       8311       8421       8422       8433       8432  
      8301       8302       8313       8312       8422       8423       8434       8433  
      8302       8303       8314       8313       8423       8424       8435       8434  
      8303       8304       8315       8314       8424       8425       8436       8435  
      8304       8305       8316       8315       8425       8426       8437       8436  
      8306       8307       8318       8317       8427       8428       8439       8438  
      8307       8308       8319       8318       8428       8429       8440       8439  
      8308       8309       8320       8319       8429       8430       8441       8440  
      8309       8310       8321       8320       8430       8431       8442       8441  
      8310       8311       8322       8321       8431       8432       8443       8442  
      8311       8312       8323       8322       8432       8433       8444       8443  
      8312       8313       8324       8323       8433       8434       8445       8444  
      8313       8314       8325       8324       8434       8435       8446       8445  
      8314       8315       8326       8325       8435       8436       8447       8446  
      8315       8316       8327       8326       8436       8437       8448       8447  
      8317       8318       8329       8328       8438       8439       8450       8449  
      8318       8319       8330       8329       8439       8440       8451       8450  
      8319       8320       8331       8330       8440       8441       8452       8451  
      8320       8321       8332       8331       8441       8442       8453       8452  
      8321       8322       8333       8332       8442       8443       8454       8453  
      8322       8323       8334       8333       8443       8444       8455       8454  
      8323       8324       8335       8334       8444       8445       8456       8455  
      8324       8325       8336       8335       8445       8446       8457       8456  
      8325       8326       8337       8336       8446       8447       8458       8457  
      8326       8327       8338       8337       8447       8448       8459       8458  
      8328       8329       8340       8339       8449       8450       8461       8460  
      8329       8330       8341       8340       8450       8451       8462       8461  
      8330       8331       8342       8341       8451       8452       8463       8462  
      8331       8332       8343       8342       8452       8453       8464       8463  
      8332       8333       8344       8343       8453       8454       8465       8464  
      8333       8334       8345       8344       8454       8455       8466       8465  
      8334       8335       8346       8345       8455       8456       8467       8466  
      8335       8336       8347       8346       8456       8457       8468       8467  
      8336       8337       8348       8347       8457       8458       8469       8468  
      8337       8338       8349       8348       8458       8459       8470       8469  
      8350       8351       8362       8361       8471       8472       8483       8482  
      8351       8352       8363       8362       8472       8473       8484       8483  
      8352       8353       8364       8363       8473       8474       8485       8484  
      8353       8354       8365       8364       8474       8475       8486       8485  
      8354       8355       8366       8365       8475       8476       8487       8486  
      8355       8356       8367       8366       8476       8477       8488       8487  
      8356       8357       8368       8367       8477       8478       8489       8488  
      8357       8358       8369       8368       8478       8479       8490       8489  
      8358       8359       8370       8369       8479       8480       8491       8490  
      8359       8360       8371       8370       8480       8481       8492       8491  
      8361       8362       8373       8372       8482       8483       8494       8493  
      8362       8363       8374       8373       8483       8484       8495       8494  
      8363       8364       8375       8374       8484       8485       8496       8495  
      8364       8365       8376       8375       8485       8486       8497       8496  
      8365       8366       8377       8376       8486       8487       8498       8497  
      8366       8367       8378       8377       8487       8488       8499       8498  
      8367       8368       8379       8378       8488       8489       8500       8499  
      8368       8369       8380       8379       8489       8490       8501       8500  
      8369       8370       8381       8380       8490       8491       8502       8501  
      8370       8371       8382       8381       8491       8492       8503       8502  
      8372       8373       8384       8383       8493       8494       8505       8504  
      8373       8374       8385       8384       8494       8495       8506       8505  
      8374       8375       8386       8385       8495       8496       8507       8506  
      8375       8376       8387       8386       8496       8497       8508       8507  
      8376       8377       8388       8387       8497       8498       8509       8508  
      8377       8378       8389       8388       8498       8499       8510       8509  
      8378       8379       8390       8389       8499       8500       8511       8510  
      8379       8380       8391       8390       8500       8501       8512       8511  
      8380       8381       8392       8391       8501       8502       8513       8512  
      8381       8382       8393       8392       8502       8503       8514       8513  
      8383       8384       8395       8394       8504       8505       8516       8515  
      8384       8385       8396       8395       8505       8506       8517       8516  
      8385       8386       8397       8396       8506       8507       8518       8517  
      8386       8387       8398       8397       8507       8508       8519       8518  
      8387       8388       8399       8398       8508       8509       8520       8519  
      8388       8389       8400       8399       8509       8510       8521       8520  
      8389       8390       8401       8400       8510       8511       8522       8521  
      8390       8391       8402       8401       8511       8512       8523       8522  
      8391       8392       8403       8402       8512       8513       8524       8523  
      8392       8393       8404       8403       8513       8514       8525       8524  
      8394       8395       8406       8405       8515       8516       8527       8526  
      8395       8396       8407       8406       8516       8517       8528       8527  
      8396       8397       8408       8407       8517       8518       8529       8528  
      8397       8398       8409       8408       8518       8519       8530       8529  
      8398       8399       8410       8409       8519       8520       8531       8530  
      8399       8400       8411       8410       8520       8521       8532       8531  
      8400       8401       8412       8411       8521       8522       8533       8532  
      8401       8402       8413       8412       8522       8523       8534       8533  
      8402       8403       8414       8413       8523       8524       8535       8534  
      8403       8404       8415       8414       8524       8525       8536       8535  
      8405       8406       8417       8416       8526       8527       8538       8537  
      8406       8407       8418       8417       8527       8528       8539       8538  
      8407       8408       8419       8418       8528       8529       8540       8539  
      8408       8409       8420       8419       8529       8530       8541       8540  
      8409       8410       8421       8420       8530       8531       8542       8541  
      8410       8411       8422       8421       8531       8532       8543       8542  
      8411       8412       8423       8422       8532       8533       8544       8543  
      8412       8413       8424       8423       8533       8534       8545       8544  
      8413       8414       8425       8424       8534       8535       8546       8545  
      8414       8415       8426       8425       8535       8536       8547       8546  
      8416       8417       8428       8427       8537       8538       8549       8548  
      8417       8418       8429       8428       8538       8539       8550       8549  
      8418       8419       8430       8429       8539       8540       8551       8550  
      8419       8420       8431       8430       8540       8541       8552       8551  
      8420       8421       8432       8431       8541       8542       8553       8552  
      8421       8422       8433       8432       8542       8543       8554       8553  
      8422       8423       8434       8433       8543       8544       8555       8554  
      8423       8424       8435       8434       8544       8545       8556       8555  
      8424       8425       8436       8435       8545       8546       8557       8556  
      8425       8426       8437       8436       8546       8547       8558       8557  
      8427       8428       8439       8438       8548       8549       8560       8559  
      8428       8429       8440       8439       8549       8550       8561       8560  
      8429       8430       8441       8440       8550       8551       8562       8561  
      8430       8431       8442       8441       8551       8552       8563       8562  
      8431       8432       8443       8442       8552       8553       8564       8563  
      8432       8433       8444       8443       8553       8554       8565       8564  
      8433       8434       8445       8444       8554       8555       8566       8565  
      8434       8435       8446       8445       8555       8556       8567       8566  
      8435       8436       8447       8446       8556       8557       8568       8567  
      8436       8437       8448       8447       8557       8558       8569       8568  
      8438       8439       8450       8449       8559       8560       8571       8570  
      8439       8440       8451       8450       8560       8561       8572       8571  
      8440       8441       8452       8451       8561       8562       8573       8572  
      8441       8442       8453       8452       8562       8563       8574       8573  
      8442       8443       8454       8453       8563       8564       8575       8574  
      8443       8444       8455       8454       8564       8565       8576       8575  
      8444       8445       8456       8455       8565       8566       8577       8576  
      8445       8446       8457       8456       8566       8567       8578       8577  
      8446       8447       8458       8457       8567       8568       8579       8578  
      8447       8448       8459       8458       8568       8569       8580       8579  
      8449       8450       8461       8460       8570       8571       8582       8581  
      8450       8451       8462       8461       8571       8572       8583       8582  
      8451       8452       8463       8462       8572       8573       8584       8583  
      8452       8453       8464       8463       8573       8574       8585       8584  
      8453       8454       8465       8464       8574       8575       8586       8585  
      8454       8455       8466       8465       8575       8576       8587       8586  
      8455       8456       8467       8466       8576       8577       8588       8587  
      8456       8457       8468       8467       8577       8578       8589       8588  
      8457       8458       8469       8468       8578       8579       8590       8589  
      8458       8459       8470       8469       8579       8580       8591       8590  
      8471       8472       8483       8482       8592       8593       8604       8603  
      8472       8473       8484       8483       8593       8594       8605       8604  
      8473       8474       8485       8484       8594       8595       8606       8605  
      8474       8475       8486       8485       8595       8596       8607       8606  
      8475       8476       8487       8486       8596       8597       8608       8607  
      8476       8477       8488       8487       8597       8598       8609       8608  
      8477       8478       8489       8488       8598       8599       8610       8609  
      8478       8479       8490       8489       8599       8600       8611       8610  
      8479       8480       8491       8490       8600       8601       8612       8611  
      8480       8481       8492       8491       8601       8602       8613       8612  
      8482       8483       8494       8493       8603       8604       8615       8614  
      8483       8484       8495       8494       8604       8605       8616       8615  
      8484       8485       8496       8495       8605       8606       8617       8616  
      8485       8486       8497       8496       8606       8607       8618       8617  
      8486       8487       8498       8497       8607       8608       8619       8618  
      8487       8488       8499       8498       8608       8609       8620       8619  
      8488       8489       8500       8499       8609       8610       8621       8620  
      8489       8490       8501       8500       8610       8611       8622       8621  
      8490       8491       8502       8501       8611       8612       8623       8622  
      8491       8492       8503       8502       8612       8613       8624       8623  
      8493       8494       8505       8504       8614       8615       8626       8625  
      8494       8495       8506       8505       8615       8616       8627       8626  
      8495       8496       8507       8506       8616       8617       8628       8627  
      8496       8497       8508       8507       8617       8618       8629       8628  
      8497       8498       8509       8508       8618       8619       8630       8629  
      8498       8499       8510       8509       8619       8620       8631       8630  
      8499       8500       8511       8510       8620       8621       8632       8631  
      8500       8501       8512       8511       8621       8622       8633       8632  
      8501       8502       8513       8512       8622       8623       8634       8633  
      8502       8503       8514       8513       8623       8624       8635       8634  
      8504       8505       8516       8515       8625       8626       8637       8636  
      8505       8506       8517       8516       8626       8627       8638       8637  
      8506       8507       8518       8517       8627       8628       8639       8638  
      8507       8508       8519       8518       8628       8629       8640       8639  
      8508       8509       8520       8519       8629       8630       8641       8640  
      8509       8510       8521       8520       8630       8631       8642       8641  
      8510       8511       8522       8521       8631       8632       8643       8642  
      8511       8512       8523       8522       8632       8633       8644       8643  
      8512       8513       8524       8523       8633       8634       8645       8644  
      8513       8514       8525       8524       8634       8635       8646       8645  
      8515       8516       8527       8526       8636       8637       8648       8647  
      8516       8517       8528       8527       8637       8638       8649       8648  
      8517       8518       8529       8528       8638       8639       8650       8649  
      8518       8519       8530       8529       8639       8640       8651       8650  
      8519       8520       8531       8530       8640       8641       8652       8651  
      8520       8521       8532       8531       8641       8642       8653       8652  
      8521       8522       8533       8532       8642       8643       8654       8653  
      8522       8523       8534       8533       8643       8644       8655       8654  
      8523       8524       8535       8534       8644       8645       8656       8655  
      8524       8525       8536       8535       8645       8646       8657       8656  
      8526       8527       8538       8537       8647       8648       8659       8658  
      8527       8528       8539       8538       8648       8649       8660       8659  
      8528       8529       8540       8539       8649       8650       8661       8660  
      8529       8530       8541       8540       8650       8651       8662       8661  
      8530       8531       8542       8541       8651       8652       8663       8662  
      8531       8532       8543       8542       8652       8653       8664       8663  
      8532       8533       8544       8543       8653       8654       8665       8664  
      8533       8534       8545       8544       8654       8655       8666       8665  
      8534       8535       8546       8545       8655       8656       8667       8666  
      8535       8536       8547       8546       8656       8657       8668       8667  
      8537       8538       8549       8548       8658       8659       8670       8669  
      8538       8539       8550       8549       8659       8660       8671       8670  
      8539       8540       8551       8550       8660       8661       8672       8671  
      8540       8541       8552       8551       8661       8662       8673       8672  
      8541       8542       8553       8552       8662       8663       8674       8673  
      8542       8543       8554       8553       8663       8664       8675       8674  
      8543       8544       8555       8554       8664       8665       8676       8675  
      8544       8545       8556       8555       8665       8666       8677       8676  
      8545       8546       8557       8556       8666       8667       8678       8677  
      8546       8547       8558       8557       8667       8668       8679       8678  
      8548       8549       8560       8559       8669       8670       8681       8680  
      8549       8550       8561       8560       8670       8671       8682       8681  
      8550       8551       8562       8561       8671       8672       8683       8682  
      8551       8552       8563       8562       8672       8673       8684       8683  
      8552       8553       8564       8563       8673       8674       8685       8684  
      8553       8554       8565       8564       8674       8675       8686       8685  
      8554       8555       8566       8565       8675       8676       8687       8686  
      8555       8556       8567       8566       8676       8677       8688       8687  
      8556       8557       8568       8567       8677       8678       8689       8688  
      8557       8558       8569       8568       8678       8679       8690       8689  
      8559       8560       8571       8570       8680       8681       8692       8691  
      8560       8561       8572       8571       8681       8682       8693       8692  
      8561       8562       8573       8572       8682       8683       8694       8693  
      8562       8563       8574       8573       8683       8684       8695       8694  
      8563       8564       8575       8574       8684       8685       8696       8695  
      8564       8565       8576       8575       8685       8686       8697       8696  
      8565       8566       8577       8576       8686       8687       8698       8697  
      8566       8567       8578       8577       8687       8688       8699       8698  
      8567       8568       8579       8578       8688       8689       8700       8699  
      8568       8569       8580       8579       8689       8690       8701       8700  
      8570       8571       8582       8581       8691       8692       8703       8702  
      8571       8572       8583       8582       8692       8693       8704       8703  
      8572       8573       8584       8583       8693       8694       8705       8704  
      8573       8574       8585       8584       8694       8695       8706       8705  
      8574       8575       8586       8585       8695       8696       8707       8706  
      8575       8576       8587       8586       8696       8697       8708       8707  
      8576       8577       8588       8587       8697       8698       8709       8708  
      8577       8578       8589       8588       8698       8699       8710       8709  
      8578       8579       8590       8589       8699       8700       8711       8710  
      8579       8580       8591       8590       8700       8701       8712       8711  
      8592       8593       8604       8603       8713       8714       8725       8724  
      8593       8594       8605       8604       8714       8715       8726       8725  
      8594       8595       8606       8605       8715       8716       8727       8726  
      8595       8596       8607       8606       8716       8717       8728       8727  
      8596       8597       8608       8607       8717       8718       8729       8728  
      8597       8598       8609       8608       8718       8719       8730       8729  
      8598       8599       8610       8609       8719       8720       8731       8730  
      8599       8600       8611       8610       8720       8721       8732       8731  
      8600       8601       8612       8611       8721       8722       8733       8732  
      8601       8602       8613       8612       8722       8723       8734       8733  
      8603       8604       8615       8614       8724       8725       8736       8735  
      8604       8605       8616       8615       8725       8726       8737       8736  
      8605       8606       8617       8616       8726       8727       8738       8737  
      8606       8607       8618       8617       8727       8728       8739       8738  
      8607       8608       8619       8618       8728       8729       8740       8739  
      8608       8609       8620       8619       8729       8730       8741       8740  
      8609       8610       8621       8620       8730       8731       8742       8741  
      8610       8611       8622       8621       8731       8732       8743       8742  
      8611       8612       8623       8622       8732       8733       8744       8743  
      8612       8613       8624       8623       8733       8734       8745       8744  
      8614       8615       8626       8625       8735       8736       8747       8746  
      8615       8616       8627       8626       8736       8737       8748       8747  
      8616       8617       8628       8627       8737       8738       8749       8748  
      8617       8618       8629       8628       8738       8739       8750       8749  
      8618       8619       8630       8629       8739       8740       8751       8750  
      8619       8620       8631       8630       8740       8741       8752       8751  
      8620       8621       8632       8631       8741       8742       8753       8752  
      8621       8622       8633       8632       8742       8743       8754       8753  
      8622       8623       8634       8633       8743       8744       8755       8754  
      8623       8624       8635       8634       8744       8745       8756       8755  
      8625       8626       8637       8636       8746       8747       8758       8757  
      8626       8627       8638       8637       8747       8748       8759       8758  
      8627       8628       8639       8638       8748       8749       8760       8759  
      8628       8629       8640       8639       8749       8750       8761       8760  
      8629       8630       8641       8640       8750       8751       8762       8761  
      8630       8631       8642       8641       8751       8752       8763       8762  
      8631       8632       8643       8642       8752       8753       8764       8763  
      8632       8633       8644       8643       8753       8754       8765       8764  
      8633       8634       8645       8644       8754       8755       8766       8765  
      8634       8635       8646       8645       8755       8756       8767       8766  
      8636       8637       8648       8647       8757       8758       8769       8768  
      8637       8638       8649       8648       8758       8759       8770       8769  
      8638       8639       8650       8649       8759       8760       8771       8770  
      8639       8640       8651       8650       8760       8761       8772       8771  
      8640       8641       8652       8651       8761       8762       8773       8772  
      8641       8642       8653       8652       8762       8763       8774       8773  
      8642       8643       8654       8653       8763       8764       8775       8774  
      8643       8644       8655       8654       8764       8765       8776       8775  
      8644       8645       8656       8655       8765       8766       8777       8776  
      8645       8646       8657       8656       8766       8767       8778       8777  
      8647       8648       8659       8658       8768       8769       8780       8779  
      8648       8649       8660       8659       8769       8770       8781       8780  
      8649       8650       8661       8660       8770       8771       8782       8781  
      8650       8651       8662       8661       8771       8772       8783       8782  
      8651       8652       8663       8662       8772       8773       8784       8783  
      8652       8653       8664       8663       8773       8774       8785       8784  
      8653       8654       8665       8664       8774       8775       8786       8785  
      8654       8655       8666       8665       8775       8776       8787       8786  
      8655       8656       8667       8666       8776       8777       8788       8787  
      8656       8657       8668       8667       8777       8778       8789       8788  
      8658       8659       8670       8669       8779       8780       8791       8790  
      8659       8660       8671       8670       8780       8781       8792       8791  
      8660       8661       8672       8671       8781       8782       8793       8792  
      8661       8662       8673       8672       8782       8783       8794       8793  
      8662       8663       8674       8673       8783       8784       8795       8794  
      8663       8664       8675       8674       8784       8785       8796       8795  
      8664       8665       8676       8675       8785       8786       8797       8796  
      8665       8666       8677       8676       8786       8787       8798       8797  
      8666       8667       8678       8677       8787       8788       8799       8798  
      8667       8668       8679       8678       8788       8789       8800       8799  
      8669       8670       8681       8680       8790       8791       8802       8801  
      8670       8671       8682       8681       8791       8792       8803       8802  
      8671       8672       8683       8682       8792       8793       8804       8803  
      8672       8673       8684       8683       8793       8794       8805       8804  
      8673       8674       8685       8684       8794       8795       8806       8805  
      8674       8675       8686       8685       8795       8796       8807       8806  
      8675       8676       8687       8686       8796       8797       8808       8807  
      8676       8677       8688       8687       8797       8798       8809       8808  
      8677       8678       8689       8688       8798       8799       8810       8809  
      8678       8679       8690       8689       8799       8800       8811       8810  
      8680       8681       8692       8691       8801       8802       8813       8812  
      8681       8682       8693       8692       8802       8803       8814       8813  
      8682       8683       8694       8693       8803       8804       8815       8814  
      8683       8684       8695       8694       8804       8805       8816       8815  
      8684       8685       8696       8695       8805       8806       8817       8816  
      8685       8686       8697       8696       8806       8807       8818       8817  
      8686       8687       8698       8697       8807       8808       8819       8818  
      8687       8688       8699       8698       8808       8809       8820       8819  
      8688       8689       8700       8699       8809       8810       8821       8820  
      8689       8690       8701       8700       8810       8811       8822       8821  
      8691       8692       8703       8702       8812       8813       8824       8823  
      8692       8693       8704       8703       8813       8814       8825       8824  
      8693       8694       8705       8704       8814       8815       8826       8825  
      8694       8695       8706       8705       8815       8816       8827       8826  
      8695       8696       8707       8706       8816       8817       8828       8827  
      8696       8697       8708       8707       8817       8818       8829       8828  
      8697       8698       8709       8708       8818       8819       8830       8829  
      8698       8699       8710       8709       8819       8820       8831       8830  
      8699       8700       8711       8710       8820       8821       8832       8831  
      8700       8701       8712       8711       8821       8822       8833       8832  
      8713       8714       8725       8724       8834       8835       8846       8845  
      8714       8715       8726       8725       8835       8836       8847       8846  
      8715       8716       8727       8726       8836       8837       8848       8847  
      8716       8717       8728       8727       8837       8838       8849       8848  
      8717       8718       8729       8728       8838       8839       8850       8849  
      8718       8719       8730       8729       8839       8840       8851       8850  
      8719       8720       8731       8730       8840       8841       8852       8851  
      8720       8721       8732       8731       8841       8842       8853       8852  
      8721       8722       8733       8732       8842       8843       8854       8853  
      8722       8723       8734       8733       8843       8844       8855       8854  
      8724       8725       8736       8735       8845       8846       8857       8856  
      8725       8726       8737       8736       8846       8847       8858       8857  
      8726       8727       8738       8737       8847       8848       8859       8858  
      8727       8728       8739       8738       8848       8849       8860       8859  
      8728       8729       8740       8739       8849       8850       8861       8860  
      8729       8730       8741       8740       8850       8851       8862       8861  
      8730       8731       8742       8741       8851       8852       8863       8862  
      8731       8732       8743       8742       8852       8853       8864       8863  
      8732       8733       8744       8743       8853       8854       8865       8864  
      8733       8734       8745       8744       8854       8855       8866       8865  
      8735       8736       8747       8746       8856       8857       8868       8867  
      8736       8737       8748       8747       8857       8858       8869       8868  
      8737       8738       8749       8748       8858       8859       8870       8869  
      8738       8739       8750       8749       8859       8860       8871       8870  
      8739       8740       8751       8750       8860       8861       8872       8871  
      8740       8741       8752       8751       8861       8862       8873       8872  
      8741       8742       8753       8752       8862       8863       8874       8873  
      8742       8743       8754       8753       8863       8864       8875       8874  
      8743       8744       8755       8754       8864       8865       8876       8875  
      8744       8745       8756       8755       8865       8866       8877       8876  
      8746       8747       8758       8757       8867       8868       8879       8878  
      8747       8748       8759       8758       8868       8869       8880       8879  
      8748       8749       8760       8759       8869       8870       8881       8880  
      8749       8750       8761       8760       8870       8871       8882       8881  
      8750       8751       8762       8761       8871       8872       8883       8882  
      8751       8752       8763       8762       8872       8873       8884       8883  
      8752       8753       8764       8763       8873       8874       8885       8884  
      8753       8754       8765       8764       8874       8875       8886       8885  
      8754       8755       8766       8765       8875       8876       8887       8886  
      8755       8756       8767       8766       8876       8877       8888       8887  
      8757       8758       8769       8768       8878       8879       8890       8889  
      8758       8759       8770       8769       8879       8880       8891       8890  
      8759       8760       8771       8770       8880       8881       8892       8891  
      8760       8761       8772       8771       8881       8882       8893       8892  
      8761       8762       8773       8772       8882       8883       8894       8893  
      8762       8763       8774       8773       8883       8884       8895       8894  
      8763       8764       8775       8774       8884       8885       8896       8895  
      8764       8765       8776       8775       8885       8886       8897       8896  
      8765       8766       8777       8776       8886       8887       8898       8897  
      8766       8767       8778       8777       8887       8888       8899       8898  
      8768       8769       8780       8779       8889       8890       8901       8900  
      8769       8770       8781       8780       8890       8891       8902       8901  
      8770       8771       8782       8781       8891       8892       8903       8902  
      8771       8772       8783       8782       8892       8893       8904       8903  
      8772       8773       8784       8783       8893       8894       8905       8904  
      8773       8774       8785       8784       8894       8895       8906       8905  
      8774       8775       8786       8785       8895       8896       8907       8906  
      8775       8776       8787       8786       8896       8897       8908       8907  
      8776       8777       8788       8787       8897       8898       8909       8908  
      8777       8778       8789       8788       8898       8899       8910       8909  
      8779       8780       8791       8790       8900       8901       8912       8911  
      8780       8781       8792       8791       8901       8902       8913       8912  
      8781       8782       8793       8792       8902       8903       8914       8913  
      8782       8783       8794       8793       8903       8904       8915       8914  
      8783       8784       8795       8794       8904       8905       8916       8915  
      8784       8785       8796       8795       8905       8906       8917       8916  
      8785       8786       8797       8796       8906       8907       8918       8917  
      8786       8787       8798       8797       8907       8908       8919       8918  
      8787       8788       8799       8798       8908       8909       8920       8919  
      8788       8789       8800       8799       8909       8910       8921       8920  
      8790       8791       8802       8801       8911       8912       8923       8922  
      8791       8792       8803       8802       8912       8913       8924       8923  
      8792       8793       8804       8803       8913       8914       8925       8924  
      8793       8794       8805       8804       8914       8915       8926       8925  
      8794       8795       8806       8805       8915       8916       8927       8926  
      8795       8796       8807       8806       8916       8917       8928       8927  
      8796       8797       8808       8807       8917       8918       8929       8928  
      8797       8798       8809       8808       8918       8919       8930       8929  
      8798       8799       8810       8809       8919       8920       8931       8930  
      8799       8800       8811       8810       8920       8921       8932       8931  
      8801       8802       8813       8812       8922       8923       8934       8933  
      8802       8803       8814       8813       8923       8924       8935       8934  
      8803       8804       8815       8814       8924       8925       8936       8935  
      8804       8805       8816       8815       8925       8926       8937       8936  
      8805       8806       8817       8816       8926       8927       8938       8937  
      8806       8807       8818       8817       8927       8928       8939       8938  
      8807       8808       8819       8818       8928       8929       8940       8939  
      8808       8809       8820       8819       8929       8930       8941       8940  
      8809       8810       8821       8820       8930       8931       8942       8941  
      8810       8811       8822       8821       8931       8932       8943       8942  
      8812       8813       8824       8823       8933       8934       8945       8944  
      8813       8814       8825       8824       8934       8935       8946       8945  
      8814       8815       8826       8825       8935       8936       8947       8946  
      8815       8816       8827       8826       8936       8937       8948       8947  
      8816       8817       8828       8827       8937       8938       8949       8948  
      8817       8818       8829       8828       8938       8939       8950       8949  
      8818       8819       8830       8829       8939       8940       8951       8950  
      8819       8820       8831       8830       8940       8941       8952       8951  
      8820       8821       8832       8831       8941       8942       8953       8952  
      8821       8822       8833       8832       8942       8943       8954       8953  
      8834       8835       8846       8845       8955       8956       8967       8966  
      8835       8836       8847       8846       8956       8957       8968       8967  
      8836       8837       8848       8847       8957       8958       8969       8968  
      8837       8838       8849       8848       8958       8959       8970       8969  
      8838       8839       8850       8849       8959       8960       8971       8970  
      8839       8840       8851       8850       8960       8961       8972       8971  
      8840       8841       8852       8851       8961       8962       8973       8972  
      8841       8842       8853       8852       8962       8963       8974       8973  
      8842       8843       8854       8853       8963       8964       8975       8974  
      8843       8844       8855       8854       8964       8965       8976       8975  
      8845       8846       8857       8856       8966       8967       8978       8977  
      8846       8847       8858       8857       8967       8968       8979       8978  
      8847       8848       8859       8858       8968       8969       8980       8979  
      8848       8849       8860       8859       8969       8970       8981       8980  
      8849       8850       8861       8860       8970       8971       8982       8981  
      8850       8851       8862       8861       8971       8972       8983       8982  
      8851       8852       8863       8862       8972       8973       8984       8983  
      8852       8853       8864       8863       8973       8974       8985       8984  
      8853       8854       8865       8864       8974       8975       8986       8985  
      8854       8855       8866       8865       8975       8976       8987       8986  
      8856       8857       8868       8867       8977       8978       8989       8988  
      8857       8858       8869       8868       8978       8979       8990       8989  
      8858       8859       8870       8869       8979       8980       8991       8990  
      8859       8860       8871       8870       8980       8981       8992       8991  
      8860       8861       8872       8871       8981       8982       8993       8992  
      8861       8862       8873       8872       8982       8983       8994       8993  
      8862       8863       8874       8873       8983       8984       8995       8994  
      8863       8864       8875       8874       8984       8985       8996       8995  
      8864       8865       8876       8875       8985       8986       8997       8996  
      8865       8866       8877       8876       8986       8987       8998       8997  
      8867       8868       8879       8878       8988       8989       9000       8999  
      8868       8869       8880       8879       8989       8990       9001       9000  
      8869       8870       8881       8880       8990       8991       9002       9001  
      8870       8871       8882       8881       8991       8992       9003       9002  
      8871       8872       8883       8882       8992       8993       9004       9003  
      8872       8873       8884       8883       8993       8994       9005       9004  
      8873       8874       8885       8884       8994       8995       9006       9005  
      8874       8875       8886       8885       8995       8996       9007       9006  
      8875       8876       8887       8886       8996       8997       9008       9007  
      8876       8877       8888       8887       8997       8998       9009       9008  
      8878       8879       8890       8889       8999       9000       9011       9010  
      8879       8880       8891       8890       9000       9001       9012       9011  
      8880       8881       8892       8891       9001       9002       9013       9012  
      8881       8882       8893       8892       9002       9003       9014       9013  
      8882       8883       8894       8893       9003       9004       9015       9014  
      8883       8884       8895       8894       9004       9005       9016       9015  
      8884       8885       8896       8895       9005       9006       9017       9016  
      8885       8886       8897       8896       9006       9007       9018       9017  
      8886       8887       8898       8897       9007       9008       9019       9018  
      8887       8888       8899       8898       9008       9009       9020       9019  
      8889       8890       8901       8900       9010       9011       9022       9021  
      8890       8891       8902       8901       9011       9012       9023       9022  
      8891       8892       8903       8902       9012       9013       9024       9023  
      8892       8893       8904       8903       9013       9014       9025       9024  
      8893       8894       8905       8904       9014       9015       9026       9025  
      8894       8895       8906       8905       9015       9016       9027       9026  
      8895       8896       8907       8906       9016       9017       9028       9027  
      8896       8897       8908       8907       9017       9018       9029       9028  
      8897       8898       8909       8908       9018       9019       9030       9029  
      8898       8899       8910       8909       9019       9020       9031       9030  
      8900       8901       8912       8911       9021       9022       9033       9032  
      8901       8902       8913       8912       9022       9023       9034       9033  
      8902       8903       8914       8913       9023       9024       9035       9034  
      8903       8904       8915       8914       9024       9025       9036       9035  
      8904       8905       8916       8915       9025       9026       9037       9036  
      8905       8906       8917       8916       9026       9027       9038       9037  
      8906       8907       8918       8917       9027       9028       9039       9038  
      8907       8908       8919       8918       9028       9029       9040       9039  
      8908       8909       8920       8919       9029       9030       9041       9040  
      8909       8910       8921       8920       9030       9031       9042       9041  
      8911       8912       8923       8922       9032       9033       9044       9043  
      8912       8913       8924       8923       9033       9034       9045       9044  
      8913       8914       8925       8924       9034       9035       9046       9045  
      8914       8915       8926       8925       9035       9036       9047       9046  
      8915       8916       8927       8926       9036       9037       9048       9047  
      8916       8917       8928       8927       9037       9038       9049       9048  
      8917       8918       8929       8928       9038       9039       9050       9049  
      8918       8919       8930       8929       9039       9040       9051       9050  
      8919       8920       8931       8930       9040       9041       9052       9051  
      8920       8921       8932       8931       9041       9042       9053       9052  
      8922       8923       8934       8933       9043       9044       9055       9054  
      8923       8924       8935       8934       9044       9045       9056       9055  
      8924       8925       8936       8935       9045       9046       9057       9056  
      8925       8926       8937       8936       9046       9047       9058       9057  
      8926       8927       8938       8937       9047       9048       9059       9058  
      8927       8928       8939       8938       9048       9049       9060       9059  
      8928       8929       8940       8939       9049       9050       9061       9060  
      8929       8930       8941       8940       9050       9051       9062       9061  
      8930       8931       8942       8941       9051       9052       9063       9062  
      8931       8932       8943       8942       9052       9053       9064       9063  
      8933       8934       8945       8944       9054       9055       9066       9065  
      8934       8935       8946       8945       9055       9056       9067       9066  
      8935       8936       8947       8946       9056       9057       9068       9067  
      8936       8937       8948       8947       9057       9058       9069       9068  
      8937       8938       8949       8948       9058       9059       9070       9069  
      8938       8939       8950       8949       9059       9060       9071       9070  
      8939       8940       8951       8950       9060       9061       9072       9071  
      8940       8941       8952       8951       9061       9062       9073       9072  
      8941       8942       8953       8952       9062       9063       9074       9073  
      8942       8943       8954       8953       9063       9064       9075       9074  
      8955       8956       8967       8966       9076       9077       9088       9087  
      8956       8957       8968       8967       9077       9078       9089       9088  
      8957       8958       8969       8968       9078       9079       9090       9089  
      8958       8959       8970       8969       9079       9080       9091       9090  
      8959       8960       8971       8970       9080       9081       9092       9091  
      8960       8961       8972       8971       9081       9082       9093       9092  
      8961       8962       8973       8972       9082       9083       9094       9093  
      8962       8963       8974       8973       9083       9084       9095       9094  
      8963       8964       8975       8974       9084       9085       9096       9095  
      8964       8965       8976       8975       9085       9086       9097       9096  
      8966       8967       8978       8977       9087       9088       9099       9098  
      8967       8968       8979       8978       9088       9089       9100       9099  
      8968       8969       8980       8979       9089       9090       9101       9100  
      8969       8970       8981       8980       9090       9091       9102       9101  
      8970       8971       8982       8981       9091       9092       9103       9102  
      8971       8972       8983       8982       9092       9093       9104       9103  
      8972       8973       8984       8983       9093       9094       9105       9104  
      8973       8974       8985       8984       9094       9095       9106       9105  
      8974       8975       8986       8985       9095       9096       9107       9106  
      8975       8976       8987       8986       9096       9097       9108       9107  
      8977       8978       8989       8988       9098       9099       9110       9109  
      8978       8979       8990       8989       9099       9100       9111       9110  
      8979       8980       8991       8990       9100       9101       9112       9111  
      8980       8981       8992       8991       9101       9102       9113       9112  
      8981       8982       8993       8992       9102       9103       9114       9113  
      8982       8983       8994       8993       9103       9104       9115       9114  
      8983       8984       8995       8994       9104       9105       9116       9115  
      8984       8985       8996       8995       9105       9106       9117       9116  
      8985       8986       8997       8996       9106       9107       9118       9117  
      8986       8987       8998       8997       9107       9108       9119       9118  
      8988       8989       9000       8999       9109       9110       9121       9120  
      8989       8990       9001       9000       9110       9111       9122       9121  
      8990       8991       9002       9001       9111       9112       9123       9122  
      8991       8992       9003       9002       9112       9113       9124       9123  
      8992       8993       9004       9003       9113       9114       9125       9124  
      8993       8994       9005       9004       9114       9115       9126       9125  
      8994       8995       9006       9005       9115       9116       9127       9126  
      8995       8996       9007       9006       9116       9117       9128       9127  
      8996       8997       9008       9007       9117       9118       9129       9128  
      8997       8998       9009       9008       9118       9119       9130       9129  
      8999       9000       9011       9010       9120       9121       9132       9131  
      9000       9001       9012       9011       9121       9122       9133       9132  
      9001       9002       9013       9012       9122       9123       9134       9133  
      9002       9003       9014       9013       9123       9124       9135       9134  
      9003       9004       9015       9014       9124       9125       9136       9135  
      9004       9005       9016       9015       9125       9126       9137       9136  
      9005       9006       9017       9016       9126       9127       9138       9137  
      9006       9007       9018       9017       9127       9128       9139       9138  
      9007       9008       9019       9018       9128       9129       9140       9139  
      9008       9009       9020       9019       9129       9130       9141       9140  
      9010       9011       9022       9021       9131       9132       9143       9142  
      9011       9012       9023       9022       9132       9133       9144       9143  
      9012       9013       9024       9023       9133       9134       9145       9144  
      9013       9014       9025       9024       9134       9135       9146       9145  
      9014       9015       9026       9025       9135       9136       9147       9146  
      9015       9016       9027       9026       9136       9137       9148       9147  
      9016       9017       9028       9027       9137       9138       9149       9148  
      9017       9018       9029       9028       9138       9139       9150       9149  
      9018       9019       9030       9029       9139       9140       9151       9150  
      9019       9020       9031       9030       9140       9141       9152       9151  
      9021       9022       9033       9032       9142       9143       9154       9153  
      9022       9023       9034       9033       9143       9144       9155       9154  
      9023       9024       9035       9034       9144       9145       9156       9155  
      9024       9025       9036       9035       9145       9146       9157       9156  
      9025       9026       9037       9036       9146       9147       9158       9157  
      9026       9027       9038       9037       9147       9148       9159       9158  
      9027       9028       9039       9038       9148       9149       9160       9159  
      9028       9029       9040       9039       9149       9150       9161       9160  
      9029       9030       9041       9040       9150       9151       9162       9161  
      9030       9031       9042       9041       9151       9152       9163       9162  
      9032       9033       9044       9043       9153       9154       9165       9164  
      9033       9034       9045       9044       9154       9155       9166       9165  
      9034       9035       9046       9045       9155       9156       9167       9166  
      9035       9036       9047       9046       9156       9157       9168       9167  
      9036       9037       9048       9047       9157       9158       9169       9168  
      9037       9038       9049       9048       9158       9159       9170       9169  
      9038       9039       9050       9049       9159       9160       9171       9170  
      9039       9040       9051       9050       9160       9161       9172       9171  
      9040       9041       9052       9051       9161       9162       9173       9172  
      9041       9042       9053       9052       9162       9163       9174       9173  
      9043       9044       9055       9054       9164       9165       9176       9175  
      9044       9045       9056       9055       9165       9166       9177       9176  
      9045       9046       9057       9056       9166       9167       9178       9177  
      9046       9047       9058       9057       9167       9168       9179       9178  
      9047       9048       9059       9058       9168       9169       9180       9179  
      9048       9049       9060       9059       9169       9170       9181       9180  
      9049       9050       9061       9060       9170       9171       9182       9181  
      9050       9051       9062       9061       9171       9172       9183       9182  
      9051       9052       9063       9062       9172       9173       9184       9183  
      9052       9053       9064       9063       9173       9174       9185       9184  
      9054       9055       9066       9065       9175       9176       9187       9186  
      9055       9056       9067       9066       9176       9177       9188       9187  
      9056       9057       9068       9067       9177       9178       9189       9188  
      9057       9058       9069       9068       9178       9179       9190       9189  
      9058       9059       9070       9069       9179       9180       9191       9190  
      9059       9060       9071       9070       9180       9181       9192       9191  
      9060       9061       9072       9071       9181       9182       9193       9192  
      9061       9062       9073       9072       9182       9183       9194       9193  
      9062       9063       9074       9073       9183       9184       9195       9194  
      9063       9064       9075       9074       9184       9185       9196       9195  
      9076       9077       9088       9087       9197       9198       9209       9208  
      9077       9078       9089       9088       9198       9199       9210       9209  
      9078       9079       9090       9089       9199       9200       9211       9210  
      9079       9080       9091       9090       9200       9201       9212       9211  
      9080       9081       9092       9091       9201       9202       9213       9212  
      9081       9082       9093       9092       9202       9203       9214       9213  
      9082       9083       9094       9093       9203       9204       9215       9214  
      9083       9084       9095       9094       9204       9205       9216       9215  
      9084       9085       9096       9095       9205       9206       9217       9216  
      9085       9086       9097       9096       9206       9207       9218       9217  
      9087       9088       9099       9098       9208       9209       9220       9219  
      9088       9089       9100       9099       9209       9210       9221       9220  
      9089       9090       9101       9100       9210       9211       9222       9221  
      9090       9091       9102       9101       9211       9212       9223       9222  
      9091       9092       9103       9102       9212       9213       9224       9223  
      9092       9093       9104       9103       9213       9214       9225       9224  
      9093       9094       9105       9104       9214       9215       9226       9225  
      9094       9095       9106       9105       9215       9216       9227       9226  
      9095       9096       9107       9106       9216       9217       9228       9227  
      9096       9097       9108       9107       9217       9218       9229       9228  
      9098       9099       9110       9109       9219       9220       9231       9230  
      9099       9100       9111       9110       9220       9221       9232       9231  
      9100       9101       9112       9111       9221       9222       9233       9232  
      9101       9102       9113       9112       9222       9223       9234       9233  
      9102       9103       9114       9113       9223       9224       9235       9234  
      9103       9104       9115       9114       9224       9225       9236       9235  
      9104       9105       9116       9115       9225       9226       9237       9236  
      9105       9106       9117       9116       9226       9227       9238       9237  
      9106       9107       9118       9117       9227       9228       9239       9238  
      9107       9108       9119       9118       9228       9229       9240       9239  
      9109       9110       9121       9120       9230       9231       9242       9241  
      9110       9111       9122       9121       9231       9232       9243       9242  
      9111       9112       9123       9122       9232       9233       9244       9243  
      9112       9113       9124       9123       9233       9234       9245       9244  
      9113       9114       9125       9124       9234       9235       9246       9245  
      9114       9115       9126       9125       9235       9236       9247       9246  
      9115       9116       9127       9126       9236       9237       9248       9247  
      9116       9117       9128       9127       9237       9238       9249       9248  
      9117       9118       9129       9128       9238       9239       9250       9249  
      9118       9119       9130       9129       9239       9240       9251       9250  
      9120       9121       9132       9131       9241       9242       9253       9252  
      9121       9122       9133       9132       9242       9243       9254       9253  
      9122       9123       9134       9133       9243       9244       9255       9254  
      9123       9124       9135       9134       9244       9245       9256       9255  
      9124       9125       9136       9135       9245       9246       9257       9256  
      9125       9126       9137       9136       9246       9247       9258       9257  
      9126       9127       9138       9137       9247       9248       9259       9258  
      9127       9128       9139       9138       9248       9249       9260       9259  
      9128       9129       9140       9139       9249       9250       9261       9260  
      9129       9130       9141       9140       9250       9251       9262       9261  
      9131       9132       9143       9142       9252       9253       9264       9263  
      9132       9133       9144       9143       9253       9254       9265       9264  
      9133       9134       9145       9144       9254       9255       9266       9265  
      9134       9135       9146       9145       9255       9256       9267       9266  
      9135       9136       9147       9146       9256       9257       9268       9267  
      9136       9137       9148       9147       9257       9258       9269       9268  
      9137       9138       9149       9148       9258       9259       9270       9269  
      9138       9139       9150       9149       9259       9260       9271       9270  
      9139       9140       9151       9150       9260       9261       9272       9271  
      9140       9141       9152       9151       9261       9262       9273       9272  
      9142       9143       9154       9153       9263       9264       9275       9274  
      9143       9144       9155       9154       9264       9265       9276       9275  
      9144       9145       9156       9155       9265       9266       9277       9276  
      9145       9146       9157       9156       9266       9267       9278       9277  
      9146       9147       9158       9157       9267       9268       9279       9278  
      9147       9148       9159       9158       9268       9269       9280       9279  
      9148       9149       9160       9159       9269       9270       9281       9280  
      9149       9150       9161       9160       9270       9271       9282       9281  
      9150       9151       9162       9161       9271       9272       9283       9282  
      9151       9152       9163       9162       9272       9273       9284       9283  
      9153       9154       9165       9164       9274       9275       9286       9285  
      9154       9155       9166       9165       9275       9276       9287       9286  
      9155       9156       9167       9166       9276       9277       9288       9287  
      9156       9157       9168       9167       9277       9278       9289       9288  
      9157       9158       9169       9168       9278       9279       9290       9289  
      9158       9159       9170       9169       9279       9280       9291       9290  
      9159       9160       9171       9170       9280       9281       9292       9291  
      9160       9161       9172       9171       9281       9282       9293       9292  
      9161       9162       9173       9172       9282       9283       9294       9293  
      9162       9163       9174       9173       9283       9284       9295       9294  
      9164       9165       9176       9175       9285       9286       9297       9296  
      9165       9166       9177       9176       9286       9287       9298       9297  
      9166       9167       9178       9177       9287       9288       9299       9298  
      9167       9168       9179       9178       9288       9289       9300       9299  
      9168       9169       9180       9179       9289       9290       9301       9300  
      9169       9170       9181       9180       9290       9291       9302       9301  
      9170       9171       9182       9181       9291       9292       9303       9302  
      9171       9172       9183       9182       9292       9293       9304       9303  
      9172       9173       9184       9183       9293       9294       9305       9304  
      9173       9174       9185       9184       9294       9295       9306       9305  
      9175       9176       9187       9186       9296       9297       9308       9307  
      9176       9177       9188       9187       9297       9298       9309       9308  
      9177       9178       9189       9188       9298       9299       9310       9309  
      9178       9179       9190       9189       9299       9300       9311       9310  
      9179       9180       9191       9190       9300       9301       9312       9311  
      9180       9181       9192       9191       9301       9302       9313       9312  
      9181       9182       9193       9192       9302       9303       9314       9313  
      9182       9183       9194       9193       9303       9304       9315       9314  
      9183       9184       9195       9194       9304       9305       9316       9315  
      9184       9185       9196       9195       9305       9306       9317       9316  
      9197       9198       9209       9208       9318       9319       9330       9329  
      9198       9199       9210       9209       9319       9320       9331       9330  
      9199       9200       9211       9210       9320       9321       9332       9331  
      9200       9201       9212       9211       9321       9322       9333       9332  
      9201       9202       9213       9212       9322       9323       9334       9333  
      9202       9203       9214       9213       9323       9324       9335       9334  
      9203       9204       9215       9214       9324       9325       9336       9335  
      9204       9205       9216       9215       9325       9326       9337       9336  
      9205       9206       9217       9216       9326       9327       9338       9337  
      9206       9207       9218       9217       9327       9328       9339       9338  
      9208       9209       9220       9219       9329       9330       9341       9340  
      9209       9210       9221       9220       9330       9331       9342       9341  
      9210       9211       9222       9221       9331       9332       9343       9342  
      9211       9212       9223       9222       9332       9333       9344       9343  
      9212       9213       9224       9223       9333       9334       9345       9344  
      9213       9214       9225       9224       9334       9335       9346       9345  
      9214       9215       9226       9225       9335       9336       9347       9346  
      9215       9216       9227       9226       9336       9337       9348       9347  
      9216       9217       9228       9227       9337       9338       9349       9348  
      9217       9218       9229       9228       9338       9339       9350       9349  
      9219       9220       9231       9230       9340       9341       9352       9351  
      9220       9221       9232       9231       9341       9342       9353       9352  
      9221       9222       9233       9232       9342       9343       9354       9353  
      9222       9223       9234       9233       9343       9344       9355       9354  
      9223       9224       9235       9234       9344       9345       9356       9355  
      9224       9225       9236       9235       9345       9346       9357       9356  
      9225       9226       9237       9236       9346       9347       9358       9357  
      9226       9227       9238       9237       9347       9348       9359       9358  
      9227       9228       9239       9238       9348       9349       9360       9359  
      9228       9229       9240       9239       9349       9350       9361       9360  
      9230       9231       9242       9241       9351       9352       9363       9362  
      9231       9232       9243       9242       9352       9353       9364       9363  
      9232       9233       9244       9243       9353       9354       9365       9364  
      9233       9234       9245       9244       9354       9355       9366       9365  
      9234       9235       9246       9245       9355       9356       9367       9366  
      9235       9236       9247       9246       9356       9357       9368       9367  
      9236       9237       9248       9247       9357       9358       9369       9368  
      9237       9238       9249       9248       9358       9359       9370       9369  
      9238       9239       9250       9249       9359       9360       9371       9370  
      9239       9240       9251       9250       9360       9361       9372       9371  
      9241       9242       9253       9252       9362       9363       9374       9373  
      9242       9243       9254       9253       9363       9364       9375       9374  
      9243       9244       9255       9254       9364       9365       9376       9375  
      9244       9245       9256       9255       9365       9366       9377       9376  
      9245       9246       9257       9256       9366       9367       9378       9377  
      9246       9247       9258       9257       9367       9368       9379       9378  
      9247       9248       9259       9258       9368       9369       9380       9379  
      9248       9249       9260       9259       9369       9370       9381       9380  
      9249       9250       9261       9260       9370       9371       9382       9381  
      9250       9251       9262       9261       9371       9372       9383       9382  
      9252       9253       9264       9263       9373       9374       9385       9384  
      9253       9254       9265       9264       9374       9375       9386       9385  
      9254       9255       9266       9265       9375       9376       9387       9386  
      9255       9256       9267       9266       9376       9377       9388       9387  
      9256       9257       9268       9267       9377       9378       9389       9388  
      9257       9258       9269       9268       9378       9379       9390       9389  
      9258       9259       9270       9269       9379       9380       9391       9390  
      9259       9260       9271       9270       9380       9381       9392       9391  
      9260       9261       9272       9271       9381       9382       9393       9392  
      9261       9262       9273       9272       9382       9383       9394       9393  
      9263       9264       9275       9274       9384       9385       9396       9395  
      9264       9265       9276       9275       9385       9386       9397       9396  
      9265       9266       9277       9276       9386       9387       9398       9397  
      9266       9267       9278       9277       9387       9388       9399       9398  
      9267       9268       9279       9278       9388       9389       9400       9399  
      9268       9269       9280       9279       9389       9390       9401       9400  
      9269       9270       9281       9280       9390       9391       9402       9401  
      9270       9271       9282       9281       9391       9392       9403       9402  
      9271       9272       9283       9282       9392       9393       9404       9403  
      9272       9273       9284       9283       9393       9394       9405       9404  
      9274       9275       9286       9285       9395       9396       9407       9406  
      9275       9276       9287       9286       9396       9397       9408       9407  
      9276       9277       9288       9287       9397       9398       9409       9408  
      9277       9278       9289       9288       9398       9399       9410       9409  
      9278       9279       9290       9289       9399       9400       9411       9410  
      9279       9280       9291       9290       9400       9401       9412       9411  
      9280       9281       9292       9291       9401       9402       9413       9412  
      9281       9282       9293       9292       9402       9403       9414       9413  
      9282       9283       9294       9293       9403       9404       9415       9414  
      9283       9284       9295       9294       9404       9405       9416       9415  
      9285       9286       9297       9296       9406       9407       9418       9417  
      9286       9287       9298       9297       9407       9408       9419       9418  
      9287       9288       9299       9298       9408       9409       9420       9419  
      9288       9289       9300       9299       9409       9410       9421       9420  
      9289       9290       9301       9300       9410       9411       9422       9421  
      9290       9291       9302       9301       9411       9412       9423       9422  
      9291       9292       9303       9302       9412       9413       9424       9423  
      9292       9293       9304       9303       9413       9414       9425       9424  
      9293       9294       9305       9304       9414       9415       9426       9425  
      9294       9295       9306       9305       9415       9416       9427       9426  
      9296       9297       9308       9307       9417       9418       9429       9428  
      9297       9298       9309       9308       9418       9419       9430       9429  
      9298       9299       9310       9309       9419       9420       9431       9430  
      9299       9300       9311       9310       9420       9421       9432       9431  
      9300       9301       9312       9311       9421       9422       9433       9432  
      9301       9302       9313       9312       9422       9423       9434       9433  
      9302       9303       9314       9313       9423       9424       9435       9434  
      9303       9304       9315       9314       9424       9425       9436       9435  
      9304       9305       9316       9315       9425       9426       9437       9436  
      9305       9306       9317       9316       9426       9427       9438       9437  
      9318       9319       9330       9329       9439       9440       9451       9450  
      9319       9320       9331       9330       9440       9441       9452       9451  
      9320       9321       9332       9331       9441       9442       9453       9452  
      9321       9322       9333       9332       9442       9443       9454       9453  
      9322       9323       9334       9333       9443       9444       9455       9454  
      9323       9324       9335       9334       9444       9445       9456       9455  
      9324       9325       9336       9335       9445       9446       9457       9456  
      9325       9326       9337       9336       9446       9447       9458       9457  
      9326       9327       9338       9337       9447       9448       9459       9458  
      9327       9328       9339       9338       9448       9449       9460       9459  
      9329       9330       9341       9340       9450       9451       9462       9461  
      9330       9331       9342       9341       9451       9452       9463       9462  
      9331       9332       9343       9342       9452       9453       9464       9463  
      9332       9333       9344       9343       9453       9454       9465       9464  
      9333       9334       9345       9344       9454       9455       9466       9465  
      9334       9335       9346       9345       9455       9456       9467       9466  
      9335       9336       9347       9346       9456       9457       9468       9467  
      9336       9337       9348       9347       9457       9458       9469       9468  
      9337       9338       9349       9348       9458       9459       9470       9469  
      9338       9339       9350       9349       9459       9460       9471       9470  
      9340       9341       9352       9351       9461       9462       9473       9472  
      9341       9342       9353       9352       9462       9463       9474       9473  
      9342       9343       9354       9353       9463       9464       9475       9474  
      9343       9344       9355       9354       9464       9465       9476       9475  
      9344       9345       9356       9355       9465       9466       9477       9476  
      9345       9346       9357       9356       9466       9467       9478       9477  
      9346       9347       9358       9357       9467       9468       9479       9478  
      9347       9348       9359       9358       9468       9469       9480       9479  
      9348       9349       9360       9359       9469       9470       9481       9480  
      9349       9350       9361       9360       9470       9471       9482       9481  
      9351       9352       9363       9362       9472       9473       9484       9483  
      9352       9353       9364       9363       9473       9474       9485       9484  
      9353       9354       9365       9364       9474       9475       9486       9485  
      9354       9355       9366       9365       9475       9476       9487       9486  
      9355       9356       9367       9366       9476       9477       9488       9487  
      9356       9357       9368       9367       9477       9478       9489       9488  
      9357       9358       9369       9368       9478       9479       9490       9489  
      9358       9359       9370       9369       9479       9480       9491       9490  
      9359       9360       9371       9370       9480       9481       9492       9491  
      9360       9361       9372       9371       9481       9482       9493       9492  
      9362       9363       9374       9373       9483       9484       9495       9494  
      9363       9364       9375       9374       9484       9485       9496       9495  
      9364       9365       9376       9375       9485       9486       9497       9496  
      9365       9366       9377       9376       9486       9487       9498       9497  
      9366       9367       9378       9377       9487       9488       9499       9498  
      9367       9368       9379       9378       9488       9489       9500       9499  
      9368       9369       9380       9379       9489       9490       9501       9500  
      9369       9370       9381       9380       9490       9491       9502       9501  
      9370       9371       9382       9381       9491       9492       9503       9502  
      9371       9372       9383       9382       9492       9493       9504       9503  
      9373       9374       9385       9384       9494       9495       9506       9505  
      9374       9375       9386       9385       9495       9496       9507       9506  
      9375       9376       9387       9386       9496       9497       9508       9507  
      9376       9377       9388       9387       9497       9498       9509       9508  
      9377       9378       9389       9388       9498       9499       9510       9509  
      9378       9379       9390       9389       9499       9500       9511       9510  
      9379       9380       9391       9390       9500       9501       9512       9511  
      9380       9381       9392       9391       9501       9502       9513       9512  
      9381       9382       9393       9392       9502       9503       9514       9513  
      9382       9383       9394       9393       9503       9504       9515       9514  
      9384       9385       9396       9395       9505       9506       9517       9516  
      9385       9386       9397       9396       9506       9507       9518       9517  
      9386       9387       9398       9397       9507       9508       9519       9518  
      9387       9388       9399       9398       9508       9509       9520       9519  
      9388       9389       9400       9399       9509       9510       9521       9520  
      9389       9390       9401       9400       9510       9511       9522       9521  
      9390       9391       9402       9401       9511       9512       9523       9522  
      9391       9392       9403       9402       9512       9513       9524       9523  
      9392       9393       9404       9403       9513       9514       9525       9524  
      9393       9394       9405       9404       9514       9515       9526       9525  
      9395       9396       9407       9406       9516       9517       9528       9527  
      9396       9397       9408       9407       9517       9518       9529       9528  
      9397       9398       9409       9408       9518       9519       9530       9529  
      9398       9399       9410       9409       9519       9520       9531       9530  
      9399       9400       9411       9410       9520       9521       9532       9531  
      9400       9401       9412       9411       9521       9522       9533       9532  
      9401       9402       9413       9412       9522       9523       9534       9533  
      9402       9403       9414       9413       9523       9524       9535       9534  
      9403       9404       9415       9414       9524       9525       9536       9535  
      9404       9405       9416       9415       9525       9526       9537       9536  
      9406       9407       9418       9417       9527       9528       9539       9538  
      9407       9408       9419       9418       9528       9529       9540       9539  
      9408       9409       9420       9419       9529       9530       9541       9540  
      9409       9410       9421       9420       9530       9531       9542       9541  
      9410       9411       9422       9421       9531       9532       9543       9542  
      9411       9412       9423       9422       9532       9533       9544       9543  
      9412       9413       9424       9423       9533       9534       9545       9544  
      9413       9414       9425       9424       9534       9535       9546       9545  
      9414       9415       9426       9425       9535       9536       9547       9546  
      9415       9416       9427       9426       9536       9537       9548       9547  
      9417       9418       9429       9428       9538       9539       9550       9549  
      9418       9419       9430       9429       9539       9540       9551       9550  
      9419       9420       9431       9430       9540       9541       9552       9551  
      9420       9421       9432       9431       9541       9542       9553       9552  
      9421       9422       9433       9432       9542       9543       9554       9553  
      9422       9423       9434       9433       9543       9544       9555       9554  
      9423       9424       9435       9434       9544       9545       9556       9555  
      9424       9425       9436       9435       9545       9546       9557       9556  
      9425       9426       9437       9436       9546       9547       9558       9557  
      9426       9427       9438       9437       9547       9548       9559       9558  
      9439       9440       9451       9450       9560       9561       9572       9571  
      9440       9441       9452       9451       9561       9562       9573       9572  
      9441       9442       9453       9452       9562       9563       9574       9573  
      9442       9443       9454       9453       9563       9564       9575       9574  
      9443       9444       9455       9454       9564       9565       9576       9575  
      9444       9445       9456       9455       9565       9566       9577       9576  
      9445       9446       9457       9456       9566       9567       9578       9577  
      9446       9447       9458       9457       9567       9568       9579       9578  
      9447       9448       9459       9458       9568       9569       9580       9579  
      9448       9449       9460       9459       9569       9570       9581       9580  
      9450       9451       9462       9461       9571       9572       9583       9582  
      9451       9452       9463       9462       9572       9573       9584       9583  
      9452       9453       9464       9463       9573       9574       9585       9584  
      9453       9454       9465       9464       9574       9575       9586       9585  
      9454       9455       9466       9465       9575       9576       9587       9586  
      9455       9456       9467       9466       9576       9577       9588       9587  
      9456       9457       9468       9467       9577       9578       9589       9588  
      9457       9458       9469       9468       9578       9579       9590       9589  
      9458       9459       9470       9469       9579       9580       9591       9590  
      9459       9460       9471       9470       9580       9581       9592       9591  
      9461       9462       9473       9472       9582       9583       9594       9593  
      9462       9463       9474       9473       9583       9584       9595       9594  
      9463       9464       9475       9474       9584       9585       9596       9595  
      9464       9465       9476       9475       9585       9586       9597       9596  
      9465       9466       9477       9476       9586       9587       9598       9597  
      9466       9467       9478       9477       9587       9588       9599       9598  
      9467       9468       9479       9478       9588       9589       9600       9599  
      9468       9469       9480       9479       9589       9590       9601       9600  
      9469       9470       9481       9480       9590       9591       9602       9601  
      9470       9471       9482       9481       9591       9592       9603       9602  
      9472       9473       9484       9483       9593       9594       9605       9604  
      9473       9474       9485       9484       9594       9595       9606       9605  
      9474       9475       9486       9485       9595       9596       9607       9606  
      9475       9476       9487       9486       9596       9597       9608       9607  
      9476       9477       9488       9487       9597       9598       9609       9608  
      9477       9478       9489       9488       9598       9599       9610       9609  
      9478       9479       9490       9489       9599       9600       9611       9610  
      9479       9480       9491       9490       9600       9601       9612       9611  
      9480       9481       9492       9491       9601       9602       9613       9612  
      9481       9482       9493       9492       9602       9603       9614       9613  
      9483       9484       9495       9494       9604       9605       9616       9615  
      9484       9485       9496       9495       9605       9606       9617       9616  
      9485       9486       9497       9496       9606       9607       9618       9617  
      9486       9487       9498       9497       9607       9608       9619       9618  
      9487       9488       9499       9498       9608       9609       9620       9619  
      9488       9489       9500       9499       9609       9610       9621       9620  
      9489       9490       9501       9500       9610       9611       9622       9621  
      9490       9491       9502       9501       9611       9612       9623       9622  
      9491       9492       9503       9502       9612       9613       9624       9623  
      9492       9493       9504       9503       9613       9614       9625       9624  
      9494       9495       9506       9505       9615       9616       9627       9626  
      9495       9496       9507       9506       9616       9617       9628       9627  
      9496       9497       9508       9507       9617       9618       9629       9628  
      9497       9498       9509       9508       9618       9619       9630       9629  
      9498       9499       9510       9509       9619       9620       9631       9630  
      9499       9500       9511       9510       9620       9621       9632       9631  
      9500       9501       9512       9511       9621       9622       9633       9632  
      9501       9502       9513       9512       9622       9623       9634       9633  
      9502       9503       9514       9513       9623       9624       9635       9634  
      9503       9504       9515       9514       9624       9625       9636       9635  
      9505       9506       9517       9516       9626       9627       9638       9637  
      9506       9507       9518       9517       9627       9628       9639       9638  
      9507       9508       9519       9518       9628       9629       9640       9639  
      9508       9509       9520       9519       9629       9630       9641       9640  
      9509       9510       9521       9520       9630       9631       9642       9641  
      9510       9511       9522       9521       9631       9632       9643       9642  
      9511       9512       9523       9522       9632       9633       9644       9643  
      9512       9513       9524       9523       9633       9634       9645       9644  
      9513       9514       9525       9524       9634       9635       9646       9645  
      9514       9515       9526       9525       9635       9636       9647       9646  
      9516       9517       9528       9527       9637       9638       9649       9648  
      9517       9518       9529       9528       9638       9639       9650       9649  
      9518       9519       9530       9529       9639       9640       9651       9650  
      9519       9520       9531       9530       9640       9641       9652       9651  
      9520       9521       9532       9531       9641       9642       9653       9652  
      9521       9522       9533       9532       9642       9643       9654       9653  
      9522       9523       9534       9533       9643       9644       9655       9654  
      9523       9524       9535       9534       9644       9645       9656       9655  
      9524       9525       9536       9535       9645       9646       9657       9656  
      9525       9526       9537       9536       9646       9647       9658       9657  
      9527       9528       9539       9538       9648       9649       9660       9659  
      9528       9529       9540       9539       9649       9650       9661       9660  
      9529       9530       9541       9540       9650       9651       9662       9661  
      9530       9531       9542       9541       9651       9652       9663       9662  
      9531       9532       9543       9542       9652       9653       9664       9663  
      9532       9533       9544       9543       9653       9654       9665       9664  
      9533       9534       9545       9544       9654       9655       9666       9665  
      9534       9535       9546       9545       9655       9656       9667       9666  
      9535       9536       9547       9546       9656       9657       9668       9667  
      9536       9537       9548       9547       9657       9658       9669       9668  
      9538       9539       9550       9549       9659       9660       9671       9670  
      9539       9540       9551       9550       9660       9661       9672       9671  
      9540       9541       9552       9551       9661       9662       9673       9672  
      9541       9542       9553       9552       9662       9663       9674       9673  
      9542       9543       9554       9553       9663       9664       9675       9674  
      9543       9544       9555       9554       9664       9665       9676       9675  
      9544       9545       9556       9555       9665       9666       9677       9676  
      9545       9546       9557       9556       9666       9667       9678       9677  
      9546       9547       9558       9557       9667       9668       9679       9678  
      9547       9548       9559       9558       9668       9669       9680       9679  
      9560       9561       9572       9571       9681       9682       9693       9692  
      9561       9562       9573       9572       9682       9683       9694       9693  
      9562       9563       9574       9573       9683       9684       9695       9694  
      9563       9564       9575       9574       9684       9685       9696       9695  
      9564       9565       9576       9575       9685       9686       9697       9696  
      9565       9566       9577       9576       9686       9687       9698       9697  
      9566       9567       9578       9577       9687       9688       9699       9698  
      9567       9568       9579       9578       9688       9689       9700       9699  
      9568       9569       9580       9579       9689       9690       9701       9700  
      9569       9570       9581       9580       9690       9691       9702       9701  
      9571       9572       9583       9582       9692       9693       9704       9703  
      9572       9573       9584       9583       9693       9694       9705       9704  
      9573       9574       9585       9584       9694       9695       9706       9705  
      9574       9575       9586       9585       9695       9696       9707       9706  
      9575       9576       9587       9586       9696       9697       9708       9707  
      9576       9577       9588       9587       9697       9698       9709       9708  
      9577       9578       9589       9588       9698       9699       9710       9709  
      9578       9579       9590       9589       9699       9700       9711       9710  
      9579       9580       9591       9590       9700       9701       9712       9711  
      9580       9581       9592       9591       9701       9702       9713       9712  
      9582       9583       9594       9593       9703       9704       9715       9714  
      9583       9584       9595       9594       9704       9705       9716       9715  
      9584       9585       9596       9595       9705       9706       9717       9716  
      9585       9586       9597       9596       9706       9707       9718       9717  
      9586       9587       9598       9597       9707       9708       9719       9718  
      9587       9588       9599       9598       9708       9709       9720       9719  
      9588       9589       9600       9599       9709       9710       9721       9720  
      9589       9590       9601       9600       9710       9711       9722       9721  
      9590       9591       9602       9601       9711       9712       9723       9722  
      9591       9592       9603       9602       9712       9713       9724       9723  
      9593       9594       9605       9604       9714       9715       9726       9725  
      9594       9595       9606       9605       9715       9716       9727       9726  
      9595       9596       9607       9606       9716       9717       9728       9727  
      9596       9597       9608       9607       9717       9718       9729       9728  
      9597       9598       9609       9608       9718       9719       9730       9729  
      9598       9599       9610       9609       9719       9720       9731       9730  
      9599       9600       9611       9610       9720       9721       9732       9731  
      9600       9601       9612       9611       9721       9722       9733       9732  
      9601       9602       9613       9612       9722       9723       9734       9733  
      9602       9603       9614       9613       9723       9724       9735       9734  
      9604       9605       9616       9615       9725       9726       9737       9736  
      9605       9606       9617       9616       9726       9727       9738       9737  
      9606       9607       9618       9617       9727       9728       9739       9738  
      9607       9608       9619       9618       9728       9729       9740       9739  
      9608       9609       9620       9619       9729       9730       9741       9740  
      9609       9610       9621       9620       9730       9731       9742       9741  
      9610       9611       9622       9621       9731       9732       9743       9742  
      9611       9612       9623       9622       9732       9733       9744       9743  
      9612       9613       9624       9623       9733       9734       9745       9744  
      9613       9614       9625       9624       9734       9735       9746       9745  
      9615       9616       9627       9626       9736       9737       9748       9747  
      9616       9617       9628       9627       9737       9738       9749       9748  
      9617       9618       9629       9628       9738       9739       9750       9749  
      9618       9619       9630       9629       9739       9740       9751       9750  
      9619       9620       9631       9630       9740       9741       9752       9751  
      9620       9621       9632       9631       9741       9742       9753       9752  
      9621       9622       9633       9632       9742       9743       9754       9753  
      9622       9623       9634       9633       9743       9744       9755       9754  
      9623       9624       9635       9634       9744       9745       9756       9755  
      9624       9625       9636       9635       9745       9746       9757       9756  
      9626       9627       9638       9637       9747       9748       9759       9758  
      9627       9628       9639       9638       9748       9749       9760       9759  
      9628       9629       9640       9639       9749       9750       9761       9760  
      9629       9630       9641       9640       9750       9751       9762       9761  
      9630       9631       9642       9641       9751       9752       9763       9762  
      9631       9632       9643       9642       9752       9753       9764       9763  
      9632       9633       9644       9643       9753       9754       9765       9764  
      9633       9634       9645       9644       9754       9755       9766       9765  
      9634       9635       9646       9645       9755       9756       9767       9766  
      9635       9636       9647       9646       9756       9757       9768       9767  
      9637       9638       9649       9648       9758       9759       9770       9769  
      9638       9639       9650       9649       9759       9760       9771       9770  
      9639       9640       9651       9650       9760       9761       9772       9771  
      9640       9641       9652       9651       9761       9762       9773       9772  
      9641       9642       9653       9652       9762       9763       9774       9773  
      9642       9643       9654       9653       9763       9764       9775       9774  
      9643       9644       9655       9654       9764       9765       9776       9775  
      9644       9645       9656       9655       9765       9766       9777       9776  
      9645       9646       9657       9656       9766       9767       9778       9777  
      9646       9647       9658       9657       9767       9768       9779       9778  
      9648       9649       9660       9659       9769       9770       9781       9780  
      9649       9650       9661       9660       9770       9771       9782       9781  
      9650       9651       9662       9661       9771       9772       9783       9782  
      9651       9652       9663       9662       9772       9773       9784       9783  
      9652       9653       9664       9663       9773       9774       9785       9784  
      9653       9654       9665       9664       9774       9775       9786       9785  
      9654       9655       9666       9665       9775       9776       9787       9786  
      9655       9656       9667       9666       9776       9777       9788       9787  
      9656       9657       9668       9667       9777       9778       9789       9788  
      9657       9658       9669       9668       9778       9779       9790       9789  
      9659       9660       9671       9670       9780       9781       9792       9791  
      9660       9661       9672       9671       9781       9782       9793       9792  
      9661       9662       9673       9672       9782       9783       9794       9793  
      9662       9663       9674       9673       9783       9784       9795       9794  
      9663       9664       9675       9674       9784       9785       9796       9795  
      9664       9665       9676       9675       9785       9786       9797       9796  
      9665       9666       9677       9676       9786       9787       9798       9797  
      9666       9667       9678       9677       9787       9788       9799       9798  
      9667       9668       9679       9678       9788       9789       9800       9799  
      9668       9669       9680       9679       9789       9790       9801       9800  
      9681       9682       9693       9692       9802       9803       9814       9813  
      9682       9683       9694       9693       9803       9804       9815       9814  
      9683       9684       9695       9694       9804       9805       9816       9815  
      9684       9685       9696       9695       9805       9806       9817       9816  
      9685       9686       9697       9696       9806       9807       9818       9817  
      9686       9687       9698       9697       9807       9808       9819       9818  
      9687       9688       9699       9698       9808       9809       9820       9819  
      9688       9689       9700       9699       9809       9810       9821       9820  
      9689       9690       9701       9700       9810       9811       9822       9821  
      9690       9691       9702       9701       9811       9812       9823       9822  
      9692       9693       9704       9703       9813       9814       9825       9824  
      9693       9694       9705       9704       9814       9815       9826       9825  
      9694       9695       9706       9705       9815       9816       9827       9826  
      9695       9696       9707       9706       9816       9817       9828       9827  
      9696       9697       9708       9707       9817       9818       9829       9828  
      9697       9698       9709       9708       9818       9819       9830       9829  
      9698       9699       9710       9709       9819       9820       9831       9830  
      9699       9700       9711       9710       9820       9821       9832       9831  
      9700       9701       9712       9711       9821       9822       9833       9832  
      9701       9702       9713       9712       9822       9823       9834       9833  
      9703       9704       9715       9714       9824       9825       9836       9835  
      9704       9705       9716       9715       9825       9826       9837       9836  
      9705       9706       9717       9716       9826       9827       9838       9837  
      9706       9707       9718       9717       9827       9828       9839       9838  
      9707       9708       9719       9718       9828       9829       9840       9839  
      9708       9709       9720       9719       9829       9830       9841       9840  
      9709       9710       9721       9720       9830       9831       9842       9841  
      9710       9711       9722       9721       9831       9832       9843       9842  
      9711       9712       9723       9722       9832       9833       9844       9843  
      9712       9713       9724       9723       9833       9834       9845       9844  
      9714       9715       9726       9725       9835       9836       9847       9846  
      9715       9716       9727       9726       9836       9837       9848       9847  
      9716       9717       9728       9727       9837       9838       9849       9848  
      9717       9718       9729       9728       9838       9839       9850       9849  
      9718       9719       9730       9729       9839       9840       9851       9850  
      9719       9720       9731       9730       9840       9841       9852       9851  
      9720       9721       9732       9731       9841       9842       9853       9852  
      9721       9722       9733       9732       9842       9843       9854       9853  
      9722       9723       9734       9733       9843       9844       9855       9854  
      9723       9724       9735       9734       9844       9845       9856       9855  
      9725       9726       9737       9736       9846       9847       9858       9857  
      9726       9727       9738       9737       9847       9848       9859       9858  
      9727       9728       9739       9738       9848       9849       9860       9859  
      9728       9729       9740       9739       9849       9850       9861       9860  
      9729       9730       9741       9740       9850       9851       9862       9861  
      9730       9731       9742       9741       9851       9852       9863       9862  
      9731       9732       9743       9742       9852       9853       9864       9863  
      9732       9733       9744       9743       9853       9854       9865       9864  
      9733       9734       9745       9744       9854       9855       9866       9865  
      9734       9735       9746       9745       9855       9856       9867       9866  
      9736       9737       9748       9747       9857       9858       9869       9868  
      9737       9738       9749       9748       9858       9859       9870       9869  
      9738       9739       9750       9749       9859       9860       9871       9870  
      9739       9740       9751       9750       9860       9861       9872       9871  
      9740       9741       9752       9751       9861       9862       9873       9872  
      9741       9742       9753       9752       9862       9863       9874       9873  
      9742       9743       9754       9753       9863       9864       9875       9874  
      9743       9744       9755       9754       9864       9865       9876       9875  
      9744       9745       9756       9755       9865       9866       9877       9876  
      9745       9746       9757       9756       9866       9867       9878       9877  
      9747       9748       9759       9758       9868       9869       9880       9879  
      9748       9749       9760       9759       9869       9870       9881       9880  
      9749       9750       9761       9760       9870       9871       9882       9881  
      9750       9751       9762       9761       9871       9872       9883       9882  
      9751       9752       9763       9762       9872       9873       9884       9883  
      9752       9753       9764       9763       9873       9874       9885       9884  
      9753       9754       9765       9764       9874       9875       9886       9885  
      9754       9755       9766       9765       9875       9876       9887       9886  
      9755       9756       9767       9766       9876       9877       9888       9887  
      9756       9757       9768       9767       9877       9878       9889       9888  
      9758       9759       9770       9769       9879       9880       9891       9890  
      9759       9760       9771       9770       9880       9881       9892       9891  
      9760       9761       9772       9771       9881       9882       9893       9892  
      9761       9762       9773       9772       9882       9883       9894       9893  
      9762       9763       9774       9773       9883       9884       9895       9894  
      9763       9764       9775       9774       9884       9885       9896       9895  
      9764       9765       9776       9775       9885       9886       9897       9896  
      9765       9766       9777       9776       9886       9887       9898       9897  
      9766       9767       9778       9777       9887       9888       9899       9898  
      9767       9768       9779       9778       9888       9889       9900       9899  
      9769       9770       9781       9780       9890       9891       9902       9901  
      9770       9771       9782       9781       9891       9892       9903       9902  
      9771       9772       9783       9782       9892       9893       9904       9903  
      9772       9773       9784       9783       9893       9894       9905       9904  
      9773       9774       9785       9784       9894       9895       9906       9905  
      9774       9775       9786       9785       9895       9896       9907       9906  
      9775       9776       9787       9786       9896       9897       9908       9907  
      9776       9777       9788       9787       9897       9898       9909       9908  
      9777       9778       9789       9788       9898       9899       9910       9909  
      9778       9779       9790       9789       9899       9900       9911       9910  
      9780       9781       9792       9791       9901       9902       9913       9912  
      9781       9782       9793       9792       9902       9903       9914       9913  
      9782       9783       9794       9793       9903       9904       9915       9914  
      9783       9784       9795       9794       9904       9905       9916       9915  
      9784       9785       9796       9795       9905       9906       9917       9916  
      9785       9786       9797       9796       9906       9907       9918       9917  
      9786       9787       9798       9797       9907       9908       9919       9918  
      9787       9788       9799       9798       9908       9909       9920       9919  
      9788       9789       9800       9799       9909       9910       9921       9920  
      9789       9790       9801       9800       9910       9911       9922       9921  
      9802       9803       9814       9813       9923       9924       9935       9934  
      9803       9804       9815       9814       9924       9925       9936       9935  
      9804       9805       9816       9815       9925       9926       9937       9936  
      9805       9806       9817       9816       9926       9927       9938       9937  
      9806       9807       9818       9817       9927       9928       9939       9938  
      9807       9808       9819       9818       9928       9929       9940       9939  
      9808       9809       9820       9819       9929       9930       9941       9940  
      9809       9810       9821       9820       9930       9931       9942       9941  
      9810       9811       9822       9821       9931       9932       9943       9942  
      9811       9812       9823       9822       9932       9933       9944       9943  
      9813       9814       9825       9824       9934       9935       9946       9945  
      9814       9815       9826       9825       9935       9936       9947       9946  
      9815       9816       9827       9826       9936       9937       9948       9947  
      9816       9817       9828       9827       9937       9938       9949       9948  
      9817       9818       9829       9828       9938       9939       9950       9949  
      9818       9819       9830       9829       9939       9940       9951       9950  
      9819       9820       9831       9830       9940       9941       9952       9951  
      9820       9821       9832       9831       9941       9942       9953       9952  
      9821       9822       9833       9832       9942       9943       9954       9953  
      9822       9823       9834       9833       9943       9944       9955       9954  
      9824       9825       9836       9835       9945       9946       9957       9956  
      9825       9826       9837       9836       9946       9947       9958       9957  
      9826       9827       9838       9837       9947       9948       9959       9958  
      9827       9828       9839       9838       9948       9949       9960       9959  
      9828       9829       9840       9839       9949       9950       9961       9960  
      9829       9830       9841       9840       9950       9951       9962       9961  
      9830       9831       9842       9841       9951       9952       9963       9962  
      9831       9832       9843       9842       9952       9953       9964       9963  
      9832       9833       9844       9843       9953       9954       9965       9964  
      9833       9834       9845       9844       9954       9955       9966       9965  
      9835       9836       9847       9846       9956       9957       9968       9967  
      9836       9837       9848       9847       9957       9958       9969       9968  
      9837       9838       9849       9848       9958       9959       9970       9969  
      9838       9839       9850       9849       9959       9960       9971       9970  
      9839       9840       9851       9850       9960       9961       9972       9971  
      9840       9841       9852       9851       9961       9962       9973       9972  
      9841       9842       9853       9852       9962       9963       9974       9973  
      9842       9843       9854       9853       9963       9964       9975       9974  
      9843       9844       9855       9854       9964       9965       9976       9975  
      9844       9845       9856       9855       9965       9966       9977       9976  
      9846       9847       9858       9857       9967       9968       9979       9978  
      9847       9848       9859       9858       9968       9969       9980       9979  
      9848       9849       9860       9859       9969       9970       9981       9980  
      9849       9850       9861       9860       9970       9971       9982       9981  
      9850       9851       9862       9861       9971       9972       9983       9982  
      9851       9852       9863       9862       9972       9973       9984       9983  
      9852       9853       9864       9863       9973       9974       9985       9984  
      9853       9854       9865       9864       9974       9975       9986       9985  
      9854       9855       9866       9865       9975       9976       9987       9986  
      9855       9856       9867       9866       9976       9977       9988       9987  
      9857       9858       9869       9868       9978       9979       9990       9989  
      9858       9859       9870       9869       9979       9980       9991       9990  
      9859       9860       9871       9870       9980       9981       9992       9991  
      9860       9861       9872       9871       9981       9982       9993       9992  
      9861       9862       9873       9872       9982       9983       9994       9993  
      9862       9863       9874       9873       9983       9984       9995       9994  
      9863       9864       9875       9874       9984       9985       9996       9995  
      9864       9865       9876       9875       9985       9986       9997       9996  
      9865       9866       9877       9876       9986       9987       9998       9997  
      9866       9867       9878       9877       9987       9988       9999       9998  
      9868       9869       9880       9879       9989       9990      10001      10000  
      9869       9870       9881       9880       9990       9991      10002      10001  
      9870       9871       9882       9881       9991       9992      10003      10002  
      9871       9872       9883       9882       9992       9993      10004      10003  
      9872       9873       9884       9883       9993       9994      10005      10004  
      9873       9874       9885       9884       9994       9995      10006      10005  
      9874       9875       9886       9885       9995       9996      10007      10006  
      9875       9876       9887       9886       9996       9997      10008      10007  
      9876       9877       9888       9887       9997       9998      10009      10008  
      9877       9878       9889       9888       9998       9999      10010      10009  
      9879       9880       9891       9890      10000      10001      10012      10011  
      9880       9881       9892       9891      10001      10002      10013      10012  
      9881       9882       9893       9892      10002      10003      10014      10013  
      9882       9883       9894       9893      10003      10004      10015      10014  
      9883       9884       9895       9894      10004      10005      10016      10015  
      9884       9885       9896       9895      10005      10006      10017      10016  
      9885       9886       9897       9896      10006      10007      10018      10017  
      9886       9887       9898       9897      10007      10008      10019      10018  
      9887       9888       9899       9898      10008      10009      10020      10019  
      9888       9889       9900       9899      10009      10010      10021      10020  
      9890       9891       9902       9901      10011      10012      10023      10022  
      9891       9892       9903       9902      10012      10013      10024      10023  
      9892       9893       9904       9903      10013      10014      10025      10024  
      9893       9894       9905       9904      10014      10015      10026      10025  
      9894       9895       9906       9905      10015      10016      10027      10026  
      9895       9896       9907       9906      10016      10017      10028      10027  
      9896       9897       9908       9907      10017      10018      10029      10028  
      9897       9898       9909       9908      10018      10019      10030      10029  
      9898       9899       9910       9909      10019      10020      10031      10030  
      9899       9900       9911       9910      10020      10021      10032      10031  
      9901       9902       9913       9912      10022      10023      10034      10033  
      9902       9903       9914       9913      10023      10024      10035      10034  
      9903       9904       9915       9914      10024      10025      10036      10035  
      9904       9905       9916       9915      10025      10026      10037      10036  
      9905       9906       9917       9916      10026      10027      10038      10037  
      9906       9907       9918       9917      10027      10028      10039      10038  
      9907       9908       9919       9918      10028      10029      10040      10039  
      9908       9909       9920       9919      10029      10030      10041      10040  
      9909       9910       9921       9920      10030      10031      10042      10041  
      9910       9911       9922       9921      10031      10032      10043      10042  
      9923       9924       9935       9934      10044      10045      10056      10055  
      9924       9925       9936       9935      10045      10046      10057      10056  
      9925       9926       9937       9936      10046      10047      10058      10057  
      9926       9927       9938       9937      10047      10048      10059      10058  
      9927       9928       9939       9938      10048      10049      10060      10059  
      9928       9929       9940       9939      10049      10050      10061      10060  
      9929       9930       9941       9940      10050      10051      10062      10061  
      9930       9931       9942       9941      10051      10052      10063      10062  
      9931       9932       9943       9942      10052      10053      10064      10063  
      9932       9933       9944       9943      10053      10054      10065      10064  
      9934       9935       9946       9945      10055      10056      10067      10066  
      9935       9936       9947       9946      10056      10057      10068      10067  
      9936       9937       9948       9947      10057      10058      10069      10068  
      9937       9938       9949       9948      10058      10059      10070      10069  
      9938       9939       9950       9949      10059      10060      10071      10070  
      9939       9940       9951       9950      10060      10061      10072      10071  
      9940       9941       9952       9951      10061      10062      10073      10072  
      9941       9942       9953       9952      10062      10063      10074      10073  
      9942       9943       9954       9953      10063      10064      10075      10074  
      9943       9944       9955       9954      10064      10065      10076      10075  
      9945       9946       9957       9956      10066      10067      10078      10077  
      9946       9947       9958       9957      10067      10068      10079      10078  
      9947       9948       9959       9958      10068      10069      10080      10079  
      9948       9949       9960       9959      10069      10070      10081      10080  
      9949       9950       9961       9960      10070      10071      10082      10081  
      9950       9951       9962       9961      10071      10072      10083      10082  
      9951       9952       9963       9962      10072      10073      10084      10083  
      9952       9953       9964       9963      10073      10074      10085      10084  
      9953       9954       9965       9964      10074      10075      10086      10085  
      9954       9955       9966       9965      10075      10076      10087      10086  
      9956       9957       9968       9967      10077      10078      10089      10088  
      9957       9958       9969       9968      10078      10079      10090      10089  
      9958       9959       9970       9969      10079      10080      10091      10090  
      9959       9960       9971       9970      10080      10081      10092      10091  
      9960       9961       9972       9971      10081      10082      10093      10092  
      9961       9962       9973       9972      10082      10083      10094      10093  
      9962       9963       9974       9973      10083      10084      10095      10094  
      9963       9964       9975       9974      10084      10085      10096      10095  
      9964       9965       9976       9975      10085      10086      10097      10096  
      9965       9966       9977       9976      10086      10087      10098      10097  
      9967       9968       9979       9978      10088      10089      10100      10099  
      9968       9969       9980       9979      10089      10090      10101      10100  
      9969       9970       9981       9980      10090      10091      10102      10101  
      9970       9971       9982       9981      10091      10092      10103      10102  
      9971       9972       9983       9982      10092      10093      10104      10103  
      9972       9973       9984       9983      10093      10094      10105      10104  
      9973       9974       9985       9984      10094      10095      10106      10105  
      9974       9975       9986       9985      10095      10096      10107      10106  
      9975       9976       9987       9986      10096      10097      10108      10107  
      9976       9977       9988       9987      10097      10098      10109      10108  
      9978       9979       9990       9989      10099      10100      10111      10110  
      9979       9980       9991       9990      10100      10101      10112      10111  
      9980       9981       9992       9991      10101      10102      10113      10112  
      9981       9982       9993       9992      10102      10103      10114      10113  
      9982       9983       9994       9993      10103      10104      10115      10114  
      9983       9984       9995       9994      10104      10105      10116      10115  
      9984       9985       9996       9995      10105      10106      10117      10116  
      9985       9986       9997       9996      10106      10107      10118      10117  
      9986       9987       9998       9997      10107      10108      10119      10118  
      9987       9988       9999       9998      10108      10109      10120      10119  
      9989       9990      10001      10000      10110      10111      10122      10121  
      9990       9991      10002      10001      10111      10112      10123      10122  
      9991       9992      10003      10002      10112      10113      10124      10123  
      9992       9993      10004      10003      10113      10114      10125      10124  
      9993       9994      10005      10004      10114      10115      10126      10125  
      9994       9995      10006      10005      10115      10116      10127      10126  
      9995       9996      10007      10006      10116      10117      10128      10127  
      9996       9997      10008      10007      10117      10118      10129      10128  
      9997       9998      10009      10008      10118      10119      10130      10129  
      9998       9999      10010      10009      10119      10120      10131      10130  
     10000      10001      10012      10011      10121      10122      10133      10132  
     10001      10002      10013      10012      10122      10123      10134      10133  
     10002      10003      10014      10013      10123      10124      10135      10134  
     10003      10004      10015      10014      10124      10125      10136      10135  
     10004      10005      10016      10015      10125      10126      10137      10136  
     10005      10006      10017      10016      10126      10127      10138      10137  
     10006      10007      10018      10017      10127      10128      10139      10138  
     10007      10008      10019      10018      10128      10129      10140      10139  
     10008      10009      10020      10019      10129      10130      10141      10140  
     10009      10010      10021      10020      10130      10131      10142      10141  
     10011      10012      10023      10022      10132      10133      10144      10143  
     10012      10013      10024      10023      10133      10134      10145      10144  
     10013      10014      10025      10024      10134      10135      10146      10145  
     10014      10015      10026      10025      10135      10136      10147      10146  
     10015      10016      10027      10026      10136      10137      10148      10147  
     10016      10017      10028      10027      10137      10138      10149      10148  
     10017      10018      10029      10028      10138      10139      10150      10149  
     10018      10019      10030      10029      10139      10140      10151      10150  
     10019      10020      10031      10030      10140      10141      10152      10151  
     10020      10021      10032      10031      10141      10142      10153      10152  
     10022      10023      10034      10033      10143      10144      10155      10154  
     10023      10024      10035      10034      10144      10145      10156      10155  
     10024      10025      10036      10035      10145      10146      10157      10156  
     10025      10026      10037      10036      10146      10147      10158      10157  
     10026      10027      10038      10037      10147      10148      10159      10158  
     10027      10028      10039      10038      10148      10149      10160      10159  
     10028      10029      10040      10039      10149      10150      10161      10160  
     10029      10030      10041      10040      10150      10151      10162      10161  
     10030      10031      10042      10041      10151      10152      10163      10162  
     10031      10032      10043      10042      10152      10153      10164      10163  
     10044      10045      10056      10055      10165      10166      10177      10176  
     10045      10046      10057      10056      10166      10167      10178      10177  
     10046      10047      10058      10057      10167      10168      10179      10178  
     10047      10048      10059      10058      10168      10169      10180      10179  
     10048      10049      10060      10059      10169      10170      10181      10180  
     10049      10050      10061      10060      10170      10171      10182      10181  
     10050      10051      10062      10061      10171      10172      10183      10182  
     10051      10052      10063      10062      10172      10173      10184      10183  
     10052      10053      10064      10063      10173      10174      10185      10184  
     10053      10054      10065      10064      10174      10175      10186      10185  
     10055      10056      10067      10066      10176      10177      10188      10187  
     10056      10057      10068      10067      10177      10178      10189      10188  
     10057      10058      10069      10068      10178      10179      10190      10189  
     10058      10059      10070      10069      10179      10180      10191      10190  
     10059      10060      10071      10070      10180      10181      10192      10191  
     10060      10061      10072      10071      10181      10182      10193      10192  
     10061      10062      10073      10072      10182      10183      10194      10193  
     10062      10063      10074      10073      10183      10184      10195      10194  
     10063      10064      10075      10074      10184      10185      10196      10195  
     10064      10065      10076      10075      10185      10186      10197      10196  
     10066      10067      10078      10077      10187      10188      10199      10198  
     10067      10068      10079      10078      10188      10189      10200      10199  
     10068      10069      10080      10079      10189      10190      10201      10200  
     10069      10070      10081      10080      10190      10191      10202      10201  
     10070      10071      10082      10081      10191      10192      10203      10202  
     10071      10072      10083      10082      10192      10193      10204      10203  
     10072      10073      10084      10083      10193      10194      10205      10204  
     10073      10074      10085      10084      10194      10195      10206      10205  
     10074      10075      10086      10085      10195      10196      10207      10206  
     10075      10076      10087      10086      10196      10197      10208      10207  
     10077      10078      10089      10088      10198      10199      10210      10209  
     10078      10079      10090      10089      10199      10200      10211      10210  
     10079      10080      10091      10090      10200      10201      10212      10211  
     10080      10081      10092      10091      10201      10202      10213      10212  
     10081      10082      10093      10092      10202      10203      10214      10213  
     10082      10083      10094      10093      10203      10204      10215      10214  
     10083      10084      10095      10094      10204      10205      10216      10215  
     10084      10085      10096      10095      10205      10206      10217      10216  
     10085      10086      10097      10096      10206      10207      10218      10217  
     10086      10087      10098      10097      10207      10208      10219      10218  
     10088      10089      10100      10099      10209      10210      10221      10220  
     10089      10090      10101      10100      10210      10211      10222      10221  
     10090      10091      10102      10101      10211      10212      10223      10222  
     10091      10092      10103      10102      10212      10213      10224      10223  
     10092      10093      10104      10103      10213      10214      10225      10224  
     10093      10094      10105      10104      10214      10215      10226      10225  
     10094      10095      10106      10105      10215      10216      10227      10226  
     10095      10096      10107      10106      10216      10217      10228      10227  
     10096      10097      10108      10107      10217      10218      10229      10228  
     10097      10098      10109      10108      10218      10219      10230      10229  
     10099      10100      10111      10110      10220      10221      10232      10231  
     10100      10101      10112      10111      10221      10222      10233      10232  
     10101      10102      10113      10112      10222      10223      10234      10233  
     10102      10103      10114      10113      10223      10224      10235      10234  
     10103      10104      10115      10114      10224      10225      10236      10235  
     10104      10105      10116      10115      10225      10226      10237      10236  
     10105      10106      10117      10116      10226      10227      10238      10237  
     10106      10107      10118      10117      10227      10228      10239      10238  
     10107      10108      10119      10118      10228      10229      10240      10239  
     10108      10109      10120      10119      10229      10230      10241      10240  
     10110      10111      10122      10121      10231      10232      10243      10242  
     10111      10112      10123      10122      10232      10233      10244      10243  
     10112      10113      10124      10123      10233      10234      10245      10244  
     10113      10114      10125      10124      10234      10235      10246      10245  
     10114      10115      10126      10125      10235      10236      10247      10246  
     10115      10116      10127      10126      10236      10237      10248      10247  
     10116      10117      10128      10127      10237      10238      10249      10248  
     10117      10118      10129      10128      10238      10239      10250      10249  
     10118      10119      10130      10129      10239      10240      10251      10250  
     10119      10120      10131      10130      10240      10241      10252      10251  
     10121      10122      10133      10132      10242      10243      10254      10253  
     10122      10123      10134      10133      10243      10244      10255      10254  
     10123      10124      10135      10134      10244      10245      10256      10255  
     10124      10125      10136      10135      10245      10246      10257      10256  
     10125      10126      10137      10136      10246      10247      10258      10257  
     10126      10127      10138      10137      10247      10248      10259      10258  
     10127      10128      10139      10138      10248      10249      10260      10259  
     10128      10129      10140      10139      10249      10250      10261      10260  
     10129      10130      10141      10140      10250      10251      10262      10261  
     10130      10131      10142      10141      10251      10252      10263      10262  
     10132      10133      10144      10143      10253      10254      10265      10264  
     10133      10134      10145      10144      10254      10255      10266      10265  
     10134      10135      10146      10145      10255      10256      10267      10266  
     10135      10136      10147      10146      10256      10257      10268      10267  
     10136      10137      10148      10147      10257      10258      10269      10268  
     10137      10138      10149      10148      10258      10259      10270      10269  
     10138      10139      10150      10149      10259      10260      10271      10270  
     10139      10140      10151      10150      10260      10261      10272      10271  
     10140      10141      10152      10151      10261      10262      10273      10272  
     10141      10142      10153      10152      10262      10263      10274      10273  
     10143      10144      10155      10154      10264      10265      10276      10275  
     10144      10145      10156      10155      10265      10266      10277      10276  
     10145      10146      10157      10156      10266      10267      10278      10277  
     10146      10147      10158      10157      10267      10268      10279      10278  
     10147      10148      10159      10158      10268      10269      10280      10279  
     10148      10149      10160      10159      10269      10270      10281      10280  
     10149      10150      10161      10160      10270      10271      10282      10281  
     10150      10151      10162      10161      10271      10272      10283      10282  
     10151      10152      10163      10162      10272      10273      10284      10283  
     10152      10153      10164      10163      10273      10274      10285      10284  
     10165      10166      10177      10176      10286      10287      10298      10297  
     10166      10167      10178      10177      10287      10288      10299      10298  
     10167      10168      10179      10178      10288      10289      10300      10299  
     10168      10169      10180      10179      10289      10290      10301      10300  
     10169      10170      10181      10180      10290      10291      10302      10301  
     10170      10171      10182      10181      10291      10292      10303      10302  
     10171      10172      10183      10182      10292      10293      10304      10303  
     10172      10173      10184      10183      10293      10294      10305      10304  
     10173      10174      10185      10184      10294      10295      10306      10305  
     10174      10175      10186      10185      10295      10296      10307      10306  
     10176      10177      10188      10187      10297      10298      10309      10308  
     10177      10178      10189      10188      10298      10299      10310      10309  
     10178      10179      10190      10189      10299      10300      10311      10310  
     10179      10180      10191      10190      10300      10301      10312      10311  
     10180      10181      10192      10191      10301      10302      10313      10312  
     10181      10182      10193      10192      10302      10303      10314      10313  
     10182      10183      10194      10193      10303      10304      10315      10314  
     10183      10184      10195      10194      10304      10305      10316      10315  
     10184      10185      10196      10195      10305      10306      10317      10316  
     10185      10186      10197      10196      10306      10307      10318      10317  
     10187      10188      10199      10198      10308      10309      10320      10319  
     10188      10189      10200      10199      10309      10310      10321      10320  
     10189      10190      10201      10200      10310      10311      10322      10321  
     10190      10191      10202      10201      10311      10312      10323      10322  
     10191      10192      10203      10202      10312      10313      10324      10323  
     10192      10193      10204      10203      10313      10314      10325      10324  
     10193      10194      10205      10204      10314      10315      10326      10325  
     10194      10195      10206      10205      10315      10316      10327      10326  
     10195      10196      10207      10206      10316      10317      10328      10327  
     10196      10197      10208      10207      10317      10318      10329      10328  
     10198      10199      10210      10209      10319      10320      10331      10330  
     10199      10200      10211      10210      10320      10321      10332      10331  
     10200      10201      10212      10211      10321      10322      10333      10332  
     10201      10202      10213      10212      10322      10323      10334      10333  
     10202      10203      10214      10213      10323      10324      10335      10334  
     10203      10204      10215      10214      10324      10325      10336      10335  
     10204      10205      10216      10215      10325      10326      10337      10336  
     10205      10206      10217      10216      10326      10327      10338      10337  
     10206      10207      10218      10217      10327      10328      10339      10338  
     10207      10208      10219      10218      10328      10329      10340      10339  
     10209      10210      10221      10220      10330      10331      10342      10341  
     10210      10211      10222      10221      10331      10332      10343      10342  
     10211      10212      10223      10222      10332      10333      10344      10343  
     10212      10213      10224      10223      10333      10334      10345      10344  
     10213      10214      10225      10224      10334      10335      10346      10345  
     10214      10215      10226      10225      10335      10336      10347      10346  
     10215      10216      10227      10226      10336      10337      10348      10347  
     10216      10217      10228      10227      10337      10338      10349      10348  
     10217      10218      10229      10228      10338      10339      10350      10349  
     10218      10219      10230      10229      10339      10340      10351      10350  
     10220      10221      10232      10231      10341      10342      10353      10352  
     10221      10222      10233      10232      10342      10343      10354      10353  
     10222      10223      10234      10233      10343      10344      10355      10354  
     10223      10224      10235      10234      10344      10345      10356      10355  
     10224      10225      10236      10235      10345      10346      10357      10356  
     10225      10226      10237      10236      10346      10347      10358      10357  
     10226      10227      10238      10237      10347      10348      10359      10358  
     10227      10228      10239      10238      10348      10349      10360      10359  
     10228      10229      10240      10239      10349      10350      10361      10360  
     10229      10230      10241      10240      10350      10351      10362      10361  
     10231      10232      10243      10242      10352      10353      10364      10363  
     10232      10233      10244      10243      10353      10354      10365      10364  
     10233      10234      10245      10244      10354      10355      10366      10365  
     10234      10235      10246      10245      10355      10356      10367      10366  
     10235      10236      10247      10246      10356      10357      10368      10367  
     10236      10237      10248      10247      10357      10358      10369      10368  
     10237      10238      10249      10248      10358      10359      10370      10369  
     10238      10239      10250      10249      10359      10360      10371      10370  
     10239      10240      10251      10250      10360      10361      10372      10371  
     10240      10241      10252      10251      10361      10362      10373      10372  
     10242      10243      10254      10253      10363      10364      10375      10374  
     10243      10244      10255      10254      10364      10365      10376      10375  
     10244      10245      10256      10255      10365      10366      10377      10376  
     10245      10246      10257      10256      10366      10367      10378      10377  
     10246      10247      10258      10257      10367      10368      10379      10378  
     10247      10248      10259      10258      10368      10369      10380      10379  
     10248      10249      10260      10259      10369      10370      10381      10380  
     10249      10250      10261      10260      10370      10371      10382      10381  
     10250      10251      10262      10261      10371      10372      10383      10382  
     10251      10252      10263      10262      10372      10373      10384      10383  
     10253      10254      10265      10264      10374      10375      10386      10385  
     10254      10255      10266      10265      10375      10376      10387      10386  
     10255      10256      10267      10266      10376      10377      10388      10387  
     10256      10257      10268      10267      10377      10378      10389      10388  
     10257      10258      10269      10268      10378      10379      10390      10389  
     10258      10259      10270      10269      10379      10380      10391      10390  
     10259      10260      10271      10270      10380      10381      10392      10391  
     10260      10261      10272      10271      10381      10382      10393      10392  
     10261      10262      10273      10272      10382      10383      10394      10393  
     10262      10263      10274      10273      10383      10384      10395      10394  
     10264      10265      10276      10275      10385      10386      10397      10396  
     10265      10266      10277      10276      10386      10387      10398      10397  
     10266      10267      10278      10277      10387      10388      10399      10398  
     10267      10268      10279      10278      10388      10389      10400      10399  
     10268      10269      10280      10279      10389      10390      10401      10400  
     10269      10270      10281      10280      10390      10391      10402      10401  
     10270      10271      10282      10281      10391      10392      10403      10402  
     10271      10272      10283      10282      10392      10393      10404      10403  
     10272      10273      10284      10283      10393      10394      10405      10404  
     10273      10274      10285      10284      10394      10395      10406      10405  
     10286      10287      10298      10297      10407      10408      10419      10418  
     10287      10288      10299      10298      10408      10409      10420      10419  
     10288      10289      10300      10299      10409      10410      10421      10420  
     10289      10290      10301      10300      10410      10411      10422      10421  
     10290      10291      10302      10301      10411      10412      10423      10422  
     10291      10292      10303      10302      10412      10413      10424      10423  
     10292      10293      10304      10303      10413      10414      10425      10424  
     10293      10294      10305      10304      10414      10415      10426      10425  
     10294      10295      10306      10305      10415      10416      10427      10426  
     10295      10296      10307      10306      10416      10417      10428      10427  
     10297      10298      10309      10308      10418      10419      10430      10429  
     10298      10299      10310      10309      10419      10420      10431      10430  
     10299      10300      10311      10310      10420      10421      10432      10431  
     10300      10301      10312      10311      10421      10422      10433      10432  
     10301      10302      10313      10312      10422      10423      10434      10433  
     10302      10303      10314      10313      10423      10424      10435      10434  
     10303      10304      10315      10314      10424      10425      10436      10435  
     10304      10305      10316      10315      10425      10426      10437      10436  
     10305      10306      10317      10316      10426      10427      10438      10437  
     10306      10307      10318      10317      10427      10428      10439      10438  
     10308      10309      10320      10319      10429      10430      10441      10440  
     10309      10310      10321      10320      10430      10431      10442      10441  
     10310      10311      10322      10321      10431      10432      10443      10442  
     10311      10312      10323      10322      10432      10433      10444      10443  
     10312      10313      10324      10323      10433      10434      10445      10444  
     10313      10314      10325      10324      10434      10435      10446      10445  
     10314      10315      10326      10325      10435      10436      10447      10446  
     10315      10316      10327      10326      10436      10437      10448      10447  
     10316      10317      10328      10327      10437      10438      10449      10448  
     10317      10318      10329      10328      10438      10439      10450      10449  
     10319      10320      10331      10330      10440      10441      10452      10451  
     10320      10321      10332      10331      10441      10442      10453      10452  
     10321      10322      10333      10332      10442      10443      10454      10453  
     10322      10323      10334      10333      10443      10444      10455      10454  
     10323      10324      10335      10334      10444      10445      10456      10455  
     10324      10325      10336      10335      10445      10446      10457      10456  
     10325      10326      10337      10336      10446      10447      10458      10457  
     10326      10327      10338      10337      10447      10448      10459      10458  
     10327      10328      10339      10338      10448      10449      10460      10459  
     10328      10329      10340      10339      10449      10450      10461      10460  
     10330      10331      10342      10341      10451      10452      10463      10462  
     10331      10332      10343      10342      10452      10453      10464      10463  
     10332      10333      10344      10343      10453      10454      10465      10464  
     10333      10334      10345      10344      10454      10455      10466      10465  
     10334      10335      10346      10345      10455      10456      10467      10466  
     10335      10336      10347      10346      10456      10457      10468      10467  
     10336      10337      10348      10347      10457      10458      10469      10468  
     10337      10338      10349      10348      10458      10459      10470      10469  
     10338      10339      10350      10349      10459      10460      10471      10470  
     10339      10340      10351      10350      10460      10461      10472      10471  
     10341      10342      10353      10352      10462      10463      10474      10473  
     10342      10343      10354      10353      10463      10464      10475      10474  
     10343      10344      10355      10354      10464      10465      10476      10475  
     10344      10345      10356      10355      10465      10466      10477      10476  
     10345      10346      10357      10356      10466      10467      10478      10477  
     10346      10347      10358      10357      10467      10468      10479      10478  
     10347      10348      10359      10358      10468      10469      10480      10479  
     10348      10349      10360      10359      10469      10470      10481      10480  
     10349      10350      10361      10360      10470      10471      10482      10481  
     10350      10351      10362      10361      10471      10472      10483      10482  
     10352      10353      10364      10363      10473      10474      10485      10484  
     10353      10354      10365      10364      10474      10475      10486      10485  
     10354      10355      10366      10365      10475      10476      10487      10486  
     10355      10356      10367      10366      10476      10477      10488      10487  
     10356      10357      10368      10367      10477      10478      10489      10488  
     10357      10358      10369      10368      10478      10479      10490      10489  
     10358      10359      10370      10369      10479      10480      10491      10490  
     10359      10360      10371      10370      10480      10481      10492      10491  
     10360      10361      10372      10371      10481      10482      10493      10492  
     10361      10362      10373      10372      10482      10483      10494      10493  
     10363      10364      10375      10374      10484      10485      10496      10495  
     10364      10365      10376      10375      10485      10486      10497      10496  
     10365      10366      10377      10376      10486      10487      10498      10497  
     10366      10367      10378      10377      10487      10488      10499      10498  
     10367      10368      10379      10378      10488      10489      10500      10499  
     10368      10369      10380      10379      10489      10490      10501      10500  
     10369      10370      10381      10380      10490      10491      10502      10501  
     10370      10371      10382      10381      10491      10492      10503      10502  
     10371      10372      10383      10382      10492      10493      10504      10503  
     10372      10373      10384      10383      10493      10494      10505      10504  
     10374      10375      10386      10385      10495      10496      10507      10506  
     10375      10376      10387      10386      10496      10497      10508      10507  
     10376      10377      10388      10387      10497      10498      10509      10508  
     10377      10378      10389      10388      10498      10499      10510      10509  
     10378      10379      10390      10389      10499      10500      10511      10510  
     10379      10380      10391      10390      10500      10501      10512      10511  
     10380      10381      10392      10391      10501      10502      10513      10512  
     10381      10382      10393      10392      10502      10503      10514      10513  
     10382      10383      10394      10393      10503      10504      10515      10514  
     10383      10384      10395      10394      10504      10505      10516      10515  
     10385      10386      10397      10396      10506      10507      10518      10517  
     10386      10387      10398      10397      10507      10508      10519      10518  
     10387      10388      10399      10398      10508      10509      10520      10519  
     10388      10389      10400      10399      10509      10510      10521      10520  
     10389      10390      10401      10400      10510      10511      10522      10521  
     10390      10391      10402      10401      10511      10512      10523      10522  
     10391      10392      10403      10402      10512      10513      10524      10523  
     10392      10393      10404      10403      10513      10514      10525      10524  
     10393      10394      10405      10404      10514      10515      10526      10525  
     10394      10395      10406      10405      10515      10516      10527      10526  
     10407      10408      10419      10418      10528      10529      10540      10539  
     10408      10409      10420      10419      10529      10530      10541      10540  
     10409      10410      10421      10420      10530      10531      10542      10541  
     10410      10411      10422      10421      10531      10532      10543      10542  
     10411      10412      10423      10422      10532      10533      10544      10543  
     10412      10413      10424      10423      10533      10534      10545      10544  
     10413      10414      10425      10424      10534      10535      10546      10545  
     10414      10415      10426      10425      10535      10536      10547      10546  
     10415      10416      10427      10426      10536      10537      10548      10547  
     10416      10417      10428      10427      10537      10538      10549      10548  
     10418      10419      10430      10429      10539      10540      10551      10550  
     10419      10420      10431      10430      10540      10541      10552      10551  
     10420      10421      10432      10431      10541      10542      10553      10552  
     10421      10422      10433      10432      10542      10543      10554      10553  
     10422      10423      10434      10433      10543      10544      10555      10554  
     10423      10424      10435      10434      10544      10545      10556      10555  
     10424      10425      10436      10435      10545      10546      10557      10556  
     10425      10426      10437      10436      10546      10547      10558      10557  
     10426      10427      10438      10437      10547      10548      10559      10558  
     10427      10428      10439      10438      10548      10549      10560      10559  
     10429      10430      10441      10440      10550      10551      10562      10561  
     10430      10431      10442      10441      10551      10552      10563      10562  
     10431      10432      10443      10442      10552      10553      10564      10563  
     10432      10433      10444      10443      10553      10554      10565      10564  
     10433      10434      10445      10444      10554      10555      10566      10565  
     10434      10435      10446      10445      10555      10556      10567      10566  
     10435      10436      10447      10446      10556      10557      10568      10567  
     10436      10437      10448      10447      10557      10558      10569      10568  
     10437      10438      10449      10448      10558      10559      10570      10569  
     10438      10439      10450      10449      10559      10560      10571      10570  
     10440      10441      10452      10451      10561      10562      10573      10572  
     10441      10442      10453      10452      10562      10563      10574      10573  
     10442      10443      10454      10453      10563      10564      10575      10574  
     10443      10444      10455      10454      10564      10565      10576      10575  
     10444      10445      10456      10455      10565      10566      10577      10576  
     10445      10446      10457      10456      10566      10567      10578      10577  
     10446      10447      10458      10457      10567      10568      10579      10578  
     10447      10448      10459      10458      10568      10569      10580      10579  
     10448      10449      10460      10459      10569      10570      10581      10580  
     10449      10450      10461      10460      10570      10571      10582      10581  
     10451      10452      10463      10462      10572      10573      10584      10583  
     10452      10453      10464      10463      10573      10574      10585      10584  
     10453      10454      10465      10464      10574      10575      10586      10585  
     10454      10455      10466      10465      10575      10576      10587      10586  
     10455      10456      10467      10466      10576      10577      10588      10587  
     10456      10457      10468      10467      10577      10578      10589      10588  
     10457      10458      10469      10468      10578      10579      10590      10589  
     10458      10459      10470      10469      10579      10580      10591      10590  
     10459      10460      10471      10470      10580      10581      10592      10591  
     10460      10461      10472      10471      10581      10582      10593      10592  
     10462      10463      10474      10473      10583      10584      10595      10594  
     10463      10464      10475      10474      10584      10585      10596      10595  
     10464      10465      10476      10475      10585      10586      10597      10596  
     10465      10466      10477      10476      10586      10587      10598      10597  
     10466      10467      10478      10477      10587      10588      10599      10598  
     10467      10468      10479      10478      10588      10589      10600      10599  
     10468      10469      10480      10479      10589      10590      10601      10600  
     10469      10470      10481      10480      10590      10591      10602      10601  
     10470      10471      10482      10481      10591      10592      10603      10602  
     10471      10472      10483      10482      10592      10593      10604      10603  
     10473      10474      10485      10484      10594      10595      10606      10605  
     10474      10475      10486      10485      10595      10596      10607      10606  
     10475      10476      10487      10486      10596      10597      10608      10607  
     10476      10477      10488      10487      10597      10598      10609      10608  
     10477      10478      10489      10488      10598      10599      10610      10609  
     10478      10479      10490      10489      10599      10600      10611      10610  
     10479      10480      10491      10490      10600      10601      10612      10611  
     10480      10481      10492      10491      10601      10602      10613      10612  
     10481      10482      10493      10492      10602      10603      10614      10613  
     10482      10483      10494      10493      10603      10604      10615      10614  
     10484      10485      10496      10495      10605      10606      10617      10616  
     10485      10486      10497      10496      10606      10607      10618      10617  
     10486      10487      10498      10497      10607      10608      10619      10618  
     10487      10488      10499      10498      10608      10609      10620      10619  
     10488      10489      10500      10499      10609      10610      10621      10620  
     10489      10490      10501      10500      10610      10611      10622      10621  
     10490      10491      10502      10501      10611      10612      10623      10622  
     10491      10492      10503      10502      10612      10613      10624      10623  
     10492      10493      10504      10503      10613      10614      10625      10624  
     10493      10494      10505      10504      10614      10615      10626      10625  
     10495      10496      10507      10506      10616      10617      10628      10627  
     10496      10497      10508      10507      10617      10618      10629      10628  
     10497      10498      10509      10508      10618      10619      10630      10629  
     10498      10499      10510      10509      10619      10620      10631      10630  
     10499      10500      10511      10510      10620      10621      10632      10631  
     10500      10501      10512      10511      10621      10622      10633      10632  
     10501      10502      10513      10512      10622      10623      10634      10633  
     10502      10503      10514      10513      10623      10624      10635      10634  
     10503      10504      10515      10514      10624      10625      10636      10635  
     10504      10505      10516      10515      10625      10626      10637      10636  
     10506      10507      10518      10517      10627      10628      10639      10638  
     10507      10508      10519      10518      10628      10629      10640      10639  
     10508      10509      10520      10519      10629      10630      10641      10640  
     10509      10510      10521      10520      10630      10631      10642      10641  
     10510      10511      10522      10521      10631      10632      10643      10642  
     10511      10512      10523      10522      10632      10633      10644      10643  
     10512      10513      10524      10523      10633      10634      10645      10644  
     10513      10514      10525      10524      10634      10635      10646      10645  
     10514      10515      10526      10525      10635      10636      10647      10646  
     10515      10516      10527      10526      10636      10637      10648      10647  
     10528      10529      10540      10539      10649      10650      10661      10660  
     10529      10530      10541      10540      10650      10651      10662      10661  
     10530      10531      10542      10541      10651      10652      10663      10662  
     10531      10532      10543      10542      10652      10653      10664      10663  
     10532      10533      10544      10543      10653      10654      10665      10664  
     10533      10534      10545      10544      10654      10655      10666      10665  
     10534      10535      10546      10545      10655      10656      10667      10666  
     10535      10536      10547      10546      10656      10657      10668      10667  
     10536      10537      10548      10547      10657      10658      10669      10668  
     10537      10538      10549      10548      10658      10659      10670      10669  
     10539      10540      10551      10550      10660      10661      10672      10671  
     10540      10541      10552      10551      10661      10662      10673      10672  
     10541      10542      10553      10552      10662      10663      10674      10673  
     10542      10543      10554      10553      10663      10664      10675      10674  
     10543      10544      10555      10554      10664      10665      10676      10675  
     10544      10545      10556      10555      10665      10666      10677      10676  
     10545      10546      10557      10556      10666      10667      10678      10677  
     10546      10547      10558      10557      10667      10668      10679      10678  
     10547      10548      10559      10558      10668      10669      10680      10679  
     10548      10549      10560      10559      10669      10670      10681      10680  
     10550      10551      10562      10561      10671      10672      10683      10682  
     10551      10552      10563      10562      10672      10673      10684      10683  
     10552      10553      10564      10563      10673      10674      10685      10684  
     10553      10554      10565      10564      10674      10675      10686      10685  
     10554      10555      10566      10565      10675      10676      10687      10686  
     10555      10556      10567      10566      10676      10677      10688      10687  
     10556      10557      10568      10567      10677      10678      10689      10688  
     10557      10558      10569      10568      10678      10679      10690      10689  
     10558      10559      10570      10569      10679      10680      10691      10690  
     10559      10560      10571      10570      10680      10681      10692      10691  
     10561      10562      10573      10572      10682      10683      10694      10693  
     10562      10563      10574      10573      10683      10684      10695      10694  
     10563      10564      10575      10574      10684      10685      10696      10695  
     10564      10565      10576      10575      10685      10686      10697      10696  
     10565      10566      10577      10576      10686      10687      10698      10697  
     10566      10567      10578      10577      10687      10688      10699      10698  
     10567      10568      10579      10578      10688      10689      10700      10699  
     10568      10569      10580      10579      10689      10690      10701      10700  
     10569      10570      10581      10580      10690      10691      10702      10701  
     10570      10571      10582      10581      10691      10692      10703      10702  
     10572      10573      10584      10583      10693      10694      10705      10704  
     10573      10574      10585      10584      10694      10695      10706      10705  
     10574      10575      10586      10585      10695      10696      10707      10706  
     10575      10576      10587      10586      10696      10697      10708      10707  
     10576      10577      10588      10587      10697      10698      10709      10708  
     10577      10578      10589      10588      10698      10699      10710      10709  
     10578      10579      10590      10589      10699      10700      10711      10710  
     10579      10580      10591      10590      10700      10701      10712      10711  
     10580      10581      10592      10591      10701      10702      10713      10712  
     10581      10582      10593      10592      10702      10703      10714      10713  
     10583      10584      10595      10594      10704      10705      10716      10715  
     10584      10585      10596      10595      10705      10706      10717      10716  
     10585      10586      10597      10596      10706      10707      10718      10717  
     10586      10587      10598      10597      10707      10708      10719      10718  
     10587      10588      10599      10598      10708      10709      10720      10719  
     10588      10589      10600      10599      10709      10710      10721      10720  
     10589      10590      10601      10600      10710      10711      10722      10721  
     10590      10591      10602      10601      10711      10712      10723      10722  
     10591      10592      10603      10602      10712      10713      10724      10723  
     10592      10593      10604      10603      10713      10714      10725      10724  
     10594      10595      10606      10605      10715      10716      10727      10726  
     10595      10596      10607      10606      10716      10717      10728      10727  
     10596      10597      10608      10607      10717      10718      10729      10728  
     10597      10598      10609      10608      10718      10719      10730      10729  
     10598      10599      10610      10609      10719      10720      10731      10730  
     10599      10600      10611      10610      10720      10721      10732      10731  
     10600      10601      10612      10611      10721      10722      10733      10732  
     10601      10602      10613      10612      10722      10723      10734      10733  
     10602      10603      10614      10613      10723      10724      10735      10734  
     10603      10604      10615      10614      10724      10725      10736      10735  
     10605      10606      10617      10616      10726      10727      10738      10737  
     10606      10607      10618      10617      10727      10728      10739      10738  
     10607      10608      10619      10618      10728      10729      10740      10739  
     10608      10609      10620      10619      10729      10730      10741      10740  
     10609      10610      10621      10620      10730      10731      10742      10741  
     10610      10611      10622      10621      10731      10732      10743      10742  
     10611      10612      10623      10622      10732      10733      10744      10743  
     10612      10613      10624      10623      10733      10734      10745      10744  
     10613      10614      10625      10624      10734      10735      10746      10745  
     10614      10615      10626      10625      10735      10736      10747      10746  
     10616      10617      10628      10627      10737      10738      10749      10748  
     10617      10618      10629      10628      10738      10739      10750      10749  
     10618      10619      10630      10629      10739      10740      10751      10750  
     10619      10620      10631      10630      10740      10741      10752      10751  
     10620      10621      10632      10631      10741      10742      10753      10752  
     10621      10622      10633      10632      10742      10743      10754      10753  
     10622      10623      10634      10633      10743      10744      10755      10754  
     10623      10624      10635      10634      10744      10745      10756      10755  
     10624      10625      10636      10635      10745      10746      10757      10756  
     10625      10626      10637      10636      10746      10747      10758      10757  
     10627      10628      10639      10638      10748      10749      10760      10759  
     10628      10629      10640      10639      10749      10750      10761      10760  
     10629      10630      10641      10640      10750      10751      10762      10761  
     10630      10631      10642      10641      10751      10752      10763      10762  
     10631      10632      10643      10642      10752      10753      10764      10763  
     10632      10633      10644      10643      10753      10754      10765      10764  
     10633      10634      10645      10644      10754      10755      10766      10765  
     10634      10635      10646      10645      10755      10756      10767      10766  
     10635      10636      10647      10646      10756      10757      10768      10767  
     10636      10637      10648      10647      10757      10758      10769      10768  
     10649      10650      10661      10660      10770      10771      10782      10781  
     10650      10651      10662      10661      10771      10772      10783      10782  
     10651      10652      10663      10662      10772      10773      10784      10783  
     10652      10653      10664      10663      10773      10774      10785      10784  
     10653      10654      10665      10664      10774      10775      10786      10785  
     10654      10655      10666      10665      10775      10776      10787      10786  
     10655      10656      10667      10666      10776      10777      10788      10787  
     10656      10657      10668      10667      10777      10778      10789      10788  
     10657      10658      10669      10668      10778      10779      10790      10789  
     10658      10659      10670      10669      10779      10780      10791      10790  
     10660      10661      10672      10671      10781      10782      10793      10792  
     10661      10662      10673      10672      10782      10783      10794      10793  
     10662      10663      10674      10673      10783      10784      10795      10794  
     10663      10664      10675      10674      10784      10785      10796      10795  
     10664      10665      10676      10675      10785      10786      10797      10796  
     10665      10666      10677      10676      10786      10787      10798      10797  
     10666      10667      10678      10677      10787      10788      10799      10798  
     10667      10668      10679      10678      10788      10789      10800      10799  
     10668      10669      10680      10679      10789      10790      10801      10800  
     10669      10670      10681      10680      10790      10791      10802      10801  
     10671      10672      10683      10682      10792      10793      10804      10803  
     10672      10673      10684      10683      10793      10794      10805      10804  
     10673      10674      10685      10684      10794      10795      10806      10805  
     10674      10675      10686      10685      10795      10796      10807      10806  
     10675      10676      10687      10686      10796      10797      10808      10807  
     10676      10677      10688      10687      10797      10798      10809      10808  
     10677      10678      10689      10688      10798      10799      10810      10809  
     10678      10679      10690      10689      10799      10800      10811      10810  
     10679      10680      10691      10690      10800      10801      10812      10811  
     10680      10681      10692      10691      10801      10802      10813      10812  
     10682      10683      10694      10693      10803      10804      10815      10814  
     10683      10684      10695      10694      10804      10805      10816      10815  
     10684      10685      10696      10695      10805      10806      10817      10816  
     10685      10686      10697      10696      10806      10807      10818      10817  
     10686      10687      10698      10697      10807      10808      10819      10818  
     10687      10688      10699      10698      10808      10809      10820      10819  
     10688      10689      10700      10699      10809      10810      10821      10820  
     10689      10690      10701      10700      10810      10811      10822      10821  
     10690      10691      10702      10701      10811      10812      10823      10822  
     10691      10692      10703      10702      10812      10813      10824      10823  
     10693      10694      10705      10704      10814      10815      10826      10825  
     10694      10695      10706      10705      10815      10816      10827      10826  
     10695      10696      10707      10706      10816      10817      10828      10827  
     10696      10697      10708      10707      10817      10818      10829      10828  
     10697      10698      10709      10708      10818      10819      10830      10829  
     10698      10699      10710      10709      10819      10820      10831      10830  
     10699      10700      10711      10710      10820      10821      10832      10831  
     10700      10701      10712      10711      10821      10822      10833      10832  
     10701      10702      10713      10712      10822      10823      10834      10833  
     10702      10703      10714      10713      10823      10824      10835      10834  
     10704      10705      10716      10715      10825      10826      10837      10836  
     10705      10706      10717      10716      10826      10827      10838      10837  
     10706      10707      10718      10717      10827      10828      10839      10838  
     10707      10708      10719      10718      10828      10829      10840      10839  
     10708      10709      10720      10719      10829      10830      10841      10840  
     10709      10710      10721      10720      10830      10831      10842      10841  
     10710      10711      10722      10721      10831      10832      10843      10842  
     10711      10712      10723      10722      10832      10833      10844      10843  
     10712      10713      10724      10723      10833      10834      10845      10844  
     10713      10714      10725      10724      10834      10835      10846      10845  
     10715      10716      10727      10726      10836      10837      10848      10847  
     10716      10717      10728      10727      10837      10838      10849      10848  
     10717      10718      10729      10728      10838      10839      10850      10849  
     10718      10719      10730      10729      10839      10840      10851      10850  
     10719      10720      10731      10730      10840      10841      10852      10851  
     10720      10721      10732      10731      10841      10842      10853      10852  
     10721      10722      10733      10732      10842      10843      10854      10853  
     10722      10723      10734      10733      10843      10844      10855      10854  
     10723      10724      10735      10734      10844      10845      10856      10855  
     10724      10725      10736      10735      10845      10846      10857      10856  
     10726      10727      10738      10737      10847      10848      10859      10858  
     10727      10728      10739      10738      10848      10849      10860      10859  
     10728      10729      10740      10739      10849      10850      10861      10860  
     10729      10730      10741      10740      10850      10851      10862      10861  
     10730      10731      10742      10741      10851      10852      10863      10862  
     10731      10732      10743      10742      10852      10853      10864      10863  
     10732      10733      10744      10743      10853      10854      10865      10864  
     10733      10734      10745      10744      10854      10855      10866      10865  
     10734      10735      10746      10745      10855      10856      10867      10866  
     10735      10736      10747      10746      10856      10857      10868      10867  
     10737      10738      10749      10748      10858      10859      10870      10869  
     10738      10739      10750      10749      10859      10860      10871      10870  
     10739      10740      10751      10750      10860      10861      10872      10871  
     10740      10741      10752      10751      10861      10862      10873      10872  
     10741      10742      10753      10752      10862      10863      10874      10873  
     10742      10743      10754      10753      10863      10864      10875      10874  
     10743      10744      10755      10754      10864      10865      10876      10875  
     10744      10745      10756      10755      10865      10866      10877      10876  
     10745      10746      10757      10756      10866      10867      10878      10877  
     10746      10747      10758      10757      10867      10868      10879      10878  
     10748      10749      10760      10759      10869      10870      10881      10880  
     10749      10750      10761      10760      10870      10871      10882      10881  
     10750      10751      10762      10761      10871      10872      10883      10882  
     10751      10752      10763      10762      10872      10873      10884      10883  
     10752      10753      10764      10763      10873      10874      10885      10884  
     10753      10754      10765      10764      10874      10875      10886      10885  
     10754      10755      10766      10765      10875      10876      10887      10886  
     10755      10756      10767      10766      10876      10877      10888      10887  
     10756      10757      10768      10767      10877      10878      10889      10888  
     10757      10758      10769      10768      10878      10879      10890      10889  
     10770      10771      10782      10781      10891      10892      10903      10902  
     10771      10772      10783      10782      10892      10893      10904      10903  
     10772      10773      10784      10783      10893      10894      10905      10904  
     10773      10774      10785      10784      10894      10895      10906      10905  
     10774      10775      10786      10785      10895      10896      10907      10906  
     10775      10776      10787      10786      10896      10897      10908      10907  
     10776      10777      10788      10787      10897      10898      10909      10908  
     10777      10778      10789      10788      10898      10899      10910      10909  
     10778      10779      10790      10789      10899      10900      10911      10910  
     10779      10780      10791      10790      10900      10901      10912      10911  
     10781      10782      10793      10792      10902      10903      10914      10913  
     10782      10783      10794      10793      10903      10904      10915      10914  
     10783      10784      10795      10794      10904      10905      10916      10915  
     10784      10785      10796      10795      10905      10906      10917      10916  
     10785      10786      10797      10796      10906      10907      10918      10917  
     10786      10787      10798      10797      10907      10908      10919      10918  
     10787      10788      10799      10798      10908      10909      10920      10919  
     10788      10789      10800      10799      10909      10910      10921      10920  
     10789      10790      10801      10800      10910      10911      10922      10921  
     10790      10791      10802      10801      10911      10912      10923      10922  
     10792      10793      10804      10803      10913      10914      10925      10924  
     10793      10794      10805      10804      10914      10915      10926      10925  
     10794      10795      10806      10805      10915      10916      10927      10926  
     10795      10796      10807      10806      10916      10917      10928      10927  
     10796      10797      10808      10807      10917      10918      10929      10928  
     10797      10798      10809      10808      10918      10919      10930      10929  
     10798      10799      10810      10809      10919      10920      10931      10930  
     10799      10800      10811      10810      10920      10921      10932      10931  
     10800      10801      10812      10811      10921      10922      10933      10932  
     10801      10802      10813      10812      10922      10923      10934      10933  
     10803      10804      10815      10814      10924      10925      10936      10935  
     10804      10805      10816      10815      10925      10926      10937      10936  
     10805      10806      10817      10816      10926      10927      10938      10937  
     10806      10807      10818      10817      10927      10928      10939      10938  
     10807      10808      10819      10818      10928      10929      10940      10939  
     10808      10809      10820      10819      10929      10930      10941      10940  
     10809      10810      10821      10820      10930      10931      10942      10941  
     10810      10811      10822      10821      10931      10932      10943      10942  
     10811      10812      10823      10822      10932      10933      10944      10943  
     10812      10813      10824      10823      10933      10934      10945      10944  
     10814      10815      10826      10825      10935      10936      10947      10946  
     10815      10816      10827      10826      10936      10937      10948      10947  
     10816      10817      10828      10827      10937      10938      10949      10948  
     10817      10818      10829      10828      10938      10939      10950      10949  
     10818      10819      10830      10829      10939      10940      10951      10950  
     10819      10820      10831      10830      10940      10941      10952      10951  
     10820      10821      10832      10831      10941      10942      10953      10952  
     10821      10822      10833      10832      10942      10943      10954      10953  
     10822      10823      10834      10833      10943      10944      10955      10954  
     10823      10824      10835      10834      10944      10945      10956      10955  
     10825      10826      10837      10836      10946      10947      10958      10957  
     10826      10827      10838      10837      10947      10948      10959      10958  
     10827      10828      10839      10838      10948      10949      10960      10959  
     10828      10829      10840      10839      10949      10950      10961      10960  
     10829      10830      10841      10840      10950      10951      10962      10961  
     10830      10831      10842      10841      10951      10952      10963      10962  
     10831      10832      10843      10842      10952      10953      10964      10963  
     10832      10833      10844      10843      10953      10954      10965      10964  
     10833      10834      10845      10844      10954      10955      10966      10965  
     10834      10835      10846      10845      10955      10956      10967      10966  
     10836      10837      10848      10847      10957      10958      10969      10968  
     10837      10838      10849      10848      10958      10959      10970      10969  
     10838      10839      10850      10849      10959      10960      10971      10970  
     10839      10840      10851      10850      10960      10961      10972      10971  
     10840      10841      10852      10851      10961      10962      10973      10972  
     10841      10842      10853      10852      10962      10963      10974      10973  
     10842      10843      10854      10853      10963      10964      10975      10974  
     10843      10844      10855      10854      10964      10965      10976      10975  
     10844      10845      10856      10855      10965      10966      10977      10976  
     10845      10846      10857      10856      10966      10967      10978      10977  
     10847      10848      10859      10858      10968      10969      10980      10979  
     10848      10849      10860      10859      10969      10970      10981      10980  
     10849      10850      10861      10860      10970      10971      10982      10981  
     10850      10851      10862      10861      10971      10972      10983      10982  
     10851      10852      10863      10862      10972      10973      10984      10983  
     10852      10853      10864      10863      10973      10974      10985      10984  
     10853      10854      10865      10864      10974      10975      10986      10985  
     10854      10855      10866      10865      10975      10976      10987      10986  
     10855      10856      10867      10866      10976      10977      10988      10987  
     10856      10857      10868      10867      10977      10978      10989      10988  
     10858      10859      10870      10869      10979      10980      10991      10990  
     10859      10860      10871      10870      10980      10981      10992      10991  
     10860      10861      10872      10871      10981      10982      10993      10992  
     10861      10862      10873      10872      10982      10983      10994      10993  
     10862      10863      10874      10873      10983      10984      10995      10994  
     10863      10864      10875      10874      10984      10985      10996      10995  
     10864      10865      10876      10875      10985      10986      10997      10996  
     10865      10866      10877      10876      10986      10987      10998      10997  
     10866      10867      10878      10877      10987      10988      10999      10998  
     10867      10868      10879      10878      10988      10989      11000      10999  
     10869      10870      10881      10880      10990      10991      11002      11001  
     10870      10871      10882      10881      10991      10992      11003      11002  
     10871      10872      10883      10882      10992      10993      11004      11003  
     10872      10873      10884      10883      10993      10994      11005      11004  
     10873      10874      10885      10884      10994      10995      11006      11005  
     10874      10875      10886      10885      10995      10996      11007      11006  
     10875      10876      10887      10886      10996      10997      11008      11007  
     10876      10877      10888      10887      10997      10998      11009      11008  
     10877      10878      10889      10888      10998      10999      11010      11009  
     10878      10879      10890      10889      10999      11000      11011      11010  
     10891      10892      10903      10902      11012      11013      11024      11023  
     10892      10893      10904      10903      11013      11014      11025      11024  
     10893      10894      10905      10904      11014      11015      11026      11025  
     10894      10895      10906      10905      11015      11016      11027      11026  
     10895      10896      10907      10906      11016      11017      11028      11027  
     10896      10897      10908      10907      11017      11018      11029      11028  
     10897      10898      10909      10908      11018      11019      11030      11029  
     10898      10899      10910      10909      11019      11020      11031      11030  
     10899      10900      10911      10910      11020      11021      11032      11031  
     10900      10901      10912      10911      11021      11022      11033      11032  
     10902      10903      10914      10913      11023      11024      11035      11034  
     10903      10904      10915      10914      11024      11025      11036      11035  
     10904      10905      10916      10915      11025      11026      11037      11036  
     10905      10906      10917      10916      11026      11027      11038      11037  
     10906      10907      10918      10917      11027      11028      11039      11038  
     10907      10908      10919      10918      11028      11029      11040      11039  
     10908      10909      10920      10919      11029      11030      11041      11040  
     10909      10910      10921      10920      11030      11031      11042      11041  
     10910      10911      10922      10921      11031      11032      11043      11042  
     10911      10912      10923      10922      11032      11033      11044      11043  
     10913      10914      10925      10924      11034      11035      11046      11045  
     10914      10915      10926      10925      11035      11036      11047      11046  
     10915      10916      10927      10926      11036      11037      11048      11047  
     10916      10917      10928      10927      11037      11038      11049      11048  
     10917      10918      10929      10928      11038      11039      11050      11049  
     10918      10919      10930      10929      11039      11040      11051      11050  
     10919      10920      10931      10930      11040      11041      11052      11051  
     10920      10921      10932      10931      11041      11042      11053      11052  
     10921      10922      10933      10932      11042      11043      11054      11053  
     10922      10923      10934      10933      11043      11044      11055      11054  
     10924      10925      10936      10935      11045      11046      11057      11056  
     10925      10926      10937      10936      11046      11047      11058      11057  
     10926      10927      10938      10937      11047      11048      11059      11058  
     10927      10928      10939      10938      11048      11049      11060      11059  
     10928      10929      10940      10939      11049      11050      11061      11060  
     10929      10930      10941      10940      11050      11051      11062      11061  
     10930      10931      10942      10941      11051      11052      11063      11062  
     10931      10932      10943      10942      11052      11053      11064      11063  
     10932      10933      10944      10943      11053      11054      11065      11064  
     10933      10934      10945      10944      11054      11055      11066      11065  
     10935      10936      10947      10946      11056      11057      11068      11067  
     10936      10937      10948      10947      11057      11058      11069      11068  
     10937      10938      10949      10948      11058      11059      11070      11069  
     10938      10939      10950      10949      11059      11060      11071      11070  
     10939      10940      10951      10950      11060      11061      11072      11071  
     10940      10941      10952      10951      11061      11062      11073      11072  
     10941      10942      10953      10952      11062      11063      11074      11073  
     10942      10943      10954      10953      11063      11064      11075      11074  
     10943      10944      10955      10954      11064      11065      11076      11075  
     10944      10945      10956      10955      11065      11066      11077      11076  
     10946      10947      10958      10957      11067      11068      11079      11078  
     10947      10948      10959      10958      11068      11069      11080      11079  
     10948      10949      10960      10959      11069      11070      11081      11080  
     10949      10950      10961      10960      11070      11071      11082      11081  
     10950      10951      10962      10961      11071      11072      11083      11082  
     10951      10952      10963      10962      11072      11073      11084      11083  
     10952      10953      10964      10963      11073      11074      11085      11084  
     10953      10954      10965      10964      11074      11075      11086      11085  
     10954      10955      10966      10965      11075      11076      11087      11086  
     10955      10956      10967      10966      11076      11077      11088      11087  
     10957      10958      10969      10968      11078      11079      11090      11089  
     10958      10959      10970      10969      11079      11080      11091      11090  
     10959      10960      10971      10970      11080      11081      11092      11091  
     10960      10961      10972      10971      11081      11082      11093      11092  
     10961      10962      10973      10972      11082      11083      11094      11093  
     10962      10963      10974      10973      11083      11084      11095      11094  
     10963      10964      10975      10974      11084      11085      11096      11095  
     10964      10965      10976      10975      11085      11086      11097      11096  
     10965      10966      10977      10976      11086      11087      11098      11097  
     10966      10967      10978      10977      11087      11088      11099      11098  
     10968      10969      10980      10979      11089      11090      11101      11100  
     10969      10970      10981      10980      11090      11091      11102      11101  
     10970      10971      10982      10981      11091      11092      11103      11102  
     10971      10972      10983      10982      11092      11093      11104      11103  
     10972      10973      10984      10983      11093      11094      11105      11104  
     10973      10974      10985      10984      11094      11095      11106      11105  
     10974      10975      10986      10985      11095      11096      11107      11106  
     10975      10976      10987      10986      11096      11097      11108      11107  
     10976      10977      10988      10987      11097      11098      11109      11108  
     10977      10978      10989      10988      11098      11099      11110      11109  
     10979      10980      10991      10990      11100      11101      11112      11111  
     10980      10981      10992      10991      11101      11102      11113      11112  
     10981      10982      10993      10992      11102      11103      11114      11113  
     10982      10983      10994      10993      11103      11104      11115      11114  
     10983      10984      10995      10994      11104      11105      11116      11115  
     10984      10985      10996      10995      11105      11106      11117      11116  
     10985      10986      10997      10996      11106      11107      11118      11117  
     10986      10987      10998      10997      11107      11108      11119      11118  
     10987      10988      10999      10998      11108      11109      11120      11119  
     10988      10989      11000      10999      11109      11110      11121      11120  
     10990      10991      11002      11001      11111      11112      11123      11122  
     10991      10992      11003      11002      11112      11113      11124      11123  
     10992      10993      11004      11003      11113      11114      11125      11124  
     10993      10994      11005      11004      11114      11115      11126      11125  
     10994      10995      11006      11005      11115      11116      11127      11126  
     10995      10996      11007      11006      11116      11117      11128      11127  
     10996      10997      11008      11007      11117      11118      11129      11128  
     10997      10998      11009      11008      11118      11119      11130      11129  
     10998      10999      11010      11009      11119      11120      11131      11130  
     10999      11000      11011      11010      11120      11121      11132      11131  
     11012      11013      11024      11023      11133      11134      11145      11144  
     11013      11014      11025      11024      11134      11135      11146      11145  
     11014      11015      11026      11025      11135      11136      11147      11146  
     11015      11016      11027      11026      11136      11137      11148      11147  
     11016      11017      11028      11027      11137      11138      11149      11148  
     11017      11018      11029      11028      11138      11139      11150      11149  
     11018      11019      11030      11029      11139      11140      11151      11150  
     11019      11020      11031      11030      11140      11141      11152      11151  
     11020      11021      11032      11031      11141      11142      11153      11152  
     11021      11022      11033      11032      11142      11143      11154      11153  
     11023      11024      11035      11034      11144      11145      11156      11155  
     11024      11025      11036      11035      11145      11146      11157      11156  
     11025      11026      11037      11036      11146      11147      11158      11157  
     11026      11027      11038      11037      11147      11148      11159      11158  
     11027      11028      11039      11038      11148      11149      11160      11159  
     11028      11029      11040      11039      11149      11150      11161      11160  
     11029      11030      11041      11040      11150      11151      11162      11161  
     11030      11031      11042      11041      11151      11152      11163      11162  
     11031      11032      11043      11042      11152      11153      11164      11163  
     11032      11033      11044      11043      11153      11154      11165      11164  
     11034      11035      11046      11045      11155      11156      11167      11166  
     11035      11036      11047      11046      11156      11157      11168      11167  
     11036      11037      11048      11047      11157      11158      11169      11168  
     11037      11038      11049      11048      11158      11159      11170      11169  
     11038      11039      11050      11049      11159      11160      11171      11170  
     11039      11040      11051      11050      11160      11161      11172      11171  
     11040      11041      11052      11051      11161      11162      11173      11172  
     11041      11042      11053      11052      11162      11163      11174      11173  
     11042      11043      11054      11053      11163      11164      11175      11174  
     11043      11044      11055      11054      11164      11165      11176      11175  
     11045      11046      11057      11056      11166      11167      11178      11177  
     11046      11047      11058      11057      11167      11168      11179      11178  
     11047      11048      11059      11058      11168      11169      11180      11179  
     11048      11049      11060      11059      11169      11170      11181      11180  
     11049      11050      11061      11060      11170      11171      11182      11181  
     11050      11051      11062      11061      11171      11172      11183      11182  
     11051      11052      11063      11062      11172      11173      11184      11183  
     11052      11053      11064      11063      11173      11174      11185      11184  
     11053      11054      11065      11064      11174      11175      11186      11185  
     11054      11055      11066      11065      11175      11176      11187      11186  
     11056      11057      11068      11067      11177      11178      11189      11188  
     11057      11058      11069      11068      11178      11179      11190      11189  
     11058      11059      11070      11069      11179      11180      11191      11190  
     11059      11060      11071      11070      11180      11181      11192      11191  
     11060      11061      11072      11071      11181      11182      11193      11192  
     11061      11062      11073      11072      11182      11183      11194      11193  
     11062      11063      11074      11073      11183      11184      11195      11194  
     11063      11064      11075      11074      11184      11185      11196      11195  
     11064      11065      11076      11075      11185      11186      11197      11196  
     11065      11066      11077      11076      11186      11187      11198      11197  
     11067      11068      11079      11078      11188      11189      11200      11199  
     11068      11069      11080      11079      11189      11190      11201      11200  
     11069      11070      11081      11080      11190      11191      11202      11201  
     11070      11071      11082      11081      11191      11192      11203      11202  
     11071      11072      11083      11082      11192      11193      11204      11203  
     11072      11073      11084      11083      11193      11194      11205      11204  
     11073      11074      11085      11084      11194      11195      11206      11205  
     11074      11075      11086      11085      11195      11196      11207      11206  
     11075      11076      11087      11086      11196      11197      11208      11207  
     11076      11077      11088      11087      11197      11198      11209      11208  
     11078      11079      11090      11089      11199      11200      11211      11210  
     11079      11080      11091      11090      11200      11201      11212      11211  
     11080      11081      11092      11091      11201      11202      11213      11212  
     11081      11082      11093      11092      11202      11203      11214      11213  
     11082      11083      11094      11093      11203      11204      11215      11214  
     11083      11084      11095      11094      11204      11205      11216      11215  
     11084      11085      11096      11095      11205      11206      11217      11216  
     11085      11086      11097      11096      11206      11207      11218      11217  
     11086      11087      11098      11097      11207      11208      11219      11218  
     11087      11088      11099      11098      11208      11209      11220      11219  
     11089      11090      11101      11100      11210      11211      11222      11221  
     11090      11091      11102      11101      11211      11212      11223      11222  
     11091      11092      11103      11102      11212      11213      11224      11223  
     11092      11093      11104      11103      11213      11214      11225      11224  
     11093      11094      11105      11104      11214      11215      11226      11225  
     11094      11095      11106      11105      11215      11216      11227      11226  
     11095      11096      11107      11106      11216      11217      11228      11227  
     11096      11097      11108      11107      11217      11218      11229      11228  
     11097      11098      11109      11108      11218      11219      11230      11229  
     11098      11099      11110      11109      11219      11220      11231      11230  
     11100      11101      11112      11111      11221      11222      11233      11232  
     11101      11102      11113      11112      11222      11223      11234      11233  
     11102      11103      11114      11113      11223      11224      11235      11234  
     11103      11104      11115      11114      11224      11225      11236      11235  
     11104      11105      11116      11115      11225      11226      11237      11236  
     11105      11106      11117      11116      11226      11227      11238      11237  
     11106      11107      11118      11117      11227      11228      11239      11238  
     11107      11108      11119      11118      11228      11229      11240      11239  
     11108      11109      11120      11119      11229      11230      11241      11240  
     11109      11110      11121      11120      11230      11231      11242      11241  
     11111      11112      11123      11122      11232      11233      11244      11243  
     11112      11113      11124      11123      11233      11234      11245      11244  
     11113      11114      11125      11124      11234      11235      11246      11245  
     11114      11115      11126      11125      11235      11236      11247      11246  
     11115      11116      11127      11126      11236      11237      11248      11247  
     11116      11117      11128      11127      11237      11238      11249      11248  
     11117      11118      11129      11128      11238      11239      11250      11249  
     11118      11119      11130      11129      11239      11240      11251      11250  
     11119      11120      11131      11130      11240      11241      11252      11251  
     11120      11121      11132      11131      11241      11242      11253      11252  
     11133      11134      11145      11144      11254      11255      11266      11265  
     11134      11135      11146      11145      11255      11256      11267      11266  
     11135      11136      11147      11146      11256      11257      11268      11267  
     11136      11137      11148      11147      11257      11258      11269      11268  
     11137      11138      11149      11148      11258      11259      11270      11269  
     11138      11139      11150      11149      11259      11260      11271      11270  
     11139      11140      11151      11150      11260      11261      11272      11271  
     11140      11141      11152      11151      11261      11262      11273      11272  
     11141      11142      11153      11152      11262      11263      11274      11273  
     11142      11143      11154      11153      11263      11264      11275      11274  
     11144      11145      11156      11155      11265      11266      11277      11276  
     11145      11146      11157      11156      11266      11267      11278      11277  
     11146      11147      11158      11157      11267      11268      11279      11278  
     11147      11148      11159      11158      11268      11269      11280      11279  
     11148      11149      11160      11159      11269      11270      11281      11280  
     11149      11150      11161      11160      11270      11271      11282      11281  
     11150      11151      11162      11161      11271      11272      11283      11282  
     11151      11152      11163      11162      11272      11273      11284      11283  
     11152      11153      11164      11163      11273      11274      11285      11284  
     11153      11154      11165      11164      11274      11275      11286      11285  
     11155      11156      11167      11166      11276      11277      11288      11287  
     11156      11157      11168      11167      11277      11278      11289      11288  
     11157      11158      11169      11168      11278      11279      11290      11289  
     11158      11159      11170      11169      11279      11280      11291      11290  
     11159      11160      11171      11170      11280      11281      11292      11291  
     11160      11161      11172      11171      11281      11282      11293      11292  
     11161      11162      11173      11172      11282      11283      11294      11293  
     11162      11163      11174      11173      11283      11284      11295      11294  
     11163      11164      11175      11174      11284      11285      11296      11295  
     11164      11165      11176      11175      11285      11286      11297      11296  
     11166      11167      11178      11177      11287      11288      11299      11298  
     11167      11168      11179      11178      11288      11289      11300      11299  
     11168      11169      11180      11179      11289      11290      11301      11300  
     11169      11170      11181      11180      11290      11291      11302      11301  
     11170      11171      11182      11181      11291      11292      11303      11302  
     11171      11172      11183      11182      11292      11293      11304      11303  
     11172      11173      11184      11183      11293      11294      11305      11304  
     11173      11174      11185      11184      11294      11295      11306      11305  
     11174      11175      11186      11185      11295      11296      11307      11306  
     11175      11176      11187      11186      11296      11297      11308      11307  
     11177      11178      11189      11188      11298      11299      11310      11309  
     11178      11179      11190      11189      11299      11300      11311      11310  
     11179      11180      11191      11190      11300      11301      11312      11311  
     11180      11181      11192      11191      11301      11302      11313      11312  
     11181      11182      11193      11192      11302      11303      11314      11313  
     11182      11183      11194      11193      11303      11304      11315      11314  
     11183      11184      11195      11194      11304      11305      11316      11315  
     11184      11185      11196      11195      11305      11306      11317      11316  
     11185      11186      11197      11196      11306      11307      11318      11317  
     11186      11187      11198      11197      11307      11308      11319      11318  
     11188      11189      11200      11199      11309      11310      11321      11320  
     11189      11190      11201      11200      11310      11311      11322      11321  
     11190      11191      11202      11201      11311      11312      11323      11322  
     11191      11192      11203      11202      11312      11313      11324      11323  
     11192      11193      11204      11203      11313      11314      11325      11324  
     11193      11194      11205      11204      11314      11315      11326      11325  
     11194      11195      11206      11205      11315      11316      11327      11326  
     11195      11196      11207      11206      11316      11317      11328      11327  
     11196      11197      11208      11207      11317      11318      11329      11328  
     11197      11198      11209      11208      11318      11319      11330      11329  
     11199      11200      11211      11210      11320      11321      11332      11331  
     11200      11201      11212      11211      11321      11322      11333      11332  
     11201      11202      11213      11212      11322      11323      11334      11333  
     11202      11203      11214      11213      11323      11324      11335      11334  
     11203      11204      11215      11214      11324      11325      11336      11335  
     11204      11205      11216      11215      11325      11326      11337      11336  
     11205      11206      11217      11216      11326      11327      11338      11337  
     11206      11207      11218      11217      11327      11328      11339      11338  
     11207      11208      11219      11218      11328      11329      11340      11339  
     11208      11209      11220      11219      11329      11330      11341      11340  
     11210      11211      11222      11221      11331      11332      11343      11342  
     11211      11212      11223      11222      11332      11333      11344      11343  
     11212      11213      11224      11223      11333      11334      11345      11344  
     11213      11214      11225      11224      11334      11335      11346      11345  
     11214      11215      11226      11225      11335      11336      11347      11346  
     11215      11216      11227      11226      11336      11337      11348      11347  
     11216      11217      11228      11227      11337      11338      11349      11348  
     11217      11218      11229      11228      11338      11339      11350      11349  
     11218      11219      11230      11229      11339      11340      11351      11350  
     11219      11220      11231      11230      11340      11341      11352      11351  
     11221      11222      11233      11232      11342      11343      11354      11353  
     11222      11223      11234      11233      11343      11344      11355      11354  
     11223      11224      11235      11234      11344      11345      11356      11355  
     11224      11225      11236      11235      11345      11346      11357      11356  
     11225      11226      11237      11236      11346      11347      11358      11357  
     11226      11227      11238      11237      11347      11348      11359      11358  
     11227      11228      11239      11238      11348      11349      11360      11359  
     11228      11229      11240      11239      11349      11350      11361      11360  
     11229      11230      11241      11240      11350      11351      11362      11361  
     11230      11231      11242      11241      11351      11352      11363      11362  
     11232      11233      11244      11243      11353      11354      11365      11364  
     11233      11234      11245      11244      11354      11355      11366      11365  
     11234      11235      11246      11245      11355      11356      11367      11366  
     11235      11236      11247      11246      11356      11357      11368      11367  
     11236      11237      11248      11247      11357      11358      11369      11368  
     11237      11238      11249      11248      11358      11359      11370      11369  
     11238      11239      11250      11249      11359      11360      11371      11370  
     11239      11240      11251      11250      11360      11361      11372      11371  
     11240      11241      11252      11251      11361      11362      11373      11372  
     11241      11242      11253      11252      11362      11363      11374      11373  
     11254      11255      11266      11265      11375      11376      11387      11386  
     11255      11256      11267      11266      11376      11377      11388      11387  
     11256      11257      11268      11267      11377      11378      11389      11388  
     11257      11258      11269      11268      11378      11379      11390      11389  
     11258      11259      11270      11269      11379      11380      11391      11390  
     11259      11260      11271      11270      11380      11381      11392      11391  
     11260      11261      11272      11271      11381      11382      11393      11392  
     11261      11262      11273      11272      11382      11383      11394      11393  
     11262      11263      11274      11273      11383      11384      11395      11394  
     11263      11264      11275      11274      11384      11385      11396      11395  
     11265      11266      11277      11276      11386      11387      11398      11397  
     11266      11267      11278      11277      11387      11388      11399      11398  
     11267      11268      11279      11278      11388      11389      11400      11399  
     11268      11269      11280      11279      11389      11390      11401      11400  
     11269      11270      11281      11280      11390      11391      11402      11401  
     11270      11271      11282      11281      11391      11392      11403      11402  
     11271      11272      11283      11282      11392      11393      11404      11403  
     11272      11273      11284      11283      11393      11394      11405      11404  
     11273      11274      11285      11284      11394      11395      11406      11405  
     11274      11275      11286      11285      11395      11396      11407      11406  
     11276      11277      11288      11287      11397      11398      11409      11408  
     11277      11278      11289      11288      11398      11399      11410      11409  
     11278      11279      11290      11289      11399      11400      11411      11410  
     11279      11280      11291      11290      11400      11401      11412      11411  
     11280      11281      11292      11291      11401      11402      11413      11412  
     11281      11282      11293      11292      11402      11403      11414      11413  
     11282      11283      11294      11293      11403      11404      11415      11414  
     11283      11284      11295      11294      11404      11405      11416      11415  
     11284      11285      11296      11295      11405      11406      11417      11416  
     11285      11286      11297      11296      11406      11407      11418      11417  
     11287      11288      11299      11298      11408      11409      11420      11419  
     11288      11289      11300      11299      11409      11410      11421      11420  
     11289      11290      11301      11300      11410      11411      11422      11421  
     11290      11291      11302      11301      11411      11412      11423      11422  
     11291      11292      11303      11302      11412      11413      11424      11423  
     11292      11293      11304      11303      11413      11414      11425      11424  
     11293      11294      11305      11304      11414      11415      11426      11425  
     11294      11295      11306      11305      11415      11416      11427      11426  
     11295      11296      11307      11306      11416      11417      11428      11427  
     11296      11297      11308      11307      11417      11418      11429      11428  
     11298      11299      11310      11309      11419      11420      11431      11430  
     11299      11300      11311      11310      11420      11421      11432      11431  
     11300      11301      11312      11311      11421      11422      11433      11432  
     11301      11302      11313      11312      11422      11423      11434      11433  
     11302      11303      11314      11313      11423      11424      11435      11434  
     11303      11304      11315      11314      11424      11425      11436      11435  
     11304      11305      11316      11315      11425      11426      11437      11436  
     11305      11306      11317      11316      11426      11427      11438      11437  
     11306      11307      11318      11317      11427      11428      11439      11438  
     11307      11308      11319      11318      11428      11429      11440      11439  
     11309      11310      11321      11320      11430      11431      11442      11441  
     11310      11311      11322      11321      11431      11432      11443      11442  
     11311      11312      11323      11322      11432      11433      11444      11443  
     11312      11313      11324      11323      11433      11434      11445      11444  
     11313      11314      11325      11324      11434      11435      11446      11445  
     11314      11315      11326      11325      11435      11436      11447      11446  
     11315      11316      11327      11326      11436      11437      11448      11447  
     11316      11317      11328      11327      11437      11438      11449      11448  
     11317      11318      11329      11328      11438      11439      11450      11449  
     11318      11319      11330      11329      11439      11440      11451      11450  
     11320      11321      11332      11331      11441      11442      11453      11452  
     11321      11322      11333      11332      11442      11443      11454      11453  
     11322      11323      11334      11333      11443      11444      11455      11454  
     11323      11324      11335      11334      11444      11445      11456      11455  
     11324      11325      11336      11335      11445      11446      11457      11456  
     11325      11326      11337      11336      11446      11447      11458      11457  
     11326      11327      11338      11337      11447      11448      11459      11458  
     11327      11328      11339      11338      11448      11449      11460      11459  
     11328      11329      11340      11339      11449      11450      11461      11460  
     11329      11330      11341      11340      11450      11451      11462      11461  
     11331      11332      11343      11342      11452      11453      11464      11463  
     11332      11333      11344      11343      11453      11454      11465      11464  
     11333      11334      11345      11344      11454      11455      11466      11465  
     11334      11335      11346      11345      11455      11456      11467      11466  
     11335      11336      11347      11346      11456      11457      11468      11467  
     11336      11337      11348      11347      11457      11458      11469      11468  
     11337      11338      11349      11348      11458      11459      11470      11469  
     11338      11339      11350      11349      11459      11460      11471      11470  
     11339      11340      11351      11350      11460      11461      11472      11471  
     11340      11341      11352      11351      11461      11462      11473      11472  
     11342      11343      11354      11353      11463      11464      11475      11474  
     11343      11344      11355      11354      11464      11465      11476      11475  
     11344      11345      11356      11355      11465      11466      11477      11476  
     11345      11346      11357      11356      11466      11467      11478      11477  
     11346      11347      11358      11357      11467      11468      11479      11478  
     11347      11348      11359      11358      11468      11469      11480      11479  
     11348      11349      11360      11359      11469      11470      11481      11480  
     11349      11350      11361      11360      11470      11471      11482      11481  
     11350      11351      11362      11361      11471      11472      11483      11482  
     11351      11352      11363      11362      11472      11473      11484      11483  
     11353      11354      11365      11364      11474      11475      11486      11485  
     11354      11355      11366      11365      11475      11476      11487      11486  
     11355      11356      11367      11366      11476      11477      11488      11487  
     11356      11357      11368      11367      11477      11478      11489      11488  
     11357      11358      11369      11368      11478      11479      11490      11489  
     11358      11359      11370      11369      11479      11480      11491      11490  
     11359      11360      11371      11370      11480      11481      11492      11491  
     11360      11361      11372      11371      11481      11482      11493      11492  
     11361      11362      11373      11372      11482      11483      11494      11493  
     11362      11363      11374      11373      11483      11484      11495      11494  
     11375      11376      11387      11386      11496      11497      11508      11507  
     11376      11377      11388      11387      11497      11498      11509      11508  
     11377      11378      11389      11388      11498      11499      11510      11509  
     11378      11379      11390      11389      11499      11500      11511      11510  
     11379      11380      11391      11390      11500      11501      11512      11511  
     11380      11381      11392      11391      11501      11502      11513      11512  
     11381      11382      11393      11392      11502      11503      11514      11513  
     11382      11383      11394      11393      11503      11504      11515      11514  
     11383      11384      11395      11394      11504      11505      11516      11515  
     11384      11385      11396      11395      11505      11506      11517      11516  
     11386      11387      11398      11397      11507      11508      11519      11518  
     11387      11388      11399      11398      11508      11509      11520      11519  
     11388      11389      11400      11399      11509      11510      11521      11520  
     11389      11390      11401      11400      11510      11511      11522      11521  
     11390      11391      11402      11401      11511      11512      11523      11522  
     11391      11392      11403      11402      11512      11513      11524      11523  
     11392      11393      11404      11403      11513      11514      11525      11524  
     11393      11394      11405      11404      11514      11515      11526      11525  
     11394      11395      11406      11405      11515      11516      11527      11526  
     11395      11396      11407      11406      11516      11517      11528      11527  
     11397      11398      11409      11408      11518      11519      11530      11529  
     11398      11399      11410      11409      11519      11520      11531      11530  
     11399      11400      11411      11410      11520      11521      11532      11531  
     11400      11401      11412      11411      11521      11522      11533      11532  
     11401      11402      11413      11412      11522      11523      11534      11533  
     11402      11403      11414      11413      11523      11524      11535      11534  
     11403      11404      11415      11414      11524      11525      11536      11535  
     11404      11405      11416      11415      11525      11526      11537      11536  
     11405      11406      11417      11416      11526      11527      11538      11537  
     11406      11407      11418      11417      11527      11528      11539      11538  
     11408      11409      11420      11419      11529      11530      11541      11540  
     11409      11410      11421      11420      11530      11531      11542      11541  
     11410      11411      11422      11421      11531      11532      11543      11542  
     11411      11412      11423      11422      11532      11533      11544      11543  
     11412      11413      11424      11423      11533      11534      11545      11544  
     11413      11414      11425      11424      11534      11535      11546      11545  
     11414      11415      11426      11425      11535      11536      11547      11546  
     11415      11416      11427      11426      11536      11537      11548      11547  
     11416      11417      11428      11427      11537      11538      11549      11548  
     11417      11418      11429      11428      11538      11539      11550      11549  
     11419      11420      11431      11430      11540      11541      11552      11551  
     11420      11421      11432      11431      11541      11542      11553      11552  
     11421      11422      11433      11432      11542      11543      11554      11553  
     11422      11423      11434      11433      11543      11544      11555      11554  
     11423      11424      11435      11434      11544      11545      11556      11555  
     11424      11425      11436      11435      11545      11546      11557      11556  
     11425      11426      11437      11436      11546      11547      11558      11557  
     11426      11427      11438      11437      11547      11548      11559      11558  
     11427      11428      11439      11438      11548      11549      11560      11559  
     11428      11429      11440      11439      11549      11550      11561      11560  
     11430      11431      11442      11441      11551      11552      11563      11562  
     11431      11432      11443      11442      11552      11553      11564      11563  
     11432      11433      11444      11443      11553      11554      11565      11564  
     11433      11434      11445      11444      11554      11555      11566      11565  
     11434      11435      11446      11445      11555      11556      11567      11566  
     11435      11436      11447      11446      11556      11557      11568      11567  
     11436      11437      11448      11447      11557      11558      11569      11568  
     11437      11438      11449      11448      11558      11559      11570      11569  
     11438      11439      11450      11449      11559      11560      11571      11570  
     11439      11440      11451      11450      11560      11561      11572      11571  
     11441      11442      11453      11452      11562      11563      11574      11573  
     11442      11443      11454      11453      11563      11564      11575      11574  
     11443      11444      11455      11454      11564      11565      11576      11575  
     11444      11445      11456      11455      11565      11566      11577      11576  
     11445      11446      11457      11456      11566      11567      11578      11577  
     11446      11447      11458      11457      11567      11568      11579      11578  
     11447      11448      11459      11458      11568      11569      11580      11579  
     11448      11449      11460      11459      11569      11570      11581      11580  
     11449      11450      11461      11460      11570      11571      11582      11581  
     11450      11451      11462      11461      11571      11572      11583      11582  
     11452      11453      11464      11463      11573      11574      11585      11584  
     11453      11454      11465      11464      11574      11575      11586      11585  
     11454      11455      11466      11465      11575      11576      11587      11586  
     11455      11456      11467      11466      11576      11577      11588      11587  
     11456      11457      11468      11467      11577      11578      11589      11588  
     11457      11458      11469      11468      11578      11579      11590      11589  
     11458      11459      11470      11469      11579      11580      11591      11590  
     11459      11460      11471      11470      11580      11581      11592      11591  
     11460      11461      11472      11471      11581      11582      11593      11592  
     11461      11462      11473      11472      11582      11583      11594      11593  
     11463      11464      11475      11474      11584      11585      11596      11595  
     11464      11465      11476      11475      11585      11586      11597      11596  
     11465      11466      11477      11476      11586      11587      11598      11597  
     11466      11467      11478      11477      11587      11588      11599      11598  
     11467      11468      11479      11478      11588      11589      11600      11599  
     11468      11469      11480      11479      11589      11590      11601      11600  
     11469      11470      11481      11480      11590      11591      11602      11601  
     11470      11471      11482      11481      11591      11592      11603      11602  
     11471      11472      11483      11482      11592      11593      11604      11603  
     11472      11473      11484      11483      11593      11594      11605      11604  
     11474      11475      11486      11485      11595      11596      11607      11606  
     11475      11476      11487      11486      11596      11597      11608      11607  
     11476      11477      11488      11487      11597      11598      11609      11608  
     11477      11478      11489      11488      11598      11599      11610      11609  
     11478      11479      11490      11489      11599      11600      11611      11610  
     11479      11480      11491      11490      11600      11601      11612      11611  
     11480      11481      11492      11491      11601      11602      11613      11612  
     11481      11482      11493      11492      11602      11603      11614      11613  
     11482      11483      11494      11493      11603      11604      11615      11614  
     11483      11484      11495      11494      11604      11605      11616      11615  
     11496      11497      11508      11507      11617      11618      11629      11628  
     11497      11498      11509      11508      11618      11619      11630      11629  
     11498      11499      11510      11509      11619      11620      11631      11630  
     11499      11500      11511      11510      11620      11621      11632      11631  
     11500      11501      11512      11511      11621      11622      11633      11632  
     11501      11502      11513      11512      11622      11623      11634      11633  
     11502      11503      11514      11513      11623      11624      11635      11634  
     11503      11504      11515      11514      11624      11625      11636      11635  
     11504      11505      11516      11515      11625      11626      11637      11636  
     11505      11506      11517      11516      11626      11627      11638      11637  
     11507      11508      11519      11518      11628      11629      11640      11639  
     11508      11509      11520      11519      11629      11630      11641      11640  
     11509      11510      11521      11520      11630      11631      11642      11641  
     11510      11511      11522      11521      11631      11632      11643      11642  
     11511      11512      11523      11522      11632      11633      11644      11643  
     11512      11513      11524      11523      11633      11634      11645      11644  
     11513      11514      11525      11524      11634      11635      11646      11645  
     11514      11515      11526      11525      11635      11636      11647      11646  
     11515      11516      11527      11526      11636      11637      11648      11647  
     11516      11517      11528      11527      11637      11638      11649      11648  
     11518      11519      11530      11529      11639      11640      11651      11650  
     11519      11520      11531      11530      11640      11641      11652      11651  
     11520      11521      11532      11531      11641      11642      11653      11652  
     11521      11522      11533      11532      11642      11643      11654      11653  
     11522      11523      11534      11533      11643      11644      11655      11654  
     11523      11524      11535      11534      11644      11645      11656      11655  
     11524      11525      11536      11535      11645      11646      11657      11656  
     11525      11526      11537      11536      11646      11647      11658      11657  
     11526      11527      11538      11537      11647      11648      11659      11658  
     11527      11528      11539      11538      11648      11649      11660      11659  
     11529      11530      11541      11540      11650      11651      11662      11661  
     11530      11531      11542      11541      11651      11652      11663      11662  
     11531      11532      11543      11542      11652      11653      11664      11663  
     11532      11533      11544      11543      11653      11654      11665      11664  
     11533      11534      11545      11544      11654      11655      11666      11665  
     11534      11535      11546      11545      11655      11656      11667      11666  
     11535      11536      11547      11546      11656      11657      11668      11667  
     11536      11537      11548      11547      11657      11658      11669      11668  
     11537      11538      11549      11548      11658      11659      11670      11669  
     11538      11539      11550      11549      11659      11660      11671      11670  
     11540      11541      11552      11551      11661      11662      11673      11672  
     11541      11542      11553      11552      11662      11663      11674      11673  
     11542      11543      11554      11553      11663      11664      11675      11674  
     11543      11544      11555      11554      11664      11665      11676      11675  
     11544      11545      11556      11555      11665      11666      11677      11676  
     11545      11546      11557      11556      11666      11667      11678      11677  
     11546      11547      11558      11557      11667      11668      11679      11678  
     11547      11548      11559      11558      11668      11669      11680      11679  
     11548      11549      11560      11559      11669      11670      11681      11680  
     11549      11550      11561      11560      11670      11671      11682      11681  
     11551      11552      11563      11562      11672      11673      11684      11683  
     11552      11553      11564      11563      11673      11674      11685      11684  
     11553      11554      11565      11564      11674      11675      11686      11685  
     11554      11555      11566      11565      11675      11676      11687      11686  
     11555      11556      11567      11566      11676      11677      11688      11687  
     11556      11557      11568      11567      11677      11678      11689      11688  
     11557      11558      11569      11568      11678      11679      11690      11689  
     11558      11559      11570      11569      11679      11680      11691      11690  
     11559      11560      11571      11570      11680      11681      11692      11691  
     11560      11561      11572      11571      11681      11682      11693      11692  
     11562      11563      11574      11573      11683      11684      11695      11694  
     11563      11564      11575      11574      11684      11685      11696      11695  
     11564      11565      11576      11575      11685      11686      11697      11696  
     11565      11566      11577      11576      11686      11687      11698      11697  
     11566      11567      11578      11577      11687      11688      11699      11698  
     11567      11568      11579      11578      11688      11689      11700      11699  
     11568      11569      11580      11579      11689      11690      11701      11700  
     11569      11570      11581      11580      11690      11691      11702      11701  
     11570      11571      11582      11581      11691      11692      11703      11702  
     11571      11572      11583      11582      11692      11693      11704      11703  
     11573      11574      11585      11584      11694      11695      11706      11705  
     11574      11575      11586      11585      11695      11696      11707      11706  
     11575      11576      11587      11586      11696      11697      11708      11707  
     11576      11577      11588      11587      11697      11698      11709      11708  
     11577      11578      11589      11588      11698      11699      11710      11709  
     11578      11579      11590      11589      11699      11700      11711      11710  
     11579      11580      11591      11590      11700      11701      11712      11711  
     11580      11581      11592      11591      11701      11702      11713      11712  
     11581      11582      11593      11592      11702      11703      11714      11713  
     11582      11583      11594      11593      11703      11704      11715      11714  
     11584      11585      11596      11595      11705      11706      11717      11716  
     11585      11586      11597      11596      11706      11707      11718      11717  
     11586      11587      11598      11597      11707      11708      11719      11718  
     11587      11588      11599      11598      11708      11709      11720      11719  
     11588      11589      11600      11599      11709      11710      11721      11720  
     11589      11590      11601      11600      11710      11711      11722      11721  
     11590      11591      11602      11601      11711      11712      11723      11722  
     11591      11592      11603      11602      11712      11713      11724      11723  
     11592      11593      11604      11603      11713      11714      11725      11724  
     11593      11594      11605      11604      11714      11715      11726      11725  
     11595      11596      11607      11606      11716      11717      11728      11727  
     11596      11597      11608      11607      11717      11718      11729      11728  
     11597      11598      11609      11608      11718      11719      11730      11729  
     11598      11599      11610      11609      11719      11720      11731      11730  
     11599      11600      11611      11610      11720      11721      11732      11731  
     11600      11601      11612      11611      11721      11722      11733      11732  
     11601      11602      11613      11612      11722      11723      11734      11733  
     11602      11603      11614      11613      11723      11724      11735      11734  
     11603      11604      11615      11614      11724      11725      11736      11735  
     11604      11605      11616      11615      11725      11726      11737      11736  
     11617      11618      11629      11628      11738      11739      11750      11749  
     11618      11619      11630      11629      11739      11740      11751      11750  
     11619      11620      11631      11630      11740      11741      11752      11751  
     11620      11621      11632      11631      11741      11742      11753      11752  
     11621      11622      11633      11632      11742      11743      11754      11753  
     11622      11623      11634      11633      11743      11744      11755      11754  
     11623      11624      11635      11634      11744      11745      11756      11755  
     11624      11625      11636      11635      11745      11746      11757      11756  
     11625      11626      11637      11636      11746      11747      11758      11757  
     11626      11627      11638      11637      11747      11748      11759      11758  
     11628      11629      11640      11639      11749      11750      11761      11760  
     11629      11630      11641      11640      11750      11751      11762      11761  
     11630      11631      11642      11641      11751      11752      11763      11762  
     11631      11632      11643      11642      11752      11753      11764      11763  
     11632      11633      11644      11643      11753      11754      11765      11764  
     11633      11634      11645      11644      11754      11755      11766      11765  
     11634      11635      11646      11645      11755      11756      11767      11766  
     11635      11636      11647      11646      11756      11757      11768      11767  
     11636      11637      11648      11647      11757      11758      11769      11768  
     11637      11638      11649      11648      11758      11759      11770      11769  
     11639      11640      11651      11650      11760      11761      11772      11771  
     11640      11641      11652      11651      11761      11762      11773      11772  
     11641      11642      11653      11652      11762      11763      11774      11773  
     11642      11643      11654      11653      11763      11764      11775      11774  
     11643      11644      11655      11654      11764      11765      11776      11775  
     11644      11645      11656      11655      11765      11766      11777      11776  
     11645      11646      11657      11656      11766      11767      11778      11777  
     11646      11647      11658      11657      11767      11768      11779      11778  
     11647      11648      11659      11658      11768      11769      11780      11779  
     11648      11649      11660      11659      11769      11770      11781      11780  
     11650      11651      11662      11661      11771      11772      11783      11782  
     11651      11652      11663      11662      11772      11773      11784      11783  
     11652      11653      11664      11663      11773      11774      11785      11784  
     11653      11654      11665      11664      11774      11775      11786      11785  
     11654      11655      11666      11665      11775      11776      11787      11786  
     11655      11656      11667      11666      11776      11777      11788      11787  
     11656      11657      11668      11667      11777      11778      11789      11788  
     11657      11658      11669      11668      11778      11779      11790      11789  
     11658      11659      11670      11669      11779      11780      11791      11790  
     11659      11660      11671      11670      11780      11781      11792      11791  
     11661      11662      11673      11672      11782      11783      11794      11793  
     11662      11663      11674      11673      11783      11784      11795      11794  
     11663      11664      11675      11674      11784      11785      11796      11795  
     11664      11665      11676      11675      11785      11786      11797      11796  
     11665      11666      11677      11676      11786      11787      11798      11797  
     11666      11667      11678      11677      11787      11788      11799      11798  
     11667      11668      11679      11678      11788      11789      11800      11799  
     11668      11669      11680      11679      11789      11790      11801      11800  
     11669      11670      11681      11680      11790      11791      11802      11801  
     11670      11671      11682      11681      11791      11792      11803      11802  
     11672      11673      11684      11683      11793      11794      11805      11804  
     11673      11674      11685      11684      11794      11795      11806      11805  
     11674      11675      11686      11685      11795      11796      11807      11806  
     11675      11676      11687      11686      11796      11797      11808      11807  
     11676      11677      11688      11687      11797      11798      11809      11808  
     11677      11678      11689      11688      11798      11799      11810      11809  
     11678      11679      11690      11689      11799      11800      11811      11810  
     11679      11680      11691      11690      11800      11801      11812      11811  
     11680      11681      11692      11691      11801      11802      11813      11812  
     11681      11682      11693      11692      11802      11803      11814      11813  
     11683      11684      11695      11694      11804      11805      11816      11815  
     11684      11685      11696      11695      11805      11806      11817      11816  
     11685      11686      11697      11696      11806      11807      11818      11817  
     11686      11687      11698      11697      11807      11808      11819      11818  
     11687      11688      11699      11698      11808      11809      11820      11819  
     11688      11689      11700      11699      11809      11810      11821      11820  
     11689      11690      11701      11700      11810      11811      11822      11821  
     11690      11691      11702      11701      11811      11812      11823      11822  
     11691      11692      11703      11702      11812      11813      11824      11823  
     11692      11693      11704      11703      11813      11814      11825      11824  
     11694      11695      11706      11705      11815      11816      11827      11826  
     11695      11696      11707      11706      11816      11817      11828      11827  
     11696      11697      11708      11707      11817      11818      11829      11828  
     11697      11698      11709      11708      11818      11819      11830      11829  
     11698      11699      11710      11709      11819      11820      11831      11830  
     11699      11700      11711      11710      11820      11821      11832      11831  
     11700      11701      11712      11711      11821      11822      11833      11832  
     11701      11702      11713      11712      11822      11823      11834      11833  
     11702      11703      11714      11713      11823      11824      11835      11834  
     11703      11704      11715      11714      11824      11825      11836      11835  
     11705      11706      11717      11716      11826      11827      11838      11837  
     11706      11707      11718      11717      11827      11828      11839      11838  
     11707      11708      11719      11718      11828      11829      11840      11839  
     11708      11709      11720      11719      11829      11830      11841      11840  
     11709      11710      11721      11720      11830      11831      11842      11841  
     11710      11711      11722      11721      11831      11832      11843      11842  
     11711      11712      11723      11722      11832      11833      11844      11843  
     11712      11713      11724      11723      11833      11834      11845      11844  
     11713      11714      11725      11724      11834      11835      11846      11845  
     11714      11715      11726      11725      11835      11836      11847      11846  
     11716      11717      11728      11727      11837      11838      11849      11848  
     11717      11718      11729      11728      11838      11839      11850      11849  
     11718      11719      11730      11729      11839      11840      11851      11850  
     11719      11720      11731      11730      11840      11841      11852      11851  
     11720      11721      11732      11731      11841      11842      11853      11852  
     11721      11722      11733      11732      11842      11843      11854      11853  
     11722      11723      11734      11733      11843      11844      11855      11854  
     11723      11724      11735      11734      11844      11845      11856      11855  
     11724      11725      11736      11735      11845      11846      11857      11856  
     11725      11726      11737      11736      11846      11847      11858      11857  
     11738      11739      11750      11749      11859      11860      11871      11870  
     11739      11740      11751      11750      11860      11861      11872      11871  
     11740      11741      11752      11751      11861      11862      11873      11872  
     11741      11742      11753      11752      11862      11863      11874      11873  
     11742      11743      11754      11753      11863      11864      11875      11874  
     11743      11744      11755      11754      11864      11865      11876      11875  
     11744      11745      11756      11755      11865      11866      11877      11876  
     11745      11746      11757      11756      11866      11867      11878      11877  
     11746      11747      11758      11757      11867      11868      11879      11878  
     11747      11748      11759      11758      11868      11869      11880      11879  
     11749      11750      11761      11760      11870      11871      11882      11881  
     11750      11751      11762      11761      11871      11872      11883      11882  
     11751      11752      11763      11762      11872      11873      11884      11883  
     11752      11753      11764      11763      11873      11874      11885      11884  
     11753      11754      11765      11764      11874      11875      11886      11885  
     11754      11755      11766      11765      11875      11876      11887      11886  
     11755      11756      11767      11766      11876      11877      11888      11887  
     11756      11757      11768      11767      11877      11878      11889      11888  
     11757      11758      11769      11768      11878      11879      11890      11889  
     11758      11759      11770      11769      11879      11880      11891      11890  
     11760      11761      11772      11771      11881      11882      11893      11892  
     11761      11762      11773      11772      11882      11883      11894      11893  
     11762      11763      11774      11773      11883      11884      11895      11894  
     11763      11764      11775      11774      11884      11885      11896      11895  
     11764      11765      11776      11775      11885      11886      11897      11896  
     11765      11766      11777      11776      11886      11887      11898      11897  
     11766      11767      11778      11777      11887      11888      11899      11898  
     11767      11768      11779      11778      11888      11889      11900      11899  
     11768      11769      11780      11779      11889      11890      11901      11900  
     11769      11770      11781      11780      11890      11891      11902      11901  
     11771      11772      11783      11782      11892      11893      11904      11903  
     11772      11773      11784      11783      11893      11894      11905      11904  
     11773      11774      11785      11784      11894      11895      11906      11905  
     11774      11775      11786      11785      11895      11896      11907      11906  
     11775      11776      11787      11786      11896      11897      11908      11907  
     11776      11777      11788      11787      11897      11898      11909      11908  
     11777      11778      11789      11788      11898      11899      11910      11909  
     11778      11779      11790      11789      11899      11900      11911      11910  
     11779      11780      11791      11790      11900      11901      11912      11911  
     11780      11781      11792      11791      11901      11902      11913      11912  
     11782      11783      11794      11793      11903      11904      11915      11914  
     11783      11784      11795      11794      11904      11905      11916      11915  
     11784      11785      11796      11795      11905      11906      11917      11916  
     11785      11786      11797      11796      11906      11907      11918      11917  
     11786      11787      11798      11797      11907      11908      11919      11918  
     11787      11788      11799      11798      11908      11909      11920      11919  
     11788      11789      11800      11799      11909      11910      11921      11920  
     11789      11790      11801      11800      11910      11911      11922      11921  
     11790      11791      11802      11801      11911      11912      11923      11922  
     11791      11792      11803      11802      11912      11913      11924      11923  
     11793      11794      11805      11804      11914      11915      11926      11925  
     11794      11795      11806      11805      11915      11916      11927      11926  
     11795      11796      11807      11806      11916      11917      11928      11927  
     11796      11797      11808      11807      11917      11918      11929      11928  
     11797      11798      11809      11808      11918      11919      11930      11929  
     11798      11799      11810      11809      11919      11920      11931      11930  
     11799      11800      11811      11810      11920      11921      11932      11931  
     11800      11801      11812      11811      11921      11922      11933      11932  
     11801      11802      11813      11812      11922      11923      11934      11933  
     11802      11803      11814      11813      11923      11924      11935      11934  
     11804      11805      11816      11815      11925      11926      11937      11936  
     11805      11806      11817      11816      11926      11927      11938      11937  
     11806      11807      11818      11817      11927      11928      11939      11938  
     11807      11808      11819      11818      11928      11929      11940      11939  
     11808      11809      11820      11819      11929      11930      11941      11940  
     11809      11810      11821      11820      11930      11931      11942      11941  
     11810      11811      11822      11821      11931      11932      11943      11942  
     11811      11812      11823      11822      11932      11933      11944      11943  
     11812      11813      11824      11823      11933      11934      11945      11944  
     11813      11814      11825      11824      11934      11935      11946      11945  
     11815      11816      11827      11826      11936      11937      11948      11947  
     11816      11817      11828      11827      11937      11938      11949      11948  
     11817      11818      11829      11828      11938      11939      11950      11949  
     11818      11819      11830      11829      11939      11940      11951      11950  
     11819      11820      11831      11830      11940      11941      11952      11951  
     11820      11821      11832      11831      11941      11942      11953      11952  
     11821      11822      11833      11832      11942      11943      11954      11953  
     11822      11823      11834      11833      11943      11944      11955      11954  
     11823      11824      11835      11834      11944      11945      11956      11955  
     11824      11825      11836      11835      11945      11946      11957      11956  
     11826      11827      11838      11837      11947      11948      11959      11958  
     11827      11828      11839      11838      11948      11949      11960      11959  
     11828      11829      11840      11839      11949      11950      11961      11960  
     11829      11830      11841      11840      11950      11951      11962      11961  
     11830      11831      11842      11841      11951      11952      11963      11962  
     11831      11832      11843      11842      11952      11953      11964      11963  
     11832      11833      11844      11843      11953      11954      11965      11964  
     11833      11834      11845      11844      11954      11955      11966      11965  
     11834      11835      11846      11845      11955      11956      11967      11966  
     11835      11836      11847      11846      11956      11957      11968      11967  
     11837      11838      11849      11848      11958      11959      11970      11969  
     11838      11839      11850      11849      11959      11960      11971      11970  
     11839      11840      11851      11850      11960      11961      11972      11971  
     11840      11841      11852      11851      11961      11962      11973      11972  
     11841      11842      11853      11852      11962      11963      11974      11973  
     11842      11843      11854      11853      11963      11964      11975      11974  
     11843      11844      11855      11854      11964      11965      11976      11975  
     11844      11845      11856      11855      11965      11966      11977      11976  
     11845      11846      11857      11856      11966      11967      11978      11977  
     11846      11847      11858      11857      11967      11968      11979      11978  
     11859      11860      11871      11870      11980      11981      11992      11991  
     11860      11861      11872      11871      11981      11982      11993      11992  
     11861      11862      11873      11872      11982      11983      11994      11993  
     11862      11863      11874      11873      11983      11984      11995      11994  
     11863      11864      11875      11874      11984      11985      11996      11995  
     11864      11865      11876      11875      11985      11986      11997      11996  
     11865      11866      11877      11876      11986      11987      11998      11997  
     11866      11867      11878      11877      11987      11988      11999      11998  
     11867      11868      11879      11878      11988      11989      12000      11999  
     11868      11869      11880      11879      11989      11990      12001      12000  
     11870      11871      11882      11881      11991      11992      12003      12002  
     11871      11872      11883      11882      11992      11993      12004      12003  
     11872      11873      11884      11883      11993      11994      12005      12004  
     11873      11874      11885      11884      11994      11995      12006      12005  
     11874      11875      11886      11885      11995      11996      12007      12006  
     11875      11876      11887      11886      11996      11997      12008      12007  
     11876      11877      11888      11887      11997      11998      12009      12008  
     11877      11878      11889      11888      11998      11999      12010      12009  
     11878      11879      11890      11889      11999      12000      12011      12010  
     11879      11880      11891      11890      12000      12001      12012      12011  
     11881      11882      11893      11892      12002      12003      12014      12013  
     11882      11883      11894      11893      12003      12004      12015      12014  
     11883      11884      11895      11894      12004      12005      12016      12015  
     11884      11885      11896      11895      12005      12006      12017      12016  
     11885      11886      11897      11896      12006      12007      12018      12017  
     11886      11887      11898      11897      12007      12008      12019      12018  
     11887      11888      11899      11898      12008      12009      12020      12019  
     11888      11889      11900      11899      12009      12010      12021      12020  
     11889      11890      11901      11900      12010      12011      12022      12021  
     11890      11891      11902      11901      12011      12012      12023      12022  
     11892      11893      11904      11903      12013      12014      12025      12024  
     11893      11894      11905      11904      12014      12015      12026      12025  
     11894      11895      11906      11905      12015      12016      12027      12026  
     11895      11896      11907      11906      12016      12017      12028      12027  
     11896      11897      11908      11907      12017      12018      12029      12028  
     11897      11898      11909      11908      12018      12019      12030      12029  
     11898      11899      11910      11909      12019      12020      12031      12030  
     11899      11900      11911      11910      12020      12021      12032      12031  
     11900      11901      11912      11911      12021      12022      12033      12032  
     11901      11902      11913      11912      12022      12023      12034      12033  
     11903      11904      11915      11914      12024      12025      12036      12035  
     11904      11905      11916      11915      12025      12026      12037      12036  
     11905      11906      11917      11916      12026      12027      12038      12037  
     11906      11907      11918      11917      12027      12028      12039      12038  
     11907      11908      11919      11918      12028      12029      12040      12039  
     11908      11909      11920      11919      12029      12030      12041      12040  
     11909      11910      11921      11920      12030      12031      12042      12041  
     11910      11911      11922      11921      12031      12032      12043      12042  
     11911      11912      11923      11922      12032      12033      12044      12043  
     11912      11913      11924      11923      12033      12034      12045      12044  
     11914      11915      11926      11925      12035      12036      12047      12046  
     11915      11916      11927      11926      12036      12037      12048      12047  
     11916      11917      11928      11927      12037      12038      12049      12048  
     11917      11918      11929      11928      12038      12039      12050      12049  
     11918      11919      11930      11929      12039      12040      12051      12050  
     11919      11920      11931      11930      12040      12041      12052      12051  
     11920      11921      11932      11931      12041      12042      12053      12052  
     11921      11922      11933      11932      12042      12043      12054      12053  
     11922      11923      11934      11933      12043      12044      12055      12054  
     11923      11924      11935      11934      12044      12045      12056      12055  
     11925      11926      11937      11936      12046      12047      12058      12057  
     11926      11927      11938      11937      12047      12048      12059      12058  
     11927      11928      11939      11938      12048      12049      12060      12059  
     11928      11929      11940      11939      12049      12050      12061      12060  
     11929      11930      11941      11940      12050      12051      12062      12061  
     11930      11931      11942      11941      12051      12052      12063      12062  
     11931      11932      11943      11942      12052      12053      12064      12063  
     11932      11933      11944      11943      12053      12054      12065      12064  
     11933      11934      11945      11944      12054      12055      12066      12065  
     11934      11935      11946      11945      12055      12056      12067      12066  
     11936      11937      11948      11947      12057      12058      12069      12068  
     11937      11938      11949      11948      12058      12059      12070      12069  
     11938      11939      11950      11949      12059      12060      12071      12070  
     11939      11940      11951      11950      12060      12061      12072      12071  
     11940      11941      11952      11951      12061      12062      12073      12072  
     11941      11942      11953      11952      12062      12063      12074      12073  
     11942      11943      11954      11953      12063      12064      12075      12074  
     11943      11944      11955      11954      12064      12065      12076      12075  
     11944      11945      11956      11955      12065      12066      12077      12076  
     11945      11946      11957      11956      12066      12067      12078      12077  
     11947      11948      11959      11958      12068      12069      12080      12079  
     11948      11949      11960      11959      12069      12070      12081      12080  
     11949      11950      11961      11960      12070      12071      12082      12081  
     11950      11951      11962      11961      12071      12072      12083      12082  
     11951      11952      11963      11962      12072      12073      12084      12083  
     11952      11953      11964      11963      12073      12074      12085      12084  
     11953      11954      11965      11964      12074      12075      12086      12085  
     11954      11955      11966      11965      12075      12076      12087      12086  
     11955      11956      11967      11966      12076      12077      12088      12087  
     11956      11957      11968      11967      12077      12078      12089      12088  
     11958      11959      11970      11969      12079      12080      12091      12090  
     11959      11960      11971      11970      12080      12081      12092      12091  
     11960      11961      11972      11971      12081      12082      12093      12092  
     11961      11962      11973      11972      12082      12083      12094      12093  
     11962      11963      11974      11973      12083      12084      12095      12094  
     11963      11964      11975      11974      12084      12085      12096      12095  
     11964      11965      11976      11975      12085      12086      12097      12096  
     11965      11966      11977      11976      12086      12087      12098      12097  
     11966      11967      11978      11977      12087      12088      12099      12098  
     11967      11968      11979      11978      12088      12089      12100      12099  
     11980      11981      11992      11991      12101      12102      12113      12112  
     11981      11982      11993      11992      12102      12103      12114      12113  
     11982      11983      11994      11993      12103      12104      12115      12114  
     11983      11984      11995      11994      12104      12105      12116      12115  
     11984      11985      11996      11995      12105      12106      12117      12116  
     11985      11986      11997      11996      12106      12107      12118      12117  
     11986      11987      11998      11997      12107      12108      12119      12118  
     11987      11988      11999      11998      12108      12109      12120      12119  
     11988      11989      12000      11999      12109      12110      12121      12120  
     11989      11990      12001      12000      12110      12111      12122      12121  
     11991      11992      12003      12002      12112      12113      12124      12123  
     11992      11993      12004      12003      12113      12114      12125      12124  
     11993      11994      12005      12004      12114      12115      12126      12125  
     11994      11995      12006      12005      12115      12116      12127      12126  
     11995      11996      12007      12006      12116      12117      12128      12127  
     11996      11997      12008      12007      12117      12118      12129      12128  
     11997      11998      12009      12008      12118      12119      12130      12129  
     11998      11999      12010      12009      12119      12120      12131      12130  
     11999      12000      12011      12010      12120      12121      12132      12131  
     12000      12001      12012      12011      12121      12122      12133      12132  
     12002      12003      12014      12013      12123      12124      12135      12134  
     12003      12004      12015      12014      12124      12125      12136      12135  
     12004      12005      12016      12015      12125      12126      12137      12136  
     12005      12006      12017      12016      12126      12127      12138      12137  
     12006      12007      12018      12017      12127      12128      12139      12138  
     12007      12008      12019      12018      12128      12129      12140      12139  
     12008      12009      12020      12019      12129      12130      12141      12140  
     12009      12010      12021      12020      12130      12131      12142      12141  
     12010      12011      12022      12021      12131      12132      12143      12142  
     12011      12012      12023      12022      12132      12133      12144      12143  
     12013      12014      12025      12024      12134      12135      12146      12145  
     12014      12015      12026      12025      12135      12136      12147      12146  
     12015      12016      12027      12026      12136      12137      12148      12147  
     12016      12017      12028      12027      12137      12138      12149      12148  
     12017      12018      12029      12028      12138      12139      12150      12149  
     12018      12019      12030      12029      12139      12140      12151      12150  
     12019      12020      12031      12030      12140      12141      12152      12151  
     12020      12021      12032      12031      12141      12142      12153      12152  
     12021      12022      12033      12032      12142      12143      12154      12153  
     12022      12023      12034      12033      12143      12144      12155      12154  
     12024      12025      12036      12035      12145      12146      12157      12156  
     12025      12026      12037      12036      12146      12147      12158      12157  
     12026      12027      12038      12037      12147      12148      12159      12158  
     12027      12028      12039      12038      12148      12149      12160      12159  
     12028      12029      12040      12039      12149      12150      12161      12160  
     12029      12030      12041      12040      12150      12151      12162      12161  
     12030      12031      12042      12041      12151      12152      12163      12162  
     12031      12032      12043      12042      12152      12153      12164      12163  
     12032      12033      12044      12043      12153      12154      12165      12164  
     12033      12034      12045      12044      12154      12155      12166      12165  
     12035      12036      12047      12046      12156      12157      12168      12167  
     12036      12037      12048      12047      12157      12158      12169      12168  
     12037      12038      12049      12048      12158      12159      12170      12169  
     12038      12039      12050      12049      12159      12160      12171      12170  
     12039      12040      12051      12050      12160      12161      12172      12171  
     12040      12041      12052      12051      12161      12162      12173      12172  
     12041      12042      12053      12052      12162      12163      12174      12173  
     12042      12043      12054      12053      12163      12164      12175      12174  
     12043      12044      12055      12054      12164      12165      12176      12175  
     12044      12045      12056      12055      12165      12166      12177      12176  
     12046      12047      12058      12057      12167      12168      12179      12178  
     12047      12048      12059      12058      12168      12169      12180      12179  
     12048      12049      12060      12059      12169      12170      12181      12180  
     12049      12050      12061      12060      12170      12171      12182      12181  
     12050      12051      12062      12061      12171      12172      12183      12182  
     12051      12052      12063      12062      12172      12173      12184      12183  
     12052      12053      12064      12063      12173      12174      12185      12184  
     12053      12054      12065      12064      12174      12175      12186      12185  
     12054      12055      12066      12065      12175      12176      12187      12186  
     12055      12056      12067      12066      12176      12177      12188      12187  
     12057      12058      12069      12068      12178      12179      12190      12189  
     12058      12059      12070      12069      12179      12180      12191      12190  
     12059      12060      12071      12070      12180      12181      12192      12191  
     12060      12061      12072      12071      12181      12182      12193      12192  
     12061      12062      12073      12072      12182      12183      12194      12193  
     12062      12063      12074      12073      12183      12184      12195      12194  
     12063      12064      12075      12074      12184      12185      12196      12195  
     12064      12065      12076      12075      12185      12186      12197      12196  
     12065      12066      12077      12076      12186      12187      12198      12197  
     12066      12067      12078      12077      12187      12188      12199      12198  
     12068      12069      12080      12079      12189      12190      12201      12200  
     12069      12070      12081      12080      12190      12191      12202      12201  
     12070      12071      12082      12081      12191      12192      12203      12202  
     12071      12072      12083      12082      12192      12193      12204      12203  
     12072      12073      12084      12083      12193      12194      12205      12204  
     12073      12074      12085      12084      12194      12195      12206      12205  
     12074      12075      12086      12085      12195      12196      12207      12206  
     12075      12076      12087      12086      12196      12197      12208      12207  
     12076      12077      12088      12087      12197      12198      12209      12208  
     12077      12078      12089      12088      12198      12199      12210      12209  
     12079      12080      12091      12090      12200      12201      12212      12211  
     12080      12081      12092      12091      12201      12202      12213      12212  
     12081      12082      12093      12092      12202      12203      12214      12213  
     12082      12083      12094      12093      12203      12204      12215      12214  
     12083      12084      12095      12094      12204      12205      12216      12215  
     12084      12085      12096      12095      12205      12206      12217      12216  
     12085      12086      12097      12096      12206      12207      12218      12217  
     12086      12087      12098      12097      12207      12208      12219      12218  
     12087      12088      12099      12098      12208      12209      12220      12219  
     12088      12089      12100      12099      12209      12210      12221      12220  
